
     Program PWSCF v.7.2 starts on 19May2025 at 20:14: 4 

     This program is part of the open-source Quantum ESPRESSO suite
     for quantum simulation of materials; please cite
         "P. Giannozzi et al., J. Phys.:Condens. Matter 21 395502 (2009);
         "P. Giannozzi et al., J. Phys.:Condens. Matter 29 465901 (2017);
         "P. Giannozzi et al., J. Chem. Phys. 152 154105 (2020);
          URL http://www.quantum-espresso.org", 
     in publications or presentations arising from this work. More details at
     http://www.quantum-espresso.org/quote

     Parallel version (MPI), running on    32 processors

     MPI processes distributed on     1 nodes
     365641 MiB available memory on the printing compute node when the environment starts

     Waiting for input...
     Reading input from standard input

     Current dimensions of program PWSCF are:
     Max number of different atomic species (ntypx) = 10
     Max number of k-points (npk) =  40000
     Max angular momentum in pseudopotentials (lmaxx) =  4
     file C.pbesol-n-kjpaw_psl.1.0.0.UPF: wavefunction(s)  2S 2P renormalized

     R & G space division:  proc/nbgrp/npool/nimage =      32
     Subspace diagonalization in iterative solution of the eigenvalue problem:
     one sub-group per band group will be used
     custom distributed-memory algorithm (size of sub-group:  5*  5 procs)


     Parallelization info
     --------------------
     sticks:   dense  smooth     PW     G-vecs:    dense   smooth      PW
     Min         878     844    211                80117    75361    9423
     Max         882     845    212                80120    75364    9425
     Sum       28159   27021   6771              2563819  2411581  301561

     Using Slab Decomposition



     bravais-lattice index     =            0
     lattice parameter (alat)  =      37.6381  a.u.
     unit-cell volume          =   38409.3354 (a.u.)^3
     number of atoms/cell      =          496
     number of atomic types    =            4
     number of electrons       =      2016.00
     number of Kohn-Sham states=         1008
     kinetic-energy cutoff     =      60.0000  Ry
     charge density cutoff     =     250.0000  Ry
     scf convergence threshold =      1.2E-08
     mixing beta               =       0.4000
     number of iterations used =            8  plain     mixing
     Exchange-correlation= SLA  PW   PSX  PSC
                           (   1   4  10   8   0   0   0)

     celldm(1)=  37.638096  celldm(2)=   0.000000  celldm(3)=   0.000000
     celldm(4)=   0.000000  celldm(5)=   0.000000  celldm(6)=   0.000000

     crystal axes: (cart. coord. in units of alat)
               a(1) = (  -0.509774   0.509774   0.693009 )  
               a(2) = (   0.509774  -0.509774   0.693009 )  
               a(3) = (   0.509774   0.509774  -0.693009 )  

     reciprocal axes: (cart. coord. in units 2 pi/alat)
               b(1) = (  0.000000  0.980827  0.721491 )  
               b(2) = (  0.980827  0.000000  0.721491 )  
               b(3) = (  0.980827  0.980827  0.000000 )  


     PseudoPot. # 1 for N  read from file:
     ./pseudo/N.pbesol-theos.UPF
     MD5 check sum: 1b64827339d390a5a22afef3ff345c9d
     Pseudo is Ultrasoft + core correction, Zval =  5.0
     Generated using "atomic" code by A. Dal Corso  v.5.1
     Using radial grid of 1085 points,  4 beta functions with: 
                l(1) =   0
                l(2) =   0
                l(3) =   1
                l(4) =   1
     Q(r) pseudized with 0 coefficients 


     PseudoPot. # 2 for C  read from file:
     ./pseudo/C.pbesol-n-kjpaw_psl.1.0.0.UPF
     MD5 check sum: 5f3a56537b2bcef3348431d8311bb923
     Pseudo is Projector augmented-wave + core cor, Zval =  4.0
     Generated using "atomic" code by A. Dal Corso  v.6.0 svn rev. 13079
     Shape of augmentation charge: PSQ
     Using radial grid of 1073 points,  4 beta functions with: 
                l(1) =   0
                l(2) =   0
                l(3) =   1
                l(4) =   1
     Q(r) pseudized with 0 coefficients 


     PseudoPot. # 3 for H  read from file:
     ./pseudo/H.pbesol-rrkjus_psl.1.0.0.UPF
     MD5 check sum: 0324ed591cc0147dc3d88cad0d33f665
     Pseudo is Ultrasoft, Zval =  1.0
     Generated using "atomic" code by A. Dal Corso  v.6.0 svn rev. 13079
     Using radial grid of  929 points,  2 beta functions with: 
                l(1) =   0
                l(2) =   0
     Q(r) pseudized with 0 coefficients 


     PseudoPot. # 4 for Zn read from file:
     ./pseudo/zn_pbesol_v1.uspp.F.UPF
     MD5 check sum: 7d8615e52efe7c1e2b1899de8658bae2
     Pseudo is Ultrasoft, Zval = 20.0
     Generated by new atomic code, or converted to UPF format
     Using radial grid of  943 points,  6 beta functions with: 
                l(1) =   0
                l(2) =   0
                l(3) =   1
                l(4) =   1
                l(5) =   2
                l(6) =   2
     Q(r) pseudized with  8 coefficients,  rinner =    1.100   1.100   1.100
                                                       1.100   1.100

     atomic species   valence    mass     pseudopotential
        N              5.00    14.00670     N ( 1.00)
        C              4.00    12.01070     C ( 1.00)
        H              1.00     1.00794     H ( 1.00)
        Zn            20.00    65.38000     Zn( 1.00)

     No symmetry found


                                    s                        frac. trans.

      isym =  1     identity                                     

 cryst.   s( 1) = (     1          0          0      )
                  (     0          1          0      )
                  (     0          0          1      )

 cart.    s( 1) = (  1.0000000  0.0000000  0.0000000 )
                  (  0.0000000  1.0000000  0.0000000 )
                  (  0.0000000  0.0000000  1.0000000 )


   Cartesian axes

     site n.     atom                  positions (alat units)
         1           N   tau(   1) = (   0.2710468  -0.0829864   0.1173636  )
         2           N   tau(   2) = (   0.0161599   0.1719005   0.4638680  )
         3           N   tau(   3) = (   0.5259337  -0.3378733   0.4638680  )
         4           N   tau(   4) = (   0.2710468  -0.0829864   0.8103725  )
         5           N   tau(   5) = (   0.5259337   0.1719005  -0.2291408  )
         6           N   tau(   6) = (   0.2710468   0.4267874   0.1173636  )
         7           N   tau(   7) = (   0.7808206  -0.0829864   0.1173636  )
         8           N   tau(   8) = (   0.5259337   0.1719005   0.4638680  )
         9           N   tau(   9) = (   0.0792892   0.1480962   0.4576515  )
        10           N   tau(  10) = (  -0.1755977   0.4029831   0.8041559  )
        11           N   tau(  11) = (   0.3341761  -0.1067907   0.8041559  )
        12           N   tau(  12) = (   0.0792892   0.1480962   1.1506604  )
        13           N   tau(  13) = (   0.3341761   0.4029831   0.1111471  )
        14           N   tau(  14) = (   0.0792892   0.6578701   0.4576515  )
        15           N   tau(  15) = (   0.5890630   0.1480962   0.4576515  )
        16           N   tau(  16) = (   0.3341761   0.4029831   0.8041559  )
        17           C   tau(  17) = (  -0.0968335   0.1355948   0.4273593  )
        18           C   tau(  18) = (  -0.3517204   0.3904817   0.7738637  )
        19           C   tau(  19) = (   0.1580534  -0.1192921   0.7738637  )
        20           C   tau(  20) = (  -0.0968335   0.1355948   1.1203682  )
        21           C   tau(  21) = (   0.1580534   0.3904817   0.0808549  )
        22           C   tau(  22) = (  -0.0968335   0.6453687   0.4273593  )
        23           C   tau(  23) = (   0.4129403   0.1355948   0.4273593  )
        24           C   tau(  24) = (   0.1580534   0.3904817   0.7738637  )
        25           C   tau(  25) = (  -0.0244840   0.1283983   0.4318794  )
        26           C   tau(  26) = (  -0.2793710   0.3832852   0.7783839  )
        27           C   tau(  27) = (   0.2304029  -0.1264886   0.7783839  )
        28           C   tau(  28) = (  -0.0244840   0.1283983   1.1248883  )
        29           C   tau(  29) = (   0.2304029   0.3832852   0.0853750  )
        30           C   tau(  30) = (  -0.0244840   0.6381721   0.4318794  )
        31           C   tau(  31) = (   0.4852898   0.1283983   0.4318794  )
        32           C   tau(  32) = (   0.2304029   0.3832852   0.7783839  )
        33           C   tau(  33) = (   0.1135697   0.3364209   0.0858899  )
        34           C   tau(  34) = (  -0.1413172   0.5913078   0.4323944  )
        35           C   tau(  35) = (   0.3684566   0.0815340   0.4323944  )
        36           C   tau(  36) = (   0.1135697   0.3364209   0.7788988  )
        37           C   tau(  37) = (   0.3684566   0.5913078  -0.2606145  )
        38           C   tau(  38) = (   0.1135697   0.8461947   0.0858899  )
        39           C   tau(  39) = (   0.6233435   0.3364209   0.0858899  )
        40           C   tau(  40) = (   0.3684566   0.5913078   0.4323944  )
        41           H   tau(  41) = (   0.1322798   0.2851568   0.0915441  )
        42           H   tau(  42) = (  -0.1228780   0.5397728   0.4384168  )
        43           H   tau(  43) = (   0.3868958   0.0299990   0.4384168  )
        44           H   tau(  44) = (   0.1320089   0.2848859   0.7849212  )
        45           H   tau(  45) = (   0.3868958   0.5397728  -0.2545921  )
        46           H   tau(  46) = (   0.1320089   0.7946597   0.0919123  )
        47           H   tau(  47) = (   0.6417827   0.2848859   0.0919123  )
        48           H   tau(  48) = (   0.3868958   0.5397728   0.4384168  )
        49           C   tau(  49) = (   0.0234072   0.4166034   0.0803957  )
        50           C   tau(  50) = (  -0.2314797   0.6714904   0.4269002  )
        51           C   tau(  51) = (   0.2782941   0.1617165   0.4269002  )
        52           C   tau(  52) = (   0.0234072   0.4166034   0.7734046  )
        53           C   tau(  53) = (   0.2782941   0.6714904  -0.2661087  )
        54           C   tau(  54) = (   0.0234072   0.9263773   0.0803957  )
        55           C   tau(  55) = (   0.5331811   0.4166034   0.0803957  )
        56           C   tau(  56) = (   0.2782941   0.6714904   0.4269002  )
        57           H   tau(  57) = (  -0.0300067   0.4299903   0.0814174  )
        58           H   tau(  58) = (  -0.2848936   0.6848772   0.4279218  )
        59           H   tau(  59) = (   0.2248802   0.1751034   0.4279218  )
        60           H   tau(  60) = (  -0.0300067   0.4299903   0.7744263  )
        61           H   tau(  61) = (   0.2248802   0.6848772  -0.2650870  )
        62           H   tau(  62) = (  -0.0300067   0.9397641   0.0814174  )
        63           H   tau(  63) = (   0.4797671   0.4299903   0.0814174  )
        64           H   tau(  64) = (   0.2248802   0.6848772   0.4279218  )
        65           N   tau(  65) = (   0.0137429   0.0791523   0.4063605  )
        66           N   tau(  66) = (  -0.2411440   0.3340392   0.7528650  )
        67           N   tau(  67) = (   0.2686298  -0.1757347   0.7528650  )
        68           N   tau(  68) = (   0.0137429   0.0791523   1.0993694  )
        69           N   tau(  69) = (   0.2686298   0.3340392   0.0598561  )
        70           N   tau(  70) = (   0.0137429   0.5889261   0.4063605  )
        71           N   tau(  71) = (   0.5235167   0.0791523   0.4063605  )
        72           N   tau(  72) = (   0.2686298   0.3340392   0.7528650  )
        73           N   tau(  73) = (   0.0778636   0.0929680   0.4236992  )
        74           N   tau(  74) = (  -0.1770233   0.3478549   0.7702037  )
        75           N   tau(  75) = (   0.3327505  -0.1619189   0.7702037  )
        76           N   tau(  76) = (   0.0778636   0.0929680   1.1167081  )
        77           N   tau(  77) = (   0.3327505   0.3478549   0.0771948  )
        78           N   tau(  78) = (   0.0778636   0.6027418   0.4236992  )
        79           N   tau(  79) = (   0.5876374   0.0929680   0.4236992  )
        80           N   tau(  80) = (   0.3327505   0.3478549   0.7702037  )
        81           C   tau(  81) = (  -0.1238286   0.2001118   0.4205514  )
        82           C   tau(  82) = (  -0.3787155   0.4549987   0.7670558  )
        83           C   tau(  83) = (   0.1310583  -0.0547751   0.7670558  )
        84           C   tau(  84) = (  -0.1238286   0.2001118   1.1135603  )
        85           C   tau(  85) = (   0.1310583   0.4549987   0.0740469  )
        86           C   tau(  86) = (  -0.1238286   0.7098857   0.4205514  )
        87           C   tau(  87) = (   0.3859452   0.2001118   0.4205514  )
        88           C   tau(  88) = (   0.1310583   0.4549987   0.7670558  )
        89           H   tau(  89) = (   0.1645114  -0.0114933   0.0672613  )
        90           H   tau(  90) = (  -0.0903755   0.2433936   0.4137658  )
        91           H   tau(  91) = (   0.4193983  -0.2663802   0.4137658  )
        92           H   tau(  92) = (   0.1645114  -0.0114933   0.7602702  )
        93           H   tau(  93) = (   0.4193983   0.2433936  -0.2792431  )
        94           H   tau(  94) = (   0.1645114   0.4982805   0.0672613  )
        95           H   tau(  95) = (   0.6742852  -0.0114933   0.0672613  )
        96           H   tau(  96) = (   0.4193983   0.2433936   0.4137658  )
        97           N   tau(  97) = (   0.0658052  -0.0414701   0.0746064  )
        98           N   tau(  98) = (  -0.1890817   0.2134168   0.4211109  )
        99           N   tau(  99) = (   0.3206921  -0.2963571   0.4211109  )
       100           N   tau( 100) = (   0.0658052  -0.0414701   0.7676153  )
       101           N   tau( 101) = (   0.3206921   0.2134168  -0.2718980  )
       102           N   tau( 102) = (   0.0658052   0.4683037   0.0746064  )
       103           N   tau( 103) = (   0.5755790  -0.0414701   0.0746064  )
       104           N   tau( 104) = (   0.3206921   0.2134168   0.4211109  )
       105           C   tau( 105) = (  -0.0451994   0.1596322   0.0850839  )
       106           C   tau( 106) = (  -0.3000863   0.4145191   0.4315883  )
       107           C   tau( 107) = (   0.2096875  -0.0952547   0.4315883  )
       108           C   tau( 108) = (  -0.0451994   0.1596322   0.7780928  )
       109           C   tau( 109) = (   0.2096875   0.4145191  -0.2614205  )
       110           C   tau( 110) = (  -0.0451994   0.6694060   0.0850839  )
       111           C   tau( 111) = (   0.4645744   0.1596322   0.0850839  )
       112           C   tau( 112) = (   0.2096875   0.4145191   0.4315883  )
       113           H   tau( 113) = (   0.0082067   0.3098036   0.0895138  )
       114           H   tau( 114) = (  -0.2466802   0.5646905   0.4360182  )
       115           H   tau( 115) = (   0.2630936   0.0549167   0.4360182  )
       116           H   tau( 116) = (   0.0082067   0.3098036   0.7825226  )
       117           H   tau( 117) = (   0.2630936   0.5646905  -0.2569907  )
       118           H   tau( 118) = (   0.0082067   0.8195774   0.0895138  )
       119           H   tau( 119) = (   0.5179805   0.3098036   0.0895138  )
       120           H   tau( 120) = (   0.2630936   0.5646905   0.4360182  )
       121           N   tau( 121) = (   0.2387270   0.0829864   0.1173636  )
       122           N   tau( 122) = (  -0.0161599   0.3378733   0.4638680  )
       123           N   tau( 123) = (   0.4936139  -0.1719005   0.4638680  )
       124           N   tau( 124) = (   0.2387270   0.0829864   0.8103725  )
       125           N   tau( 125) = (   0.4936139   0.3378733  -0.2291408  )
       126           N   tau( 126) = (   0.2387270   0.5927603   0.1173636  )
       127           N   tau( 127) = (   0.7485008   0.0829864   0.1173636  )
       128           N   tau( 128) = (   0.4936139   0.3378733   0.4638680  )
       129           N   tau( 129) = (   0.1755977   0.1067907   0.1111471  )
       130           N   tau( 130) = (  -0.0792892   0.3616776   0.4576515  )
       131           N   tau( 131) = (   0.4304846  -0.1480962   0.4576515  )
       132           N   tau( 132) = (   0.1755977   0.1067907   0.8041559  )
       133           N   tau( 133) = (   0.4304846   0.3616776  -0.2353574  )
       134           N   tau( 134) = (   0.1755977   0.6165645   0.1111471  )
       135           N   tau( 135) = (   0.6853715   0.1067907   0.1111471  )
       136           N   tau( 136) = (   0.4304846   0.3616776   0.4576515  )
       137           C   tau( 137) = (   0.3517204   0.1192921   0.0808549  )
       138           C   tau( 138) = (   0.0968335   0.3741790   0.4273593  )
       139           C   tau( 139) = (   0.6066073  -0.1355948   0.4273593  )
       140           C   tau( 140) = (   0.3517204   0.1192921   0.7738637  )
       141           C   tau( 141) = (   0.6066073   0.3741790  -0.2656496  )
       142           C   tau( 142) = (   0.3517204   0.6290659   0.0808549  )
       143           C   tau( 143) = (   0.8614942   0.1192921   0.0808549  )
       144           C   tau( 144) = (   0.6066073   0.3741790   0.4273593  )
       145           C   tau( 145) = (   0.2793710   0.1264886   0.0853750  )
       146           C   tau( 146) = (   0.0244840   0.3813755   0.4318794  )
       147           C   tau( 147) = (   0.5342579  -0.1283983   0.4318794  )
       148           C   tau( 148) = (   0.2793710   0.1264886   0.7783839  )
       149           C   tau( 149) = (   0.5342579   0.3813755  -0.2611294  )
       150           C   tau( 150) = (   0.2793710   0.6362624   0.0853750  )
       151           C   tau( 151) = (   0.7891448   0.1264886   0.0853750  )
       152           C   tau( 152) = (   0.5342579   0.3813755   0.4318794  )
       153           C   tau( 153) = (   0.1413172  -0.0815340   0.4323944  )
       154           C   tau( 154) = (  -0.1135697   0.1733530   0.7788988  )
       155           C   tau( 155) = (   0.3962041  -0.3364209   0.7788988  )
       156           C   tau( 156) = (   0.1413172  -0.0815340   1.1254033  )
       157           C   tau( 157) = (   0.3962041   0.1733530   0.0858899  )
       158           C   tau( 158) = (   0.1413172   0.4282399   0.4323944  )
       159           C   tau( 159) = (   0.6510910  -0.0815340   0.4323944  )
       160           C   tau( 160) = (   0.3962041   0.1733530   0.7788988  )
       161           H   tau( 161) = (   0.1228780  -0.0299990   0.4384168  )
       162           H   tau( 162) = (  -0.1320089   0.2248879   0.7849212  )
       163           H   tau( 163) = (   0.3777649  -0.2848859   0.7849212  )
       164           H   tau( 164) = (   0.1228780  -0.0299990   1.1314256  )
       165           H   tau( 165) = (   0.3777649   0.2248879   0.0919123  )
       166           H   tau( 166) = (   0.1228780   0.4797748   0.4384168  )
       167           H   tau( 167) = (   0.6326518  -0.0299990   0.4384168  )
       168           H   tau( 168) = (   0.3777649   0.2248879   0.7849212  )
       169           C   tau( 169) = (  -0.0234072   0.0931704   0.0803957  )
       170           C   tau( 170) = (  -0.2782942   0.3480573   0.4269002  )
       171           C   tau( 171) = (   0.2314797  -0.1617165   0.4269002  )
       172           C   tau( 172) = (  -0.0234072   0.0931704   0.7734046  )
       173           C   tau( 173) = (   0.2314797   0.3480573  -0.2661087  )
       174           C   tau( 174) = (  -0.0234072   0.6029442   0.0803957  )
       175           C   tau( 175) = (   0.4863666   0.0931704   0.0803957  )
       176           C   tau( 176) = (   0.2314797   0.3480573   0.4269002  )
       177           H   tau( 177) = (   0.0300067   0.0797836   0.0814174  )
       178           H   tau( 178) = (  -0.2248802   0.3346705   0.4279218  )
       179           H   tau( 179) = (   0.2848936  -0.1751034   0.4279218  )
       180           H   tau( 180) = (   0.0300067   0.0797836   0.7744263  )
       181           H   tau( 181) = (   0.2848936   0.3346705  -0.2650870  )
       182           H   tau( 182) = (   0.0300067   0.5895574   0.0814174  )
       183           H   tau( 183) = (   0.5397805   0.0797836   0.0814174  )
       184           H   tau( 184) = (   0.2848936   0.3346705   0.4279218  )
       185           N   tau( 185) = (   0.2411440   0.1757347   0.0598561  )
       186           N   tau( 186) = (  -0.0137429   0.4306216   0.4063605  )
       187           N   tau( 187) = (   0.4960309  -0.0791523   0.4063605  )
       188           N   tau( 188) = (   0.2411440   0.1757347   0.7528650  )
       189           N   tau( 189) = (   0.4960309   0.4306216  -0.2866484  )
       190           N   tau( 190) = (   0.2411440   0.6855085   0.0598561  )
       191           N   tau( 191) = (   0.7509178   0.1757347   0.0598561  )
       192           N   tau( 192) = (   0.4960309   0.4306216   0.4063605  )
       193           N   tau( 193) = (   0.1770233   0.1619189   0.0771948  )
       194           N   tau( 194) = (  -0.0778636   0.4168059   0.4236992  )
       195           N   tau( 195) = (   0.4319102  -0.0929680   0.4236992  )
       196           N   tau( 196) = (   0.1770233   0.1619189   0.7702037  )
       197           N   tau( 197) = (   0.4319102   0.4168059  -0.2693096  )
       198           N   tau( 198) = (   0.1770233   0.6716928   0.0771948  )
       199           N   tau( 199) = (   0.6867971   0.1619189   0.0771948  )
       200           N   tau( 200) = (   0.4319102   0.4168059   0.4236992  )
       201           C   tau( 201) = (   0.3787155   0.0547751   0.0740469  )
       202           C   tau( 202) = (   0.1238286   0.3096620   0.4205514  )
       203           C   tau( 203) = (   0.6336024  -0.2001118   0.4205514  )
       204           C   tau( 204) = (   0.3787155   0.0547751   0.7670558  )
       205           C   tau( 205) = (   0.6336024   0.3096620  -0.2724575  )
       206           C   tau( 206) = (   0.3787155   0.5645489   0.0740469  )
       207           C   tau( 207) = (   0.8884893   0.0547751   0.0740469  )
       208           C   tau( 208) = (   0.6336024   0.3096620   0.4205514  )
       209           H   tau( 209) = (   0.3452624   0.0114933   0.0672613  )
       210           H   tau( 210) = (   0.0903755   0.2663802   0.4137658  )
       211           H   tau( 211) = (   0.6001493  -0.2433936   0.4137658  )
       212           H   tau( 212) = (   0.3452624   0.0114933   0.7602702  )
       213           H   tau( 213) = (   0.6001493   0.2663802  -0.2792431  )
       214           H   tau( 214) = (   0.3452624   0.5212672   0.0672613  )
       215           H   tau( 215) = (   0.8550362   0.0114933   0.0672613  )
       216           H   tau( 216) = (   0.6001493   0.2663802   0.4137658  )
       217           N   tau( 217) = (   0.4439686   0.0414701   0.0746064  )
       218           N   tau( 218) = (   0.1890817   0.2963571   0.4211109  )
       219           N   tau( 219) = (   0.6988555  -0.2134168   0.4211109  )
       220           N   tau( 220) = (   0.4439686   0.0414701   0.7676153  )
       221           N   tau( 221) = (   0.6988555   0.2963571  -0.2718980  )
       222           N   tau( 222) = (   0.4439686   0.5512440   0.0746064  )
       223           N   tau( 223) = (   0.9537424   0.0414701   0.0746064  )
       224           N   tau( 224) = (   0.6988555   0.2963571   0.4211109  )
       225           C   tau( 225) = (   0.0451994   0.3501416   0.0850839  )
       226           C   tau( 226) = (  -0.2096875   0.6050285   0.4315883  )
       227           C   tau( 227) = (   0.3000863   0.0952547   0.4315883  )
       228           C   tau( 228) = (   0.0451994   0.3501416   0.7780928  )
       229           C   tau( 229) = (   0.3000863   0.6050285  -0.2614205  )
       230           C   tau( 230) = (   0.0451994   0.8599154   0.0850839  )
       231           C   tau( 231) = (   0.5549732   0.3501416   0.0850839  )
       232           C   tau( 232) = (   0.3000863   0.6050285   0.4315883  )
       233           H   tau( 233) = (  -0.0082067   0.1999702   0.0895138  )
       234           H   tau( 234) = (  -0.2630936   0.4548571   0.4360182  )
       235           H   tau( 235) = (   0.2466802  -0.0549167   0.4360182  )
       236           H   tau( 236) = (  -0.0082067   0.1999702   0.7825226  )
       237           H   tau( 237) = (   0.2466802   0.4548571  -0.2569907  )
       238           H   tau( 238) = (  -0.0082067   0.7097440   0.0895138  )
       239           H   tau( 239) = (   0.5015671   0.1999702   0.0895138  )
       240           H   tau( 240) = (   0.2466802   0.4548571   0.4360182  )
       241           N   tau( 241) = (   0.1719005  -0.0161599   0.2291408  )
       242           N   tau( 242) = (  -0.0829864   0.2387270   0.5756453  )
       243           N   tau( 243) = (   0.4267874  -0.2710468   0.5756453  )
       244           N   tau( 244) = (   0.1719005  -0.0161599   0.9221497  )
       245           N   tau( 245) = (   0.4267874   0.2387270  -0.1173636  )
       246           N   tau( 246) = (   0.1719005   0.4936139   0.2291408  )
       247           N   tau( 247) = (   0.6816743  -0.0161599   0.2291408  )
       248           N   tau( 248) = (   0.4267874   0.2387270   0.5756453  )
       249           N   tau( 249) = (   0.1480962  -0.0792892   0.2353574  )
       250           N   tau( 250) = (  -0.1067907   0.1755977   0.5818618  )
       251           N   tau( 251) = (   0.4029831  -0.3341761   0.5818618  )
       252           N   tau( 252) = (   0.1480962  -0.0792892   0.9283662  )
       253           N   tau( 253) = (   0.4029831   0.1755977  -0.1111471  )
       254           N   tau( 254) = (   0.1480962   0.4304846   0.2353574  )
       255           N   tau( 255) = (   0.6578701  -0.0792892   0.2353574  )
       256           N   tau( 256) = (   0.4029831   0.1755977   0.5818618  )
       257           C   tau( 257) = (   0.1355948   0.0968335   0.2656496  )
       258           C   tau( 258) = (  -0.1192921   0.3517204   0.6121540  )
       259           C   tau( 259) = (   0.3904817  -0.1580534   0.6121540  )
       260           C   tau( 260) = (   0.1355948   0.0968335   0.9586584  )
       261           C   tau( 261) = (   0.3904817   0.3517204  -0.0808549  )
       262           C   tau( 262) = (   0.1355948   0.6066073   0.2656496  )
       263           C   tau( 263) = (   0.6453687   0.0968335   0.2656496  )
       264           C   tau( 264) = (   0.3904817   0.3517204   0.6121540  )
       265           C   tau( 265) = (   0.1283983   0.0244840   0.2611294  )
       266           C   tau( 266) = (  -0.1264886   0.2793710   0.6076339  )
       267           C   tau( 267) = (   0.3832852  -0.2304029   0.6076339  )
       268           C   tau( 268) = (   0.1283983   0.0244840   0.9541383  )
       269           C   tau( 269) = (   0.3832852   0.2793710  -0.0853750  )
       270           C   tau( 270) = (   0.1283983   0.5342579   0.2611294  )
       271           C   tau( 271) = (   0.6381721   0.0244840   0.2611294  )
       272           C   tau( 272) = (   0.3832852   0.2793710   0.6076339  )
       273           C   tau( 273) = (   0.0815340   0.1413172   0.2606145  )
       274           C   tau( 274) = (  -0.1733530   0.3962041   0.6071189  )
       275           C   tau( 275) = (   0.3364209  -0.1135697   0.6071189  )
       276           C   tau( 276) = (   0.0815340   0.1413172   0.9536234  )
       277           C   tau( 277) = (   0.3364209   0.3962041  -0.0858899  )
       278           C   tau( 278) = (   0.0815340   0.6510910   0.2606145  )
       279           C   tau( 279) = (   0.5913078   0.1413172   0.2606145  )
       280           C   tau( 280) = (   0.3364209   0.3962041   0.6071189  )
       281           H   tau( 281) = (   0.0299990   0.1228780   0.2545921  )
       282           H   tau( 282) = (  -0.2248879   0.3777649   0.6010965  )
       283           H   tau( 283) = (   0.2848859  -0.1320089   0.6010965  )
       284           H   tau( 284) = (   0.0299990   0.1228780   0.9476010  )
       285           H   tau( 285) = (   0.2848859   0.3777649  -0.0919123  )
       286           H   tau( 286) = (   0.0299990   0.6326518   0.2545921  )
       287           H   tau( 287) = (   0.5397728   0.1228780   0.2545921  )
       288           H   tau( 288) = (   0.2848859   0.3777649   0.6010965  )
       289           C   tau( 289) = (   0.1617165   0.2314797   0.2661087  )
       290           C   tau( 290) = (  -0.0931704   0.4863666   0.6126131  )
       291           C   tau( 291) = (   0.4166034  -0.0234072   0.6126131  )
       292           C   tau( 292) = (   0.1617165   0.2314797   0.9591176  )
       293           C   tau( 293) = (   0.4166034   0.4863666  -0.0803957  )
       294           C   tau( 294) = (   0.1617165   0.7412535   0.2661087  )
       295           C   tau( 295) = (   0.6714904   0.2314797   0.2661087  )
       296           C   tau( 296) = (   0.4166034   0.4863666   0.6126131  )
       297           H   tau( 297) = (   0.1751034   0.2848936   0.2650870  )
       298           H   tau( 298) = (  -0.0797836   0.5397805   0.6115915  )
       299           H   tau( 299) = (   0.4299903   0.0300067   0.6115915  )
       300           H   tau( 300) = (   0.1751034   0.2848936   0.9580959  )
       301           H   tau( 301) = (   0.4299903   0.5397805  -0.0814174  )
       302           H   tau( 302) = (   0.1751034   0.7946674   0.2650870  )
       303           H   tau( 303) = (   0.6848772   0.2848936   0.2650870  )
       304           H   tau( 304) = (   0.4299903   0.5397805   0.6115915  )
       305           N   tau( 305) = (   0.0791523  -0.0137429   0.2866484  )
       306           N   tau( 306) = (  -0.1757347   0.2411440   0.6331528  )
       307           N   tau( 307) = (   0.3340392  -0.2686298   0.6331528  )
       308           N   tau( 308) = (   0.0791523  -0.0137429   0.9796572  )
       309           N   tau( 309) = (   0.3340392   0.2411440  -0.0598561  )
       310           N   tau( 310) = (   0.0791523   0.4960309   0.2866484  )
       311           N   tau( 311) = (   0.5889261  -0.0137429   0.2866484  )
       312           N   tau( 312) = (   0.3340392   0.2411440   0.6331528  )
       313           N   tau( 313) = (   0.0929680  -0.0778636   0.2693096  )
       314           N   tau( 314) = (  -0.1619189   0.1770233   0.6158141  )
       315           N   tau( 315) = (   0.3478549  -0.3327505   0.6158141  )
       316           N   tau( 316) = (   0.0929680  -0.0778636   0.9623185  )
       317           N   tau( 317) = (   0.3478549   0.1770233  -0.0771948  )
       318           N   tau( 318) = (   0.0929680   0.4319102   0.2693096  )
       319           N   tau( 319) = (   0.6027418  -0.0778636   0.2693096  )
       320           N   tau( 320) = (   0.3478549   0.1770233   0.6158141  )
       321           C   tau( 321) = (   0.2001118   0.1238286   0.2724575  )
       322           C   tau( 322) = (  -0.0547751   0.3787155   0.6189619  )
       323           C   tau( 323) = (   0.4549987  -0.1310583   0.6189619  )
       324           C   tau( 324) = (   0.2001118   0.1238286   0.9654664  )
       325           C   tau( 325) = (   0.4549987   0.3787155  -0.0740469  )
       326           C   tau( 326) = (   0.2001118   0.6336024   0.2724575  )
       327           C   tau( 327) = (   0.7098857   0.1238286   0.2724575  )
       328           C   tau( 328) = (   0.4549987   0.3787155   0.6189619  )
       329           H   tau( 329) = (   0.2433936   0.0903755   0.2792431  )
       330           H   tau( 330) = (  -0.0114933   0.3452624   0.6257475  )
       331           H   tau( 331) = (   0.4982805  -0.1645114   0.6257475  )
       332           H   tau( 332) = (   0.2433936   0.0903755   0.9722520  )
       333           H   tau( 333) = (   0.4982805   0.3452624  -0.0672613  )
       334           H   tau( 334) = (   0.2433936   0.6001493   0.2792431  )
       335           H   tau( 335) = (   0.7531674   0.0903755   0.2792431  )
       336           H   tau( 336) = (   0.4982805   0.3452624   0.6257475  )
       337           N   tau( 337) = (   0.2134168   0.1890817   0.2718980  )
       338           N   tau( 338) = (  -0.0414701   0.4439686   0.6184024  )
       339           N   tau( 339) = (   0.4683037  -0.0658052   0.6184024  )
       340           N   tau( 340) = (   0.2134168   0.1890817   0.9649069  )
       341           N   tau( 341) = (   0.4683037   0.4439686  -0.0746064  )
       342           N   tau( 342) = (   0.2134168   0.6988555   0.2718980  )
       343           N   tau( 343) = (   0.7231906   0.1890817   0.2718980  )
       344           N   tau( 344) = (   0.4683037   0.4439686   0.6184024  )
       345           C   tau( 345) = (  -0.0952547   0.3000863   0.2614205  )
       346           C   tau( 346) = (  -0.3501416   0.5549732   0.6079250  )
       347           C   tau( 347) = (   0.1596322   0.0451994   0.6079250  )
       348           C   tau( 348) = (  -0.0952547   0.3000863   0.9544294  )
       349           C   tau( 349) = (   0.1596322   0.5549732  -0.0850839  )
       350           C   tau( 350) = (  -0.0952547   0.8098601   0.2614205  )
       351           C   tau( 351) = (   0.4145191   0.3000863   0.2614205  )
       352           C   tau( 352) = (   0.1596322   0.5549732   0.6079250  )
       353           H   tau( 353) = (   0.0549167   0.2466802   0.2569907  )
       354           H   tau( 354) = (  -0.1999702   0.5015671   0.6034951  )
       355           H   tau( 355) = (   0.3098036  -0.0082067   0.6034951  )
       356           H   tau( 356) = (   0.0549167   0.2466802   0.9499995  )
       357           H   tau( 357) = (   0.3098036   0.5015671  -0.0895138  )
       358           H   tau( 358) = (   0.0549167   0.7564540   0.2569907  )
       359           H   tau( 359) = (   0.5646905   0.2466802   0.2569907  )
       360           H   tau( 360) = (   0.3098036   0.5015671   0.6034951  )
       361           N   tau( 361) = (   0.3378733   0.0161599   0.2291408  )
       362           N   tau( 362) = (   0.0829864   0.2710468   0.5756453  )
       363           N   tau( 363) = (   0.5927603  -0.2387270   0.5756453  )
       364           N   tau( 364) = (   0.3378733   0.0161599   0.9221497  )
       365           N   tau( 365) = (   0.5927603   0.2710468  -0.1173636  )
       366           N   tau( 366) = (   0.3378733   0.5259337   0.2291408  )
       367           N   tau( 367) = (   0.8476472   0.0161599   0.2291408  )
       368           N   tau( 368) = (   0.5927603   0.2710468   0.5756453  )
       369           N   tau( 369) = (   0.1067907   0.3341761  -0.1111471  )
       370           N   tau( 370) = (  -0.1480962   0.5890630   0.2353574  )
       371           N   tau( 371) = (   0.3616776   0.0792892   0.2353574  )
       372           N   tau( 372) = (   0.1067907   0.3341761   0.5818618  )
       373           N   tau( 373) = (   0.3616776   0.5890630  -0.4576515  )
       374           N   tau( 374) = (   0.1067907   0.8439499  -0.1111471  )
       375           N   tau( 375) = (   0.6165645   0.3341761  -0.1111471  )
       376           N   tau( 376) = (   0.3616776   0.5890630   0.2353574  )
       377           C   tau( 377) = (   0.1192921   0.1580534  -0.0808549  )
       378           C   tau( 378) = (  -0.1355948   0.4129403   0.2656496  )
       379           C   tau( 379) = (   0.3741790  -0.0968335   0.2656496  )
       380           C   tau( 380) = (   0.1192921   0.1580534   0.6121540  )
       381           C   tau( 381) = (   0.3741790   0.4129403  -0.4273593  )
       382           C   tau( 382) = (   0.1192921   0.6678273  -0.0808549  )
       383           C   tau( 383) = (   0.6290659   0.1580534  -0.0808549  )
       384           C   tau( 384) = (   0.3741790   0.4129403   0.2656496  )
       385           C   tau( 385) = (   0.1264886   0.2304029  -0.0853750  )
       386           C   tau( 386) = (  -0.1283983   0.4852898   0.2611294  )
       387           C   tau( 387) = (   0.3813755  -0.0244840   0.2611294  )
       388           C   tau( 388) = (   0.1264886   0.2304029   0.6076339  )
       389           C   tau( 389) = (   0.3813755   0.4852898  -0.4318794  )
       390           C   tau( 390) = (   0.1264886   0.7401767  -0.0853750  )
       391           C   tau( 391) = (   0.6362624   0.2304029  -0.0853750  )
       392           C   tau( 392) = (   0.3813755   0.4852898   0.2611294  )
       393           C   tau( 393) = (   0.1733530   0.1135697  -0.0858899  )
       394           C   tau( 394) = (  -0.0815340   0.3684566   0.2606145  )
       395           C   tau( 395) = (   0.4282399  -0.1413172   0.2606145  )
       396           C   tau( 396) = (   0.1733530   0.1135697   0.6071189  )
       397           C   tau( 397) = (   0.4282399   0.3684566  -0.4323944  )
       398           C   tau( 398) = (   0.1733530   0.6233435  -0.0858899  )
       399           C   tau( 399) = (   0.6831268   0.1135697  -0.0858899  )
       400           C   tau( 400) = (   0.4282399   0.3684566   0.2606145  )
       401           H   tau( 401) = (   0.2248879   0.1320089  -0.0919123  )
       402           H   tau( 402) = (  -0.0299990   0.3868958   0.2545921  )
       403           H   tau( 403) = (   0.4797748  -0.1228780   0.2545921  )
       404           H   tau( 404) = (   0.2248879   0.1320089   0.6010965  )
       405           H   tau( 405) = (   0.4797748   0.3868958  -0.4384168  )
       406           H   tau( 406) = (   0.2248879   0.6417827  -0.0919123  )
       407           H   tau( 407) = (   0.7346617   0.1320089  -0.0919123  )
       408           H   tau( 408) = (   0.4797748   0.3868958   0.2545921  )
       409           C   tau( 409) = (  -0.1617165   0.2782942   0.2661087  )
       410           C   tau( 410) = (  -0.4166034   0.5331811   0.6126131  )
       411           C   tau( 411) = (   0.0931704   0.0234072   0.6126131  )
       412           C   tau( 412) = (  -0.1617165   0.2782942   0.9591176  )
       413           C   tau( 413) = (   0.0931704   0.5331811  -0.0803957  )
       414           C   tau( 414) = (  -0.1617165   0.7880680   0.2661087  )
       415           C   tau( 415) = (   0.3480573   0.2782942   0.2661087  )
       416           C   tau( 416) = (   0.0931704   0.5331811   0.6126131  )
       417           H   tau( 417) = (  -0.1751034   0.2248802   0.2650870  )
       418           H   tau( 418) = (  -0.4299903   0.4797671   0.6115915  )
       419           H   tau( 419) = (   0.0797836  -0.0300067   0.6115915  )
       420           H   tau( 420) = (  -0.1751034   0.2248802   0.9580959  )
       421           H   tau( 421) = (   0.0797836   0.4797671  -0.0814174  )
       422           H   tau( 422) = (  -0.1751034   0.7346540   0.2650870  )
       423           H   tau( 423) = (   0.3346705   0.2248802   0.2650870  )
       424           H   tau( 424) = (   0.0797836   0.4797671   0.6115915  )
       425           N   tau( 425) = (   0.1757347   0.2686298  -0.0598561  )
       426           N   tau( 426) = (  -0.0791523   0.5235167   0.2866484  )
       427           N   tau( 427) = (   0.4306216   0.0137429   0.2866484  )
       428           N   tau( 428) = (   0.1757347   0.2686298   0.6331528  )
       429           N   tau( 429) = (   0.4306216   0.5235167  -0.4063605  )
       430           N   tau( 430) = (   0.1757347   0.7784037  -0.0598561  )
       431           N   tau( 431) = (   0.6855085   0.2686298  -0.0598561  )
       432           N   tau( 432) = (   0.4306216   0.5235167   0.2866484  )
       433           N   tau( 433) = (   0.1619189   0.3327505  -0.0771948  )
       434           N   tau( 434) = (  -0.0929680   0.5876374   0.2693096  )
       435           N   tau( 435) = (   0.4168059   0.0778636   0.2693096  )
       436           N   tau( 436) = (   0.1619189   0.3327505   0.6158141  )
       437           N   tau( 437) = (   0.4168059   0.5876374  -0.4236992  )
       438           N   tau( 438) = (   0.1619189   0.8425243  -0.0771948  )
       439           N   tau( 439) = (   0.6716928   0.3327505  -0.0771948  )
       440           N   tau( 440) = (   0.4168059   0.5876374   0.2693096  )
       441           C   tau( 441) = (   0.0547751   0.1310583  -0.0740469  )
       442           C   tau( 442) = (  -0.2001118   0.3859452   0.2724575  )
       443           C   tau( 443) = (   0.3096620  -0.1238286   0.2724575  )
       444           C   tau( 444) = (   0.0547751   0.1310583   0.6189619  )
       445           C   tau( 445) = (   0.3096620   0.3859452  -0.4205514  )
       446           C   tau( 446) = (   0.0547751   0.6408321  -0.0740469  )
       447           C   tau( 447) = (   0.5645489   0.1310583  -0.0740469  )
       448           C   tau( 448) = (   0.3096620   0.3859452   0.2724575  )
       449           H   tau( 449) = (   0.2663802  -0.0903755   0.2792431  )
       450           H   tau( 450) = (   0.0114933   0.1645114   0.6257475  )
       451           H   tau( 451) = (   0.5212672  -0.3452624   0.6257475  )
       452           H   tau( 452) = (   0.2663802  -0.0903755   0.9722520  )
       453           H   tau( 453) = (   0.5212672   0.1645114  -0.0672613  )
       454           H   tau( 454) = (   0.2663802   0.4193983   0.2792431  )
       455           H   tau( 455) = (   0.7761541  -0.0903755   0.2792431  )
       456           H   tau( 456) = (   0.5212672   0.1645114   0.6257475  )
       457           N   tau( 457) = (   0.2963571  -0.1890817   0.2718980  )
       458           N   tau( 458) = (   0.0414701   0.0658052   0.6184024  )
       459           N   tau( 459) = (   0.5512440  -0.4439686   0.6184024  )
       460           N   tau( 460) = (   0.2963571  -0.1890817   0.9649069  )
       461           N   tau( 461) = (   0.5512440   0.0658052  -0.0746064  )
       462           N   tau( 462) = (   0.2963571   0.3206921   0.2718980  )
       463           N   tau( 463) = (   0.8061309  -0.1890817   0.2718980  )
       464           N   tau( 464) = (   0.5512440   0.0658052   0.6184024  )
       465           C   tau( 465) = (   0.0952547   0.2096875   0.2614205  )
       466           C   tau( 466) = (  -0.1596322   0.4645744   0.6079250  )
       467           C   tau( 467) = (   0.3501416  -0.0451994   0.6079250  )
       468           C   tau( 468) = (   0.0952547   0.2096875   0.9544294  )
       469           C   tau( 469) = (   0.3501416   0.4645744  -0.0850839  )
       470           C   tau( 470) = (   0.0952547   0.7194613   0.2614205  )
       471           C   tau( 471) = (   0.6050285   0.2096875   0.2614205  )
       472           C   tau( 472) = (   0.3501416   0.4645744   0.6079250  )
       473           H   tau( 473) = (  -0.0549167   0.2630936   0.2569907  )
       474           H   tau( 474) = (  -0.3098036   0.5179805   0.6034951  )
       475           H   tau( 475) = (   0.1999702   0.0082067   0.6034951  )
       476           H   tau( 476) = (  -0.0549167   0.2630936   0.9499995  )
       477           H   tau( 477) = (   0.1999702   0.5179805  -0.0895138  )
       478           H   tau( 478) = (  -0.0549167   0.7728675   0.2569907  )
       479           H   tau( 479) = (   0.4548571   0.2630936   0.2569907  )
       480           H   tau( 480) = (   0.1999702   0.5179805   0.6034951  )
       481           Zn  tau( 481) = (   0.2548869   0.0000000   0.1732522  )
       482           Zn  tau( 482) = (   0.0000000   0.2548869   0.5197567  )
       483           Zn  tau( 483) = (   0.5097738  -0.2548869   0.5197567  )
       484           Zn  tau( 484) = (   0.2548869   0.0000000   0.8662611  )
       485           Zn  tau( 485) = (   0.5097738   0.2548869  -0.1732522  )
       486           Zn  tau( 486) = (   0.2548869   0.5097738   0.1732522  )
       487           Zn  tau( 487) = (   0.7646607   0.0000000   0.1732522  )
       488           Zn  tau( 488) = (   0.5097738   0.2548869   0.5197567  )
       489           Zn  tau( 489) = (   0.0000000   0.0000000   0.3465044  )
       490           Zn  tau( 490) = (  -0.2548869   0.2548869   0.6930089  )
       491           Zn  tau( 491) = (   0.2548869  -0.2548869   0.6930089  )
       492           Zn  tau( 492) = (   0.0000000   0.0000000   1.0395133  )
       493           Zn  tau( 493) = (   0.2548869   0.2548869   0.0000000  )
       494           Zn  tau( 494) = (   0.0000000   0.5097738   0.3465044  )
       495           Zn  tau( 495) = (   0.5097738   0.0000000   0.3465044  )
       496           Zn  tau( 496) = (   0.2548869   0.2548869   0.6930089  )

   Crystallographic axes

     site n.     atom                  positions (cryst. coord.)
         1           N   tau(   1) = (  0.0032815  0.3505269  0.1844547  )
         2           N   tau(   2) = (  0.5032815  0.3505269  0.1844547  )
         3           N   tau(   3) = (  0.0032815  0.8505269  0.1844547  )
         4           N   tau(   4) = (  0.5032815  0.8505269  0.1844547  )
         5           N   tau(   5) = (  0.0032815  0.3505269  0.6844547  )
         6           N   tau(   6) = (  0.5032815  0.3505269  0.6844547  )
         7           N   tau(   7) = (  0.0032815  0.8505269  0.6844547  )
         8           N   tau(   8) = (  0.5032815  0.8505269  0.6844547  )
         9           N   tau(   9) = (  0.4754485  0.4079607  0.2230258  )
        10           N   tau(  10) = (  0.9754485  0.4079607  0.2230258  )
        11           N   tau(  11) = (  0.4754485  0.9079607  0.2230258  )
        12           N   tau(  12) = (  0.9754485  0.9079607  0.2230258  )
        13           N   tau(  13) = (  0.4754485  0.4079607  0.7230258  )
        14           N   tau(  14) = (  0.9754485  0.4079607  0.7230258  )
        15           N   tau(  15) = (  0.4754485  0.9079607  0.7230258  )
        16           N   tau(  16) = (  0.9754485  0.9079607  0.7230258  )
        17           C   tau(  17) = (  0.4413312  0.2133592  0.0380182  )
        18           C   tau(  18) = (  0.9413312  0.2133592  0.0380182  )
        19           C   tau(  19) = (  0.4413312  0.7133592  0.0380182  )
        20           C   tau(  20) = (  0.9413312  0.7133592  0.0380182  )
        21           C   tau(  21) = (  0.4413312  0.2133592  0.5380182  )
        22           C   tau(  22) = (  0.9413312  0.2133592  0.5380182  )
        23           C   tau(  23) = (  0.4413312  0.7133592  0.5380182  )
        24           C   tau(  24) = (  0.9413312  0.7133592  0.5380182  )
        25           C   tau(  25) = (  0.4375339  0.2875827  0.1019219  )
        26           C   tau(  26) = (  0.9375339  0.2875827  0.1019219  )
        27           C   tau(  27) = (  0.4375339  0.7875827  0.1019219  )
        28           C   tau(  28) = (  0.9375339  0.7875827  0.1019219  )
        29           C   tau(  29) = (  0.4375339  0.2875827  0.6019219  )
        30           C   tau(  30) = (  0.9375339  0.2875827  0.6019219  )
        31           C   tau(  31) = (  0.4375339  0.7875827  0.6019219  )
        32           C   tau(  32) = (  0.9375339  0.7875827  0.6019219  )
        33           C   tau(  33) = (  0.3919396  0.1733611  0.4413630  )
        34           C   tau(  34) = (  0.8919396  0.1733611  0.4413630  )
        35           C   tau(  35) = (  0.3919396  0.6733611  0.4413630  )
        36           C   tau(  36) = (  0.8919396  0.6733611  0.4413630  )
        37           C   tau(  37) = (  0.3919396  0.1733611  0.9413630  )
        38           C   tau(  38) = (  0.8919396  0.1733611  0.9413630  )
        39           C   tau(  39) = (  0.3919396  0.6733611  0.9413630  )
        40           C   tau(  40) = (  0.8919396  0.6733611  0.9413630  )
        41           H   tau(  41) = (  0.3457378  0.1957919  0.4094331  )
        42           H   tau(  42) = (  0.8457378  0.1957919  0.4089018  )
        43           H   tau(  43) = (  0.3457378  0.6957919  0.4089018  )
        44           H   tau(  44) = (  0.8457378  0.6957919  0.4089018  )
        45           H   tau(  45) = (  0.3457378  0.1957919  0.9089018  )
        46           H   tau(  46) = (  0.8457378  0.1957919  0.9089018  )
        47           H   tau(  47) = (  0.3457378  0.6957919  0.9089018  )
        48           H   tau(  48) = (  0.8457378  0.6957919  0.9089018  )
        49           C   tau(  49) = (  0.4666208  0.0809633  0.4315744  )
        50           C   tau(  50) = (  0.9666208  0.0809633  0.4315744  )
        51           C   tau(  51) = (  0.4666208  0.5809633  0.4315744  )
        52           C   tau(  52) = (  0.9666208  0.5809633  0.4315744  )
        53           C   tau(  53) = (  0.4666208  0.0809633  0.9315744  )
        54           C   tau(  54) = (  0.9666208  0.0809633  0.9315744  )
        55           C   tau(  55) = (  0.4666208  0.5809633  0.9315744  )
        56           C   tau(  56) = (  0.9666208  0.5809633  0.9315744  )
        57           H   tau(  57) = (  0.4804881  0.0293106  0.3923147  )
        58           H   tau(  58) = (  0.9804881  0.0293106  0.3923147  )
        59           H   tau(  59) = (  0.4804881  0.5293106  0.3923147  )
        60           H   tau(  60) = (  0.9804881  0.5293106  0.3923147  )
        61           H   tau(  61) = (  0.4804881  0.0293106  0.8923147  )
        62           H   tau(  62) = (  0.9804881  0.0293106  0.8923147  )
        63           H   tau(  63) = (  0.4804881  0.5293106  0.8923147  )
        64           H   tau(  64) = (  0.9804881  0.5293106  0.8923147  )
        65           N   tau(  65) = (  0.3708203  0.3066651  0.0911141  )
        66           N   tau(  66) = (  0.8708203  0.3066651  0.0911141  )
        67           N   tau(  67) = (  0.3708203  0.8066651  0.0911141  )
        68           N   tau(  68) = (  0.8708203  0.8066651  0.0911141  )
        69           N   tau(  69) = (  0.3708203  0.3066651  0.5911141  )
        70           N   tau(  70) = (  0.8708203  0.3066651  0.5911141  )
        71           N   tau(  71) = (  0.3708203  0.8066651  0.5911141  )
        72           N   tau(  72) = (  0.8708203  0.8066651  0.5911141  )
        73           N   tau(  73) = (  0.3968809  0.3820661  0.1675562  )
        74           N   tau(  74) = (  0.8968809  0.3820661  0.1675562  )
        75           N   tau(  75) = (  0.3968809  0.8820661  0.1675562  )
        76           N   tau(  76) = (  0.8968809  0.8820661  0.1675562  )
        77           N   tau(  77) = (  0.3968809  0.3820661  0.6675562  )
        78           N   tau(  78) = (  0.8968809  0.3820661  0.6675562  )
        79           N   tau(  79) = (  0.3968809  0.8820661  0.6675562  )
        80           N   tau(  80) = (  0.8968809  0.8820661  0.6675562  )
        81           C   tau(  81) = (  0.4996994  0.1819698  0.0748207  )
        82           C   tau(  82) = (  0.9996994  0.1819698  0.0748207  )
        83           C   tau(  83) = (  0.4996994  0.6819698  0.0748207  )
        84           C   tau(  84) = (  0.9996994  0.6819698  0.0748207  )
        85           C   tau(  85) = (  0.4996994  0.1819698  0.5748207  )
        86           C   tau(  86) = (  0.9996994  0.1819698  0.5748207  )
        87           C   tau(  87) = (  0.4996994  0.6819698  0.5748207  )
        88           C   tau(  88) = (  0.9996994  0.6819698  0.5748207  )
        89           H   tau(  89) = (  0.0372555  0.2098857  0.1500843  )
        90           H   tau(  90) = (  0.5372555  0.2098857  0.1500843  )
        91           H   tau(  91) = (  0.0372555  0.7098857  0.1500843  )
        92           H   tau(  92) = (  0.5372555  0.7098857  0.1500843  )
        93           H   tau(  93) = (  0.0372555  0.2098857  0.6500843  )
        94           H   tau(  94) = (  0.5372555  0.2098857  0.6500843  )
        95           H   tau(  95) = (  0.0372555  0.7098857  0.6500843  )
        96           H   tau(  96) = (  0.5372555  0.7098857  0.6500843  )
        97           N   tau(  97) = (  0.0131529  0.1183715  0.0238685  )
        98           N   tau(  98) = (  0.5131529  0.1183715  0.0238685  )
        99           N   tau(  99) = (  0.0131529  0.6183715  0.0238685  )
       100           N   tau( 100) = (  0.5131529  0.6183715  0.0238685  )
       101           N   tau( 101) = (  0.0131529  0.1183715  0.5238685  )
       102           N   tau( 102) = (  0.5131529  0.1183715  0.5238685  )
       103           N   tau( 103) = (  0.0131529  0.6183715  0.5238685  )
       104           N   tau( 104) = (  0.5131529  0.6183715  0.5238685  )
       105           C   tau( 105) = (  0.2179589  0.0170545  0.1122388  )
       106           C   tau( 106) = (  0.7179589  0.0170545  0.1122388  )
       107           C   tau( 107) = (  0.2179589  0.5170545  0.1122388  )
       108           C   tau( 108) = (  0.7179589  0.5170545  0.1122388  )
       109           C   tau( 109) = (  0.2179589  0.0170545  0.6122388  )
       110           C   tau( 110) = (  0.7179589  0.0170545  0.6122388  )
       111           C   tau( 111) = (  0.2179589  0.5170545  0.6122388  )
       112           C   tau( 112) = (  0.7179589  0.5170545  0.6122388  )
       113           H   tau( 113) = (  0.3684472  0.0726328  0.3119132  )
       114           H   tau( 114) = (  0.8684472  0.0726328  0.3119132  )
       115           H   tau( 115) = (  0.3684472  0.5726328  0.3119132  )
       116           H   tau( 116) = (  0.8684472  0.5726328  0.3119132  )
       117           H   tau( 117) = (  0.3684472  0.0726328  0.8119132  )
       118           H   tau( 118) = (  0.8684472  0.0726328  0.8119132  )
       119           H   tau( 119) = (  0.3684472  0.5726328  0.8119132  )
       120           H   tau( 120) = (  0.8684472  0.5726328  0.8119132  )
       121           N   tau( 121) = (  0.1660722  0.3188268  0.3155453  )
       122           N   tau( 122) = (  0.6660722  0.3188268  0.3155453  )
       123           N   tau( 123) = (  0.1660722  0.8188268  0.3155453  )
       124           N   tau( 124) = (  0.6660722  0.8188268  0.3155453  )
       125           N   tau( 125) = (  0.1660722  0.3188268  0.8155453  )
       126           N   tau( 126) = (  0.6660722  0.3188268  0.8155453  )
       127           N   tau( 127) = (  0.1660722  0.8188268  0.8155453  )
       128           N   tau( 128) = (  0.6660722  0.8188268  0.8155453  )
       129           N   tau( 129) = (  0.1849349  0.2524227  0.2769742  )
       130           N   tau( 130) = (  0.6849349  0.2524227  0.2769742  )
       131           N   tau( 131) = (  0.1849349  0.7524227  0.2769742  )
       132           N   tau( 132) = (  0.6849349  0.7524227  0.2769742  )
       133           N   tau( 133) = (  0.1849349  0.2524227  0.7769742  )
       134           N   tau( 134) = (  0.6849349  0.2524227  0.7769742  )
       135           N   tau( 135) = (  0.1849349  0.7524227  0.7769742  )
       136           N   tau( 136) = (  0.6849349  0.7524227  0.7769742  )
       137           C   tau( 137) = (  0.1753410  0.4033130  0.4619818  )
       138           C   tau( 138) = (  0.6753410  0.4033130  0.4619818  )
       139           C   tau( 139) = (  0.1753410  0.9033130  0.4619818  )
       140           C   tau( 140) = (  0.6753410  0.9033130  0.4619818  )
       141           C   tau( 141) = (  0.1753410  0.4033130  0.9619818  )
       142           C   tau( 142) = (  0.6753410  0.4033130  0.9619818  )
       143           C   tau( 143) = (  0.1753410  0.9033130  0.9619818  )
       144           C   tau( 144) = (  0.6753410  0.9033130  0.9619818  )
       145           C   tau( 145) = (  0.1856608  0.3356120  0.3980781  )
       146           C   tau( 146) = (  0.6856608  0.3356120  0.3980781  )
       147           C   tau( 147) = (  0.1856608  0.8356120  0.3980781  )
       148           C   tau( 148) = (  0.6856608  0.8356120  0.3980781  )
       149           C   tau( 149) = (  0.1856608  0.3356120  0.8980781  )
       150           C   tau( 150) = (  0.6856608  0.3356120  0.8980781  )
       151           C   tau( 151) = (  0.1856608  0.8356120  0.8980781  )
       152           C   tau( 152) = (  0.6856608  0.8356120  0.8980781  )
       153           C   tau( 153) = (  0.2319981  0.4505766  0.0586370  )
       154           C   tau( 154) = (  0.7319981  0.4505766  0.0586370  )
       155           C   tau( 155) = (  0.2319981  0.9505766  0.0586370  )
       156           C   tau( 156) = (  0.7319981  0.9505766  0.0586370  )
       157           C   tau( 157) = (  0.2319981  0.4505766  0.5586370  )
       158           C   tau( 158) = (  0.7319981  0.4505766  0.5586370  )
       159           C   tau( 159) = (  0.2319981  0.9505766  0.5586370  )
       160           C   tau( 160) = (  0.7319981  0.9505766  0.5586370  )
       161           H   tau( 161) = (  0.2868901  0.4368360  0.0910982  )
       162           H   tau( 162) = (  0.7868901  0.4368360  0.0910982  )
       163           H   tau( 163) = (  0.2868901  0.9368360  0.0910982  )
       164           H   tau( 164) = (  0.7868901  0.9368360  0.0910982  )
       165           H   tau( 165) = (  0.2868901  0.4368360  0.5910982  )
       166           H   tau( 166) = (  0.7868901  0.4368360  0.5910982  )
       167           H   tau( 167) = (  0.2868901  0.9368360  0.5910982  )
       168           H   tau( 168) = (  0.7868901  0.9368360  0.5910982  )
       169           C   tau( 169) = (  0.1493889  0.0350464  0.0684256  )
       170           C   tau( 170) = (  0.6493889  0.0350464  0.0684256  )
       171           C   tau( 171) = (  0.1493889  0.5350464  0.0684256  )
       172           C   tau( 172) = (  0.6493889  0.5350464  0.0684256  )
       173           C   tau( 173) = (  0.1493889  0.0350464  0.5684256  )
       174           C   tau( 174) = (  0.6493889  0.0350464  0.5684256  )
       175           C   tau( 175) = (  0.1493889  0.5350464  0.5684256  )
       176           C   tau( 176) = (  0.6493889  0.5350464  0.5684256  )
       177           H   tau( 177) = (  0.1369958  0.0881734  0.1076853  )
       178           H   tau( 178) = (  0.6369958  0.0881734  0.1076853  )
       179           H   tau( 179) = (  0.1369958  0.5881734  0.1076853  )
       180           H   tau( 180) = (  0.6369958  0.5881734  0.1076853  )
       181           H   tau( 181) = (  0.1369958  0.0881734  0.6076853  )
       182           H   tau( 182) = (  0.6369958  0.0881734  0.6076853  )
       183           H   tau( 183) = (  0.1369958  0.5881734  0.6076853  )
       184           H   tau( 184) = (  0.6369958  0.5881734  0.6076853  )
       185           N   tau( 185) = (  0.2155510  0.2797062  0.4088859  )
       186           N   tau( 186) = (  0.7155510  0.2797062  0.4088859  )
       187           N   tau( 187) = (  0.2155510  0.7797062  0.4088859  )
       188           N   tau( 188) = (  0.7155510  0.7797062  0.4088859  )
       189           N   tau( 189) = (  0.2155510  0.2797062  0.9088859  )
       190           N   tau( 190) = (  0.7155510  0.2797062  0.9088859  )
       191           N   tau( 191) = (  0.2155510  0.7797062  0.9088859  )
       192           N   tau( 192) = (  0.7155510  0.7797062  0.9088859  )
       193           N   tau( 193) = (  0.2145099  0.2293247  0.3324438  )
       194           N   tau( 194) = (  0.7145099  0.2293247  0.3324438  )
       195           N   tau( 195) = (  0.2145099  0.7293247  0.3324438  )
       196           N   tau( 196) = (  0.7145099  0.7293247  0.3324438  )
       197           N   tau( 197) = (  0.2145099  0.2293247  0.8324438  )
       198           N   tau( 198) = (  0.7145099  0.2293247  0.8324438  )
       199           N   tau( 199) = (  0.2145099  0.7293247  0.8324438  )
       200           N   tau( 200) = (  0.7145099  0.7293247  0.8324438  )
       201           C   tau( 201) = (  0.1071491  0.4248787  0.4251793  )
       202           C   tau( 202) = (  0.6071491  0.4248787  0.4251793  )
       203           C   tau( 203) = (  0.1071491  0.9248787  0.4251793  )
       204           C   tau( 204) = (  0.6071491  0.9248787  0.4251793  )
       205           C   tau( 205) = (  0.1071491  0.4248787  0.9251793  )
       206           C   tau( 206) = (  0.6071491  0.4248787  0.9251793  )
       207           C   tau( 207) = (  0.1071491  0.9248787  0.9251793  )
       208           C   tau( 208) = (  0.6071491  0.9248787  0.9251793  )
       209           H   tau( 209) = (  0.0598014  0.3871712  0.3499157  )
       210           H   tau( 210) = (  0.5598014  0.3871712  0.3499157  )
       211           H   tau( 211) = (  0.0598014  0.8871712  0.3499157  )
       212           H   tau( 212) = (  0.5598014  0.8871712  0.3499157  )
       213           H   tau( 213) = (  0.0598014  0.3871712  0.8499157  )
       214           H   tau( 214) = (  0.5598014  0.3871712  0.8499157  )
       215           H   tau( 215) = (  0.0598014  0.8871712  0.8499157  )
       216           H   tau( 216) = (  0.5598014  0.8871712  0.8499157  )
       217           N   tau( 217) = (  0.0945030  0.4892844  0.4761315  )
       218           N   tau( 218) = (  0.5945030  0.4892844  0.4761315  )
       219           N   tau( 219) = (  0.0945030  0.9892844  0.4761315  )
       220           N   tau( 220) = (  0.5945030  0.9892844  0.4761315  )
       221           N   tau( 221) = (  0.0945030  0.4892844  0.9761315  )
       222           N   tau( 222) = (  0.5945030  0.4892844  0.9761315  )
       223           N   tau( 223) = (  0.0945030  0.9892844  0.9761315  )
       224           N   tau( 224) = (  0.5945030  0.9892844  0.9761315  )
       225           C   tau( 225) = (  0.4048157  0.1057201  0.3877612  )
       226           C   tau( 226) = (  0.9048157  0.1057201  0.3877612  )
       227           C   tau( 227) = (  0.4048157  0.6057201  0.3877612  )
       228           C   tau( 228) = (  0.9048157  0.6057201  0.3877612  )
       229           C   tau( 229) = (  0.4048157  0.1057201  0.8877612  )
       230           C   tau( 230) = (  0.9048157  0.1057201  0.8877612  )
       231           C   tau( 231) = (  0.4048157  0.6057201  0.8877612  )
       232           C   tau( 232) = (  0.9048157  0.6057201  0.8877612  )
       233           H   tau( 233) = (  0.2607196  0.0565340  0.1880868  )
       234           H   tau( 234) = (  0.7607196  0.0565340  0.1880868  )
       235           H   tau( 235) = (  0.2607196  0.5565340  0.1880868  )
       236           H   tau( 236) = (  0.7607196  0.5565340  0.1880868  )
       237           H   tau( 237) = (  0.2607196  0.0565340  0.6880868  )
       238           H   tau( 238) = (  0.7607196  0.0565340  0.6880868  )
       239           H   tau( 239) = (  0.2607196  0.5565340  0.6880868  )
       240           H   tau( 240) = (  0.7607196  0.5565340  0.6880868  )
       241           N   tau( 241) = (  0.1494731  0.3339278  0.1527546  )
       242           N   tau( 242) = (  0.6494731  0.3339278  0.1527546  )
       243           N   tau( 243) = (  0.1494731  0.8339278  0.1527546  )
       244           N   tau( 244) = (  0.6494731  0.8339278  0.1527546  )
       245           N   tau( 245) = (  0.1494731  0.3339278  0.6527546  )
       246           N   tau( 246) = (  0.6494731  0.3339278  0.6527546  )
       247           N   tau( 247) = (  0.1494731  0.8339278  0.6527546  )
       248           N   tau( 248) = (  0.6494731  0.8339278  0.6527546  )
       249           N   tau( 249) = (  0.0920393  0.3150651  0.0674878  )
       250           N   tau( 250) = (  0.5920393  0.3150651  0.0674878  )
       251           N   tau( 251) = (  0.0920393  0.8150651  0.0674878  )
       252           N   tau( 252) = (  0.5920393  0.8150651  0.0674878  )
       253           N   tau( 253) = (  0.0920393  0.3150651  0.5674878  )
       254           N   tau( 254) = (  0.5920393  0.3150651  0.5674878  )
       255           N   tau( 255) = (  0.0920393  0.8150651  0.5674878  )
       256           N   tau( 256) = (  0.5920393  0.8150651  0.5674878  )
       257           C   tau( 257) = (  0.2866408  0.3246590  0.2279720  )
       258           C   tau( 258) = (  0.7866408  0.3246590  0.2279720  )
       259           C   tau( 259) = (  0.2866408  0.8246590  0.2279720  )
       260           C   tau( 260) = (  0.7866408  0.8246590  0.2279720  )
       261           C   tau( 261) = (  0.2866408  0.3246590  0.7279720  )
       262           C   tau( 262) = (  0.7866408  0.3246590  0.7279720  )
       263           C   tau( 263) = (  0.2866408  0.8246590  0.7279720  )
       264           C   tau( 264) = (  0.7866408  0.8246590  0.7279720  )
       265           C   tau( 265) = (  0.2124173  0.3143392  0.1499511  )
       266           C   tau( 266) = (  0.7124173  0.3143392  0.1499511  )
       267           C   tau( 267) = (  0.2124173  0.8143392  0.1499511  )
       268           C   tau( 268) = (  0.7124173  0.8143392  0.1499511  )
       269           C   tau( 269) = (  0.2124173  0.3143392  0.6499511  )
       270           C   tau( 270) = (  0.7124173  0.3143392  0.6499511  )
       271           C   tau( 271) = (  0.2124173  0.8143392  0.6499511  )
       272           C   tau( 272) = (  0.7124173  0.8143392  0.6499511  )
       273           C   tau( 273) = (  0.3266389  0.2680019  0.2185785  )
       274           C   tau( 274) = (  0.8266389  0.2680019  0.2185785  )
       275           C   tau( 275) = (  0.3266389  0.7680019  0.2185785  )
       276           C   tau( 276) = (  0.8266389  0.7680019  0.2185785  )
       277           C   tau( 277) = (  0.3266389  0.2680019  0.7185785  )
       278           C   tau( 278) = (  0.8266389  0.2680019  0.7185785  )
       279           C   tau( 279) = (  0.3266389  0.7680019  0.7185785  )
       280           C   tau( 280) = (  0.8266389  0.7680019  0.7185785  )
       281           H   tau( 281) = (  0.3042081  0.2131099  0.1499459  )
       282           H   tau( 282) = (  0.8042081  0.2131099  0.1499459  )
       283           H   tau( 283) = (  0.3042081  0.7131099  0.1499459  )
       284           H   tau( 284) = (  0.8042081  0.7131099  0.1499459  )
       285           H   tau( 285) = (  0.3042081  0.2131099  0.6499459  )
       286           H   tau( 286) = (  0.8042081  0.2131099  0.6499459  )
       287           H   tau( 287) = (  0.3042081  0.7131099  0.6499459  )
       288           H   tau( 288) = (  0.8042081  0.7131099  0.6499459  )
       289           C   tau( 289) = (  0.4190367  0.3506111  0.3856575  )
       290           C   tau( 290) = (  0.9190367  0.3506111  0.3856575  )
       291           C   tau( 291) = (  0.4190367  0.8506111  0.3856575  )
       292           C   tau( 292) = (  0.9190367  0.8506111  0.3856575  )
       293           C   tau( 293) = (  0.4190367  0.3506111  0.8856575  )
       294           C   tau( 294) = (  0.9190367  0.3506111  0.8856575  )
       295           C   tau( 295) = (  0.4190367  0.8506111  0.8856575  )
       296           C   tau( 296) = (  0.9190367  0.8506111  0.8856575  )
       297           H   tau( 297) = (  0.4706894  0.3630042  0.4511775  )
       298           H   tau( 298) = (  0.9706894  0.3630042  0.4511775  )
       299           H   tau( 299) = (  0.4706894  0.8630042  0.4511775  )
       300           H   tau( 300) = (  0.9706894  0.8630042  0.4511775  )
       301           H   tau( 301) = (  0.4706894  0.3630042  0.9511775  )
       302           H   tau( 302) = (  0.9706894  0.3630042  0.9511775  )
       303           H   tau( 303) = (  0.4706894  0.8630042  0.9511775  )
       304           H   tau( 304) = (  0.9706894  0.8630042  0.9511775  )
       305           N   tau( 305) = (  0.1933349  0.2844490  0.0641553  )
       306           N   tau( 306) = (  0.6933349  0.2844490  0.0641553  )
       307           N   tau( 307) = (  0.1933349  0.7844490  0.0641553  )
       308           N   tau( 308) = (  0.6933349  0.7844490  0.0641553  )
       309           N   tau( 309) = (  0.1933349  0.2844490  0.5641553  )
       310           N   tau( 310) = (  0.6933349  0.2844490  0.5641553  )
       311           N   tau( 311) = (  0.1933349  0.7844490  0.5641553  )
       312           N   tau( 312) = (  0.6933349  0.7844490  0.5641553  )
       313           N   tau( 313) = (  0.1179339  0.2854901  0.0148148  )
       314           N   tau( 314) = (  0.6179339  0.2854901  0.0148148  )
       315           N   tau( 315) = (  0.1179339  0.7854901  0.0148148  )
       316           N   tau( 316) = (  0.6179339  0.7854901  0.0148148  )
       317           N   tau( 317) = (  0.1179339  0.2854901  0.5148148  )
       318           N   tau( 318) = (  0.6179339  0.2854901  0.5148148  )
       319           N   tau( 319) = (  0.1179339  0.7854901  0.5148148  )
       320           N   tau( 320) = (  0.6179339  0.7854901  0.5148148  )
       321           C   tau( 321) = (  0.3180302  0.3928509  0.3177296  )
       322           C   tau( 322) = (  0.8180302  0.3928509  0.3177296  )
       323           C   tau( 323) = (  0.3180302  0.8928509  0.3177296  )
       324           C   tau( 324) = (  0.8180302  0.8928509  0.3177296  )
       325           C   tau( 325) = (  0.3180302  0.3928509  0.8177296  )
       326           C   tau( 326) = (  0.8180302  0.3928509  0.8177296  )
       327           C   tau( 327) = (  0.3180302  0.8928509  0.8177296  )
       328           C   tau( 328) = (  0.8180302  0.8928509  0.8177296  )
       329           H   tau( 329) = (  0.2901143  0.4401986  0.3273698  )
       330           H   tau( 330) = (  0.7901143  0.4401986  0.3273698  )
       331           H   tau( 331) = (  0.2901143  0.9401986  0.3273698  )
       332           H   tau( 332) = (  0.7901143  0.9401986  0.3273698  )
       333           H   tau( 333) = (  0.2901143  0.4401986  0.8273698  )
       334           H   tau( 334) = (  0.7901143  0.4401986  0.8273698  )
       335           H   tau( 335) = (  0.2901143  0.9401986  0.8273698  )
       336           H   tau( 336) = (  0.7901143  0.9401986  0.8273698  )
       337           N   tau( 337) = (  0.3816285  0.4054970  0.3947814  )
       338           N   tau( 338) = (  0.8816285  0.4054970  0.3947814  )
       339           N   tau( 339) = (  0.3816285  0.9054970  0.3947814  )
       340           N   tau( 340) = (  0.8816285  0.9054970  0.3947814  )
       341           N   tau( 341) = (  0.3816285  0.4054970  0.8947814  )
       342           N   tau( 342) = (  0.8816285  0.4054970  0.8947814  )
       343           N   tau( 343) = (  0.3816285  0.9054970  0.8947814  )
       344           N   tau( 344) = (  0.8816285  0.9054970  0.8947814  )
       345           C   tau( 345) = (  0.4829455  0.0951843  0.2009044  )
       346           C   tau( 346) = (  0.9829455  0.0951843  0.2009044  )
       347           C   tau( 347) = (  0.4829455  0.5951843  0.2009044  )
       348           C   tau( 348) = (  0.9829455  0.5951843  0.2009044  )
       349           C   tau( 349) = (  0.4829455  0.0951843  0.7009044  )
       350           C   tau( 350) = (  0.9829455  0.0951843  0.7009044  )
       351           C   tau( 351) = (  0.4829455  0.5951843  0.7009044  )
       352           C   tau( 352) = (  0.9829455  0.5951843  0.7009044  )
       353           H   tau( 353) = (  0.4273672  0.2392804  0.2958144  )
       354           H   tau( 354) = (  0.9273672  0.2392804  0.2958144  )
       355           H   tau( 355) = (  0.4273672  0.7392804  0.2958144  )
       356           H   tau( 356) = (  0.9273672  0.7392804  0.2958144  )
       357           H   tau( 357) = (  0.4273672  0.2392804  0.7958144  )
       358           H   tau( 358) = (  0.9273672  0.2392804  0.7958144  )
       359           H   tau( 359) = (  0.4273672  0.7392804  0.7958144  )
       360           H   tau( 360) = (  0.9273672  0.7392804  0.7958144  )
       361           N   tau( 361) = (  0.1811732  0.4967185  0.3472454  )
       362           N   tau( 362) = (  0.6811732  0.4967185  0.3472454  )
       363           N   tau( 363) = (  0.1811732  0.9967185  0.3472454  )
       364           N   tau( 364) = (  0.6811732  0.9967185  0.3472454  )
       365           N   tau( 365) = (  0.1811732  0.4967185  0.8472454  )
       366           N   tau( 366) = (  0.6811732  0.4967185  0.8472454  )
       367           N   tau( 367) = (  0.1811732  0.9967185  0.8472454  )
       368           N   tau( 368) = (  0.6811732  0.9967185  0.8472454  )
       369           N   tau( 369) = (  0.2475773  0.0245515  0.4325122  )
       370           N   tau( 370) = (  0.7475773  0.0245515  0.4325122  )
       371           N   tau( 371) = (  0.2475773  0.5245515  0.4325122  )
       372           N   tau( 372) = (  0.7475773  0.5245515  0.4325122  )
       373           N   tau( 373) = (  0.2475773  0.0245515  0.9325122  )
       374           N   tau( 374) = (  0.7475773  0.0245515  0.9325122  )
       375           N   tau( 375) = (  0.2475773  0.5245515  0.9325122  )
       376           N   tau( 376) = (  0.7475773  0.5245515  0.9325122  )
       377           C   tau( 377) = (  0.0966870  0.0586688  0.2720280  )
       378           C   tau( 378) = (  0.5966870  0.0586688  0.2720280  )
       379           C   tau( 379) = (  0.0966870  0.5586688  0.2720280  )
       380           C   tau( 380) = (  0.5966870  0.5586688  0.2720280  )
       381           C   tau( 381) = (  0.0966870  0.0586688  0.7720280  )
       382           C   tau( 382) = (  0.5966870  0.0586688  0.7720280  )
       383           C   tau( 383) = (  0.0966870  0.5586688  0.7720280  )
       384           C   tau( 384) = (  0.5966870  0.5586688  0.7720280  )
       385           C   tau( 385) = (  0.1643880  0.0624661  0.3500489  )
       386           C   tau( 386) = (  0.6643880  0.0624661  0.3500489  )
       387           C   tau( 387) = (  0.1643880  0.5624661  0.3500489  )
       388           C   tau( 388) = (  0.6643880  0.5624661  0.3500489  )
       389           C   tau( 389) = (  0.1643880  0.0624661  0.8500489  )
       390           C   tau( 390) = (  0.6643880  0.0624661  0.8500489  )
       391           C   tau( 391) = (  0.1643880  0.5624661  0.8500489  )
       392           C   tau( 392) = (  0.6643880  0.5624661  0.8500489  )
       393           C   tau( 393) = (  0.0494234  0.1080604  0.2814215  )
       394           C   tau( 394) = (  0.5494234  0.1080604  0.2814215  )
       395           C   tau( 395) = (  0.0494234  0.6080604  0.2814215  )
       396           C   tau( 396) = (  0.5494234  0.6080604  0.2814215  )
       397           C   tau( 397) = (  0.0494234  0.1080604  0.7814215  )
       398           C   tau( 398) = (  0.5494234  0.1080604  0.7814215  )
       399           C   tau( 399) = (  0.0494234  0.6080604  0.7814215  )
       400           C   tau( 400) = (  0.5494234  0.6080604  0.7814215  )
       401           H   tau( 401) = (  0.0631640  0.1542622  0.3500541  )
       402           H   tau( 402) = (  0.5631640  0.1542622  0.3500541  )
       403           H   tau( 403) = (  0.0631640  0.6542622  0.3500541  )
       404           H   tau( 404) = (  0.5631640  0.6542622  0.3500541  )
       405           H   tau( 405) = (  0.0631640  0.1542622  0.8500541  )
       406           H   tau( 406) = (  0.5631640  0.1542622  0.8500541  )
       407           H   tau( 407) = (  0.0631640  0.6542622  0.8500541  )
       408           H   tau( 408) = (  0.5631640  0.6542622  0.8500541  )
       409           C   tau( 409) = (  0.4649536  0.0333792  0.1143425  )
       410           C   tau( 410) = (  0.9649536  0.0333792  0.1143425  )
       411           C   tau( 411) = (  0.4649536  0.5333792  0.1143425  )
       412           C   tau( 412) = (  0.9649536  0.5333792  0.1143425  )
       413           C   tau( 413) = (  0.4649536  0.0333792  0.6143425  )
       414           C   tau( 414) = (  0.9649536  0.0333792  0.6143425  )
       415           C   tau( 415) = (  0.4649536  0.5333792  0.6143425  )
       416           C   tau( 416) = (  0.9649536  0.5333792  0.6143425  )
       417           H   tau( 417) = (  0.4118266  0.0195119  0.0488225  )
       418           H   tau( 418) = (  0.9118266  0.0195119  0.0488225  )
       419           H   tau( 419) = (  0.4118266  0.5195119  0.0488225  )
       420           H   tau( 420) = (  0.9118266  0.5195119  0.0488225  )
       421           H   tau( 421) = (  0.4118266  0.0195119  0.5488225  )
       422           H   tau( 422) = (  0.9118266  0.0195119  0.5488225  )
       423           H   tau( 423) = (  0.4118266  0.5195119  0.5488225  )
       424           H   tau( 424) = (  0.9118266  0.5195119  0.5488225  )
       425           N   tau( 425) = (  0.2202938  0.1291797  0.4358447  )
       426           N   tau( 426) = (  0.7202938  0.1291797  0.4358447  )
       427           N   tau( 427) = (  0.2202938  0.6291797  0.4358447  )
       428           N   tau( 428) = (  0.7202938  0.6291797  0.4358447  )
       429           N   tau( 429) = (  0.2202938  0.1291797  0.9358447  )
       430           N   tau( 430) = (  0.7202938  0.1291797  0.9358447  )
       431           N   tau( 431) = (  0.2202938  0.6291797  0.9358447  )
       432           N   tau( 432) = (  0.7202938  0.6291797  0.9358447  )
       433           N   tau( 433) = (  0.2706753  0.1031191  0.4851852  )
       434           N   tau( 434) = (  0.7706753  0.1031191  0.4851852  )
       435           N   tau( 435) = (  0.2706753  0.6031191  0.4851852  )
       436           N   tau( 436) = (  0.7706753  0.6031191  0.4851852  )
       437           N   tau( 437) = (  0.2706753  0.1031191  0.9851852  )
       438           N   tau( 438) = (  0.7706753  0.1031191  0.9851852  )
       439           N   tau( 439) = (  0.2706753  0.6031191  0.9851852  )
       440           N   tau( 440) = (  0.7706753  0.6031191  0.9851852  )
       441           C   tau( 441) = (  0.0751213  0.0003006  0.1822704  )
       442           C   tau( 442) = (  0.5751213  0.0003006  0.1822704  )
       443           C   tau( 443) = (  0.0751213  0.5003006  0.1822704  )
       444           C   tau( 444) = (  0.5751213  0.5003006  0.1822704  )
       445           C   tau( 445) = (  0.0751213  0.0003006  0.6822704  )
       446           C   tau( 446) = (  0.5751213  0.0003006  0.6822704  )
       447           C   tau( 447) = (  0.0751213  0.5003006  0.6822704  )
       448           C   tau( 448) = (  0.5751213  0.5003006  0.6822704  )
       449           H   tau( 449) = (  0.1128288  0.4627445  0.1726302  )
       450           H   tau( 450) = (  0.6128288  0.4627445  0.1726302  )
       451           H   tau( 451) = (  0.1128288  0.9627445  0.1726302  )
       452           H   tau( 452) = (  0.6128288  0.9627445  0.1726302  )
       453           H   tau( 453) = (  0.1128288  0.4627445  0.6726302  )
       454           H   tau( 454) = (  0.6128288  0.4627445  0.6726302  )
       455           H   tau( 455) = (  0.1128288  0.9627445  0.6726302  )
       456           H   tau( 456) = (  0.6128288  0.9627445  0.6726302  )
       457           N   tau( 457) = (  0.0107156  0.4868471  0.1052186  )
       458           N   tau( 458) = (  0.5107156  0.4868471  0.1052186  )
       459           N   tau( 459) = (  0.0107156  0.9868471  0.1052186  )
       460           N   tau( 460) = (  0.5107156  0.9868471  0.1052186  )
       461           N   tau( 461) = (  0.0107156  0.4868471  0.6052186  )
       462           N   tau( 462) = (  0.5107156  0.4868471  0.6052186  )
       463           N   tau( 463) = (  0.0107156  0.9868471  0.6052186  )
       464           N   tau( 464) = (  0.5107156  0.9868471  0.6052186  )
       465           C   tau( 465) = (  0.3942799  0.2820411  0.2990956  )
       466           C   tau( 466) = (  0.8942799  0.2820411  0.2990956  )
       467           C   tau( 467) = (  0.3942799  0.7820411  0.2990956  )
       468           C   tau( 468) = (  0.8942799  0.7820411  0.2990956  )
       469           C   tau( 469) = (  0.3942799  0.2820411  0.7990956  )
       470           C   tau( 470) = (  0.8942799  0.2820411  0.7990956  )
       471           C   tau( 471) = (  0.3942799  0.7820411  0.7990956  )
       472           C   tau( 472) = (  0.8942799  0.7820411  0.7990956  )
       473           H   tau( 473) = (  0.4434660  0.1315528  0.2041856  )
       474           H   tau( 474) = (  0.9434660  0.1315528  0.2041856  )
       475           H   tau( 475) = (  0.4434660  0.6315528  0.2041856  )
       476           H   tau( 476) = (  0.9434660  0.6315528  0.2041856  )
       477           H   tau( 477) = (  0.4434660  0.1315528  0.7041856  )
       478           H   tau( 478) = (  0.9434660  0.1315528  0.7041856  )
       479           H   tau( 479) = (  0.4434660  0.6315528  0.7041856  )
       480           H   tau( 480) = (  0.9434660  0.6315528  0.7041856  )
       481           Zn  tau( 481) = (  0.1250000  0.3750000  0.2500000  )
       482           Zn  tau( 482) = (  0.6250000  0.3750000  0.2500000  )
       483           Zn  tau( 483) = (  0.1250000  0.8750000  0.2500000  )
       484           Zn  tau( 484) = (  0.6250000  0.8750000  0.2500000  )
       485           Zn  tau( 485) = (  0.1250000  0.3750000  0.7500000  )
       486           Zn  tau( 486) = (  0.6250000  0.3750000  0.7500000  )
       487           Zn  tau( 487) = (  0.1250000  0.8750000  0.7500000  )
       488           Zn  tau( 488) = (  0.6250000  0.8750000  0.7500000  )
       489           Zn  tau( 489) = (  0.2500000  0.2500000  0.0000000  )
       490           Zn  tau( 490) = (  0.7500000  0.2500000  0.0000000  )
       491           Zn  tau( 491) = (  0.2500000  0.7500000  0.0000000  )
       492           Zn  tau( 492) = (  0.7500000  0.7500000  0.0000000  )
       493           Zn  tau( 493) = (  0.2500000  0.2500000  0.5000000  )
       494           Zn  tau( 494) = (  0.7500000  0.2500000  0.5000000  )
       495           Zn  tau( 495) = (  0.2500000  0.7500000  0.5000000  )
       496           Zn  tau( 496) = (  0.7500000  0.7500000  0.5000000  )

     number of k points=     1
                       cart. coord. in units 2pi/alat
        k(    1) = (   0.0000000   0.0000000   0.0000000), wk =   2.0000000

                       cryst. coord.
        k(    1) = (   0.0000000   0.0000000   0.0000000), wk =   2.0000000

     Dense  grid:  2563819 G-vectors     FFT dimensions: ( 192, 192, 192)

     Smooth grid:  2411581 G-vectors     FFT dimensions: ( 192, 192, 192)

     Dynamical RAM for                 wfc:     144.89 MB

     Dynamical RAM for     wfc (w. buffer):     144.89 MB

     Dynamical RAM for           str. fact:       4.89 MB

     Dynamical RAM for           local pot:       0.00 MB

     Dynamical RAM for          nlocal pot:     482.96 MB

     Dynamical RAM for                qrad:       5.08 MB

     Dynamical RAM for          rho,v,vnew:       8.73 MB

     Dynamical RAM for               rhoin:       2.91 MB

     Dynamical RAM for            rho*nmix:      19.56 MB

     Dynamical RAM for           G-vectors:       5.16 MB

     Dynamical RAM for          h,s,v(r/c):       7.43 MB

     Dynamical RAM for          <psi|beta>:      51.68 MB

     Dynamical RAM for                 psi:     289.78 MB

     Dynamical RAM for                hpsi:     289.78 MB

     Dynamical RAM for                spsi:     289.78 MB

     Dynamical RAM for      wfcinit/wfcrot:     570.99 MB

     Dynamical RAM for           addusdens:     462.11 MB

     Dynamical RAM for          addusforce:     930.48 MB

     Dynamical RAM for         addusstress:     245.73 MB

     Estimated static dynamical RAM per process >     669.17 MB

     Estimated max dynamical RAM per process >       1.58 GB

     Estimated total dynamical RAM >      50.60 GB

     Check: negative core charge=   -0.000014

     Initial potential from superposition of free atoms

     starting charge    2015.9874, renormalised to    2016.0000
     Starting wfcs are 1744 randomized atomic wfcs
     Checking if some PAW data can be deallocated... 
       PAW data deallocated on   10 nodes for type:  2

     total cpu time spent up to now is      153.4 secs

     Self-consistent Calculation

     iteration #  1     ecut=    60.00 Ry     beta= 0.40
     Davidson diagonalization with overlap

---- Real-time Memory Report at c_bands before calling an iterative solver
          1345 MiB given to the printing process from OS
             0 MiB allocation reported by mallinfo(arena+hblkhd)
        351055 MiB available memory on the node where the printing process lives
------------------
     ethr =  1.00E-02,  avg # of iterations =  3.0

     total cpu time spent up to now is      484.7 secs

     total energy              =  -14223.11895936 Ry
     estimated scf accuracy    <      42.09358701 Ry

     iteration #  2     ecut=    60.00 Ry     beta= 0.40
     Davidson diagonalization with overlap

---- Real-time Memory Report at c_bands before calling an iterative solver
          1727 MiB given to the printing process from OS
             0 MiB allocation reported by mallinfo(arena+hblkhd)
        343996 MiB available memory on the node where the printing process lives
------------------
     ethr =  2.09E-03,  avg # of iterations =  2.0

     total cpu time spent up to now is      757.0 secs

     total energy              =  -14223.75186591 Ry
     estimated scf accuracy    <       7.72091184 Ry

     iteration #  3     ecut=    60.00 Ry     beta= 0.40
     Davidson diagonalization with overlap

---- Real-time Memory Report at c_bands before calling an iterative solver
          1746 MiB given to the printing process from OS
             0 MiB allocation reported by mallinfo(arena+hblkhd)
        323277 MiB available memory on the node where the printing process lives
------------------
     ethr =  3.83E-04,  avg # of iterations =  4.0

     total cpu time spent up to now is     1111.6 secs

     total energy              =  -14225.17451162 Ry
     estimated scf accuracy    <       0.85053528 Ry

     iteration #  4     ecut=    60.00 Ry     beta= 0.40
     Davidson diagonalization with overlap

---- Real-time Memory Report at c_bands before calling an iterative solver
          1750 MiB given to the printing process from OS
             0 MiB allocation reported by mallinfo(arena+hblkhd)
        259996 MiB available memory on the node where the printing process lives
------------------
     ethr =  4.22E-05,  avg # of iterations =  4.0

     total cpu time spent up to now is     1444.3 secs

     total energy              =  -14225.24914918 Ry
     estimated scf accuracy    <       0.17074304 Ry

     iteration #  5     ecut=    60.00 Ry     beta= 0.40
     Davidson diagonalization with overlap

---- Real-time Memory Report at c_bands before calling an iterative solver
          1753 MiB given to the printing process from OS
             0 MiB allocation reported by mallinfo(arena+hblkhd)
        122247 MiB available memory on the node where the printing process lives
------------------
     ethr =  8.47E-06,  avg # of iterations =  5.0

     total cpu time spent up to now is     1825.7 secs

     total energy              =  -14225.27786334 Ry
     estimated scf accuracy    <       0.03005011 Ry

     iteration #  6     ecut=    60.00 Ry     beta= 0.40
     Davidson diagonalization with overlap

---- Real-time Memory Report at c_bands before calling an iterative solver
          1764 MiB given to the printing process from OS
             0 MiB allocation reported by mallinfo(arena+hblkhd)
        302115 MiB available memory on the node where the printing process lives
------------------
     ethr =  1.49E-06,  avg # of iterations =  5.0

     total cpu time spent up to now is     2210.4 secs

     total energy              =  -14225.28471174 Ry
     estimated scf accuracy    <       0.00795062 Ry

     iteration #  7     ecut=    60.00 Ry     beta= 0.40
     Davidson diagonalization with overlap

---- Real-time Memory Report at c_bands before calling an iterative solver
          1764 MiB given to the printing process from OS
             0 MiB allocation reported by mallinfo(arena+hblkhd)
        306014 MiB available memory on the node where the printing process lives
------------------
     ethr =  3.94E-07,  avg # of iterations =  5.0

     total cpu time spent up to now is     2580.7 secs

     total energy              =  -14225.28698677 Ry
     estimated scf accuracy    <       0.00172690 Ry

     iteration #  8     ecut=    60.00 Ry     beta= 0.40
     Davidson diagonalization with overlap

---- Real-time Memory Report at c_bands before calling an iterative solver
          1764 MiB given to the printing process from OS
             0 MiB allocation reported by mallinfo(arena+hblkhd)
        305401 MiB available memory on the node where the printing process lives
------------------
     ethr =  8.57E-08,  avg # of iterations =  5.0

     total cpu time spent up to now is     2924.3 secs

     total energy              =  -14225.28739897 Ry
     estimated scf accuracy    <       0.00013755 Ry

     iteration #  9     ecut=    60.00 Ry     beta= 0.40
     Davidson diagonalization with overlap

---- Real-time Memory Report at c_bands before calling an iterative solver
          1767 MiB given to the printing process from OS
             0 MiB allocation reported by mallinfo(arena+hblkhd)
        307092 MiB available memory on the node where the printing process lives
------------------
     ethr =  6.82E-09,  avg # of iterations =  6.0

     total cpu time spent up to now is     3369.4 secs

     total energy              =  -14225.28746081 Ry
     estimated scf accuracy    <       0.00005404 Ry

     iteration # 10     ecut=    60.00 Ry     beta= 0.40
     Davidson diagonalization with overlap

---- Real-time Memory Report at c_bands before calling an iterative solver
          1771 MiB given to the printing process from OS
             0 MiB allocation reported by mallinfo(arena+hblkhd)
        309866 MiB available memory on the node where the printing process lives
------------------
     ethr =  2.68E-09,  avg # of iterations =  4.0

     total cpu time spent up to now is     3638.9 secs

     total energy              =  -14225.28745901 Ry
     estimated scf accuracy    <       0.00001396 Ry

     iteration # 11     ecut=    60.00 Ry     beta= 0.40
     Davidson diagonalization with overlap

---- Real-time Memory Report at c_bands before calling an iterative solver
          1774 MiB given to the printing process from OS
             0 MiB allocation reported by mallinfo(arena+hblkhd)
        303861 MiB available memory on the node where the printing process lives
------------------
     ethr =  6.93E-10,  avg # of iterations =  6.0

     total cpu time spent up to now is     4133.9 secs

     total energy              =  -14225.28746683 Ry
     estimated scf accuracy    <       0.00001898 Ry

     iteration # 12     ecut=    60.00 Ry     beta= 0.40
     Davidson diagonalization with overlap

---- Real-time Memory Report at c_bands before calling an iterative solver
          1775 MiB given to the printing process from OS
             0 MiB allocation reported by mallinfo(arena+hblkhd)
        307178 MiB available memory on the node where the printing process lives
------------------
     ethr =  6.93E-10,  avg # of iterations =  2.0

     total cpu time spent up to now is     4383.7 secs

     total energy              =  -14225.28746385 Ry
     estimated scf accuracy    <       0.00000684 Ry

     iteration # 13     ecut=    60.00 Ry     beta= 0.40
     Davidson diagonalization with overlap

---- Real-time Memory Report at c_bands before calling an iterative solver
          1775 MiB given to the printing process from OS
             0 MiB allocation reported by mallinfo(arena+hblkhd)
        306931 MiB available memory on the node where the printing process lives
------------------
     ethr =  3.39E-10,  avg # of iterations =  6.0

     total cpu time spent up to now is     4826.1 secs

     total energy              =  -14225.28746675 Ry
     estimated scf accuracy    <       0.00000488 Ry

     iteration # 14     ecut=    60.00 Ry     beta= 0.40
     Davidson diagonalization with overlap

---- Real-time Memory Report at c_bands before calling an iterative solver
          1775 MiB given to the printing process from OS
             0 MiB allocation reported by mallinfo(arena+hblkhd)
        302474 MiB available memory on the node where the printing process lives
------------------
     ethr =  2.42E-10,  avg # of iterations =  5.0

     total cpu time spent up to now is     5107.0 secs

     total energy              =  -14225.28746728 Ry
     estimated scf accuracy    <       0.00000035 Ry

     iteration # 15     ecut=    60.00 Ry     beta= 0.40
     Davidson diagonalization with overlap

---- Real-time Memory Report at c_bands before calling an iterative solver
          1775 MiB given to the printing process from OS
             0 MiB allocation reported by mallinfo(arena+hblkhd)
        302788 MiB available memory on the node where the printing process lives
------------------
     ethr =  1.73E-11,  avg # of iterations =  7.0

     total cpu time spent up to now is     5559.2 secs

     total energy              =  -14225.28746752 Ry
     estimated scf accuracy    <       0.00000005 Ry

     iteration # 16     ecut=    60.00 Ry     beta= 0.40
     Davidson diagonalization with overlap

---- Real-time Memory Report at c_bands before calling an iterative solver
          1775 MiB given to the printing process from OS
             0 MiB allocation reported by mallinfo(arena+hblkhd)
        295767 MiB available memory on the node where the printing process lives
------------------
     ethr =  2.44E-12,  avg # of iterations =  6.0

     total cpu time spent up to now is     5981.2 secs

     total energy              =  -14225.28746749 Ry
     estimated scf accuracy    <       0.00000019 Ry

     iteration # 17     ecut=    60.00 Ry     beta= 0.40
     Davidson diagonalization with overlap

---- Real-time Memory Report at c_bands before calling an iterative solver
          1775 MiB given to the printing process from OS
             0 MiB allocation reported by mallinfo(arena+hblkhd)
        254078 MiB available memory on the node where the printing process lives
------------------
     ethr =  2.44E-12,  avg # of iterations =  5.0

     total cpu time spent up to now is     6388.9 secs

     total energy              =  -14225.28746749 Ry
     estimated scf accuracy    <       0.00000003 Ry

     iteration # 18     ecut=    60.00 Ry     beta= 0.40
     Davidson diagonalization with overlap

---- Real-time Memory Report at c_bands before calling an iterative solver
          1775 MiB given to the printing process from OS
             0 MiB allocation reported by mallinfo(arena+hblkhd)
        109734 MiB available memory on the node where the printing process lives
------------------
     ethr =  1.59E-12,  avg # of iterations =  6.0

     total cpu time spent up to now is     6836.9 secs

     End of self-consistent calculation

          k = 0.0000 0.0000 0.0000 (301561 PWs)   bands (ev):

  -122.8789-122.8788-122.8788-122.8787-122.8787-122.8787-122.8787-122.8786
  -122.8422-122.8412-122.8412-122.8412-122.8412-122.8412-122.8412-122.8411
   -77.2238 -77.2237 -77.2237 -77.2236 -77.2236 -77.2236 -77.2236 -77.2235
   -77.2191 -77.2190 -77.2190 -77.2189 -77.2189 -77.2189 -77.2189 -77.2189
   -77.2189 -77.2189 -77.2188 -77.2188 -77.2188 -77.2188 -77.2187 -77.2187
   -77.1933 -77.1933 -77.1923 -77.1923 -77.1923 -77.1923 -77.1923 -77.1923
   -77.1923 -77.1923 -77.1923 -77.1923 -77.1923 -77.1923 -77.1922 -77.1922
   -77.1659 -77.1649 -77.1649 -77.1648 -77.1648 -77.1648 -77.1648 -77.1647
   -21.8270 -21.8202 -21.8200 -21.8200 -21.8200 -21.8143 -21.8142 -21.8136
   -21.8135 -21.8119 -21.8098 -21.8060 -21.8060 -21.8059 -21.8059 -21.8009
   -21.8007 -21.8007 -21.8007 -21.8006 -21.8006 -21.8006 -21.8005 -21.7990
   -21.7990 -21.7965 -21.7964 -21.7963 -21.7963 -21.7962 -21.7961 -21.7945
   -16.7493 -16.7476 -16.7476 -16.7466 -16.7465 -16.7465 -16.7465 -16.7421
   -16.7142 -16.7071 -16.7071 -16.7070 -16.7070 -16.7005 -16.6995 -16.6995
   -16.6923 -16.6922 -16.6852 -16.6852 -16.6852 -16.6851 -16.6821 -16.6821
   -16.6803 -16.6802 -16.6785 -16.6785 -16.6784 -16.6784 -16.6784 -16.6783
   -16.5790 -16.5402 -16.5401 -16.5401 -16.5400 -16.5182 -16.5181 -16.5064
   -16.4943 -16.4943 -16.4921 -16.4683 -16.4682 -16.4682 -16.4682 -16.4375
   -16.4374 -16.4365 -16.4364 -16.4364 -16.4364 -16.4349 -16.4349 -16.4336
   -16.4335 -16.4249 -16.4248 -16.4247 -16.4247 -16.4232 -16.4232 -16.4199
   -15.4996 -15.4988 -15.4970 -15.4938 -15.4938 -15.4937 -15.4936 -15.4917
   -15.4878 -15.4878 -15.4877 -15.4877 -15.4875 -15.4874 -15.4871 -15.4870
   -15.4811 -15.4811 -15.4802 -15.4801 -15.4801 -15.4800 -15.4800 -15.4800
   -15.4788 -15.4788 -15.4788 -15.4787 -15.4763 -15.4763 -15.4748 -15.4748
   -13.2307 -13.2198 -13.2125 -13.2122 -13.2122 -13.2121 -13.2098 -13.2096
   -13.2075 -13.2044 -13.2042 -13.2036 -13.2034 -13.2034 -13.2034 -13.1951
   -13.1918 -13.1918 -13.1910 -13.1908 -13.1908 -13.1907 -13.1797 -13.1795
   -13.1795 -13.1794 -13.1783 -13.1782 -13.1779 -13.1778 -13.1778 -13.1777
   -12.1896 -12.1896 -12.1896 -12.1895 -12.1882 -12.1881 -12.1840 -12.1800
   -12.1799 -12.1720 -12.1690 -12.1690 -12.1689 -12.1689 -12.1524 -12.1524
   -12.1520 -12.1520 -12.1501 -12.1500 -12.1500 -12.1500 -12.1497 -12.1496
   -12.1335 -12.1253 -12.1253 -12.1210 -12.1178 -12.1178 -12.1177 -12.1177
    -9.9199  -9.9014  -9.8903  -9.8862  -9.8862  -9.8862  -9.8861  -9.8770
    -9.8610  -9.8609  -9.8609  -9.8608  -9.8574  -9.8573  -9.8498  -9.8497
    -9.8266  -9.8265  -9.8265  -9.8265  -9.8245  -9.8244  -9.8063  -9.8063
    -9.8054  -9.8054  -9.7974  -9.7973  -9.7973  -9.7972  -9.7957  -9.7957
    -9.6803  -9.6660  -9.6659  -9.6646  -9.6644  -9.6643  -9.6643  -9.6486
    -9.6484  -9.6472  -9.6470  -9.6470  -9.6469  -9.6449  -9.6448  -9.6387
    -9.6386  -9.6155  -9.6153  -9.6152  -9.6152  -9.6022  -9.6022  -9.5861
    -9.5827  -9.5598  -9.5596  -9.5458  -9.5456  -9.5455  -9.5455  -9.5260
    -8.5894  -8.5637  -8.5512  -8.5509  -8.5482  -8.5389  -8.5384  -8.5384
    -8.5384  -8.5299  -8.5296  -8.5296  -8.5295  -8.5120  -8.5118  -8.5116
    -8.4962  -8.4956  -8.4955  -8.4955  -8.4930  -8.4929  -8.4634  -8.4629
    -8.4625  -8.4623  -8.4622  -8.4622  -8.4498  -8.4497  -8.4496  -8.4495
    -8.4235  -8.4175  -8.4174  -8.4123  -8.4121  -8.4120  -8.4120  -8.3748
    -8.3700  -8.3698  -8.3698  -8.3698  -8.3633  -8.3631  -8.3625  -8.3624
    -8.3611  -8.3596  -8.3594  -8.3574  -8.3571  -8.3318  -8.3316  -8.3316
    -8.3316  -8.3227  -8.3224  -8.3222  -8.3221  -8.3221  -8.3125  -8.3124
    -7.0585  -6.9056  -6.8985  -6.8982  -6.8980  -6.8980  -6.8979  -6.7920
    -6.7920  -6.7584  -6.7583  -6.7140  -6.7139  -6.7138  -6.7138  -6.6758
    -6.6019  -6.6019  -6.5985  -6.5983  -6.5982  -6.5982  -6.5710  -6.5708
    -6.5611  -6.5610  -6.5610  -6.5609  -6.4882  -6.4881  -6.4860  -6.4859
    -5.8778  -5.8313  -5.8311  -5.8310  -5.8310  -5.8291  -5.7986  -5.7984
    -5.7837  -5.7835  -5.7760  -5.7759  -5.7759  -5.7759  -5.7635  -5.7634
    -5.7376  -5.7373  -5.7373  -5.7373  -5.7302  -5.7301  -5.7279  -5.7245
    -5.6858  -5.6856  -5.6855  -5.6855  -5.6453  -5.6451  -5.6350  -5.6325
    -5.6323  -5.6094  -5.6047  -5.6046  -5.5959  -5.5958  -5.5957  -5.5957
    -5.5810  -5.5603  -5.5456  -5.5453  -5.5427  -5.5422  -5.5421  -5.5421
    -5.5376  -5.5375  -5.5365  -5.5364  -5.5124  -5.5122  -5.5031  -5.5030
    -5.5014  -5.5011  -5.5011  -5.5011  -5.4828  -5.4825  -5.4825  -5.4825
    -5.0613  -5.0613  -5.0475  -5.0474  -5.0474  -5.0473  -5.0443  -5.0442
    -5.0302  -5.0302  -5.0298  -5.0298  -5.0297  -5.0296  -5.0261  -5.0180
    -5.0179  -5.0034  -4.9990  -4.9948  -4.9947  -4.9947  -4.9945  -4.9786
    -4.9785  -4.9661  -4.9660  -4.9660  -4.9658  -4.9569  -4.9535  -4.9534
    -4.9459  -4.8942  -4.8916  -4.8915  -4.8681  -4.8679  -4.8679  -4.8679
    -4.8624  -4.8520  -4.8519  -4.8443  -4.8441  -4.8441  -4.8440  -4.8342
    -4.8341  -4.8303  -4.8299  -4.8299  -4.8298  -4.8268  -4.8261  -4.8260
    -4.8038  -4.8037  -4.7993  -4.7992  -4.7928  -4.7925  -4.7925  -4.7925
    -4.7804  -4.7803  -4.7583  -4.7581  -4.7580  -4.7580  -4.7435  -4.7433
    -4.7411  -4.7411  -4.7218  -4.7217  -4.7216  -4.7216  -4.7133  -4.7132
    -4.7118  -4.7115  -4.7115  -4.7115  -4.6865  -4.6864  -4.6692  -4.6691
    -4.6478  -4.6134  -4.6133  -4.5883  -4.5880  -4.5880  -4.5880  -4.5017
    -4.3230  -4.2811  -4.2810  -4.2810  -4.2809  -4.2188  -4.2128  -4.2078
    -4.2078  -4.1878  -4.1876  -4.1414  -4.1413  -4.1412  -4.1412  -4.1410
    -4.1409  -4.1365  -4.1138  -4.1080  -4.1078  -4.1077  -4.1077  -4.1035
    -4.0978  -4.0976  -4.0855  -4.0854  -4.0854  -4.0853  -4.0653  -4.0572
    -3.9877  -3.9556  -3.9556  -3.8258  -3.8258  -3.8257  -3.8257  -3.7663
    -3.7662  -3.7662  -3.7662  -3.7309  -3.7101  -3.7100  -3.7100  -3.7100
    -3.6717  -3.6558  -3.6557  -3.6268  -3.5756  -3.5756  -3.5732  -3.5732
    -3.5596  -3.5595  -3.5040  -3.5039  -3.4254  -3.4254  -3.4253  -3.4253
    -3.4238  -3.4238  -3.3750  -3.3749  -3.3650  -3.3646  -3.3645  -3.3645
    -3.3644  -3.2781  -3.2779  -3.2779  -3.2779  -3.2412  -3.2410  -3.2410
    -3.2410  -3.2343  -3.2308  -3.2307  -3.2306  -3.2291  -3.2288  -3.2099
    -3.2099  -3.1860  -3.1767  -3.1761  -3.1761  -3.1760  -3.1716  -3.0957
    -3.0956  -3.0953  -3.0948  -3.0899  -3.0899  -3.0874  -3.0868  -3.0868
    -3.0867  -3.0464  -3.0453  -3.0453  -3.0452  -3.0182  -3.0056  -3.0055
    -2.9782  -2.9742  -2.9740  -2.9740  -2.9739  -2.9692  -2.9380  -2.9379
    -2.9357  -2.9350  -2.9349  -2.9348  -2.9297  -2.9293  -2.8985  -2.8835
    -2.8834  -2.7763  -2.7758  -2.7617  -2.7612  -2.7611  -2.7611  -2.7268
    -2.7263  -2.7180  -2.7175  -2.7035  -2.7027  -2.7015  -2.7008  -2.7008
    -2.7008  -2.6124  -2.6120  -2.6119  -2.6119  -2.5573  -2.4829  -2.4416
    -2.4416  -2.3680  -2.3679  -2.2682  -2.2681  -2.2681  -2.2681  -2.1964
    -2.1962  -2.1602  -2.0958  -2.0766  -2.0611  -2.0609  -2.0608  -2.0608
    -2.0135  -2.0133  -2.0133  -2.0133  -2.0063  -2.0062  -2.0058  -1.9945
    -1.9944  -1.9538  -1.9538  -1.9538  -1.9537  -1.9483  -1.9483  -1.9180
    -1.9179  -1.8920  -1.8920  -1.8710  -1.8709  -1.8709  -1.8708  -1.7602
    -1.7602  -1.6297  -1.6296  -1.6296  -1.6296  -1.5897  -1.5896  -1.5192
    -1.4438  -1.4437  -1.4437  -1.4437  -1.4242  -1.4242  -1.4184  -1.4184
    -1.4155  -1.4089  -1.4089  -1.3813  -1.3747  -1.3745  -1.3745  -1.3745
    -1.3635  -1.3635  -1.3635  -1.3634  -1.3625  -1.3624  -1.3485  -1.3484
    -1.3471  -1.3471  -1.3470  -1.3470  -1.3403  -1.3403  -1.3374  -1.3333
    -1.2996  -1.2995  -1.2969  -1.2813  -1.2813  -1.2813  -1.2813  -1.2535
    -1.2535  -1.2417  -1.2416  -1.2416  -1.2416  -1.2337  -1.2300  -1.2299
    -1.2201  -1.2200  -1.2098  -1.2098  -1.2091  -1.2091  -1.2091  -1.2090
    -1.1526  -1.1526  -1.1525  -1.1525  -1.1478  -1.1478  -1.0928  -1.0682
    -1.0405  -0.9021  -0.9019  -0.9019  -0.9019  -0.9013  -0.9012  -0.8037
    -0.8037  -0.8019  -0.7826  -0.7826  -0.7826  -0.7826  -0.7796  -0.7795
    -0.7695  -0.7626  -0.7626  -0.7286  -0.7285  -0.7285  -0.7285  -0.7179
    -0.7178  -0.7144  -0.7124  -0.7124  -0.7124  -0.7123  -0.6637  -0.6637
    -0.6294  -0.6294  -0.5996  -0.5996  -0.5995  -0.5995  -0.5722  -0.5722
    -0.4878  -0.4241  -0.4241  -0.4240  -0.4240  -0.4158  -0.4158  -0.4004
    -0.3839  -0.3838  -0.3633  -0.3633  -0.3633  -0.3632  -0.3471  -0.3407
    -0.3407  -0.3362  -0.3361  -0.3361  -0.3361  -0.3312  -0.3311  -0.3287
    -0.3287  -0.3268  -0.2970  -0.2969  -0.2846  -0.2846  -0.2845  -0.2845
    -0.2801  -0.2801  -0.2761  -0.2760  -0.2760  -0.2760  -0.2727  -0.2432
    -0.2431  -0.2431  -0.2431  -0.2401  -0.2400  -0.2399  -0.2215  -0.2215
    -0.2209  -0.2209  -0.2209  -0.2209  -0.2185  -0.2081  -0.2081  -0.2077
    -0.2036  -0.2036  -0.1909  -0.1908  -0.1908  -0.1907  -0.1907  -0.1906
     0.3864   0.4184   0.4185   0.4185   0.4185   0.4350   0.4350   0.4859
     0.4860   0.4867   0.4948   0.4948   0.4949   0.4949   0.5126   0.5127
     0.5145   0.5145   0.5240   0.5272   0.5272   0.5272   0.5273   0.5738
     0.5738   0.5762   0.5763   0.6100   0.6101   0.6101   0.6101   0.6263
     1.0983   1.0983   1.1046   1.1047   1.1159   1.1159   1.1160   1.1160
     1.1374   1.1374   1.1375   1.1375   1.1547   1.1618   1.1618   1.1636
     1.1636   1.1645   1.1736   1.1737   1.1737   1.1737   1.1845   1.1846
     1.2169   1.2205   1.2421   1.2421   1.2421   1.2421   1.2426   1.2427

     occupation numbers 
     1.0000   1.0000   1.0000   1.0000   1.0000   1.0000   1.0000   1.0000
     1.0000   1.0000   1.0000   1.0000   1.0000   1.0000   1.0000   1.0000
     1.0000   1.0000   1.0000   1.0000   1.0000   1.0000   1.0000   1.0000
     1.0000   1.0000   1.0000   1.0000   1.0000   1.0000   1.0000   1.0000
     1.0000   1.0000   1.0000   1.0000   1.0000   1.0000   1.0000   1.0000
     1.0000   1.0000   1.0000   1.0000   1.0000   1.0000   1.0000   1.0000
     1.0000   1.0000   1.0000   1.0000   1.0000   1.0000   1.0000   1.0000
     1.0000   1.0000   1.0000   1.0000   1.0000   1.0000   1.0000   1.0000
     1.0000   1.0000   1.0000   1.0000   1.0000   1.0000   1.0000   1.0000
     1.0000   1.0000   1.0000   1.0000   1.0000   1.0000   1.0000   1.0000
     1.0000   1.0000   1.0000   1.0000   1.0000   1.0000   1.0000   1.0000
     1.0000   1.0000   1.0000   1.0000   1.0000   1.0000   1.0000   1.0000
     1.0000   1.0000   1.0000   1.0000   1.0000   1.0000   1.0000   1.0000
     1.0000   1.0000   1.0000   1.0000   1.0000   1.0000   1.0000   1.0000
     1.0000   1.0000   1.0000   1.0000   1.0000   1.0000   1.0000   1.0000
     1.0000   1.0000   1.0000   1.0000   1.0000   1.0000   1.0000   1.0000
     1.0000   1.0000   1.0000   1.0000   1.0000   1.0000   1.0000   1.0000
     1.0000   1.0000   1.0000   1.0000   1.0000   1.0000   1.0000   1.0000
     1.0000   1.0000   1.0000   1.0000   1.0000   1.0000   1.0000   1.0000
     1.0000   1.0000   1.0000   1.0000   1.0000   1.0000   1.0000   1.0000
     1.0000   1.0000   1.0000   1.0000   1.0000   1.0000   1.0000   1.0000
     1.0000   1.0000   1.0000   1.0000   1.0000   1.0000   1.0000   1.0000
     1.0000   1.0000   1.0000   1.0000   1.0000   1.0000   1.0000   1.0000
     1.0000   1.0000   1.0000   1.0000   1.0000   1.0000   1.0000   1.0000
     1.0000   1.0000   1.0000   1.0000   1.0000   1.0000   1.0000   1.0000
     1.0000   1.0000   1.0000   1.0000   1.0000   1.0000   1.0000   1.0000
     1.0000   1.0000   1.0000   1.0000   1.0000   1.0000   1.0000   1.0000
     1.0000   1.0000   1.0000   1.0000   1.0000   1.0000   1.0000   1.0000
     1.0000   1.0000   1.0000   1.0000   1.0000   1.0000   1.0000   1.0000
     1.0000   1.0000   1.0000   1.0000   1.0000   1.0000   1.0000   1.0000
     1.0000   1.0000   1.0000   1.0000   1.0000   1.0000   1.0000   1.0000
     1.0000   1.0000   1.0000   1.0000   1.0000   1.0000   1.0000   1.0000
     1.0000   1.0000   1.0000   1.0000   1.0000   1.0000   1.0000   1.0000
     1.0000   1.0000   1.0000   1.0000   1.0000   1.0000   1.0000   1.0000
     1.0000   1.0000   1.0000   1.0000   1.0000   1.0000   1.0000   1.0000
     1.0000   1.0000   1.0000   1.0000   1.0000   1.0000   1.0000   1.0000
     1.0000   1.0000   1.0000   1.0000   1.0000   1.0000   1.0000   1.0000
     1.0000   1.0000   1.0000   1.0000   1.0000   1.0000   1.0000   1.0000
     1.0000   1.0000   1.0000   1.0000   1.0000   1.0000   1.0000   1.0000
     1.0000   1.0000   1.0000   1.0000   1.0000   1.0000   1.0000   1.0000
     1.0000   1.0000   1.0000   1.0000   1.0000   1.0000   1.0000   1.0000
     1.0000   1.0000   1.0000   1.0000   1.0000   1.0000   1.0000   1.0000
     1.0000   1.0000   1.0000   1.0000   1.0000   1.0000   1.0000   1.0000
     1.0000   1.0000   1.0000   1.0000   1.0000   1.0000   1.0000   1.0000
     1.0000   1.0000   1.0000   1.0000   1.0000   1.0000   1.0000   1.0000
     1.0000   1.0000   1.0000   1.0000   1.0000   1.0000   1.0000   1.0000
     1.0000   1.0000   1.0000   1.0000   1.0000   1.0000   1.0000   1.0000
     1.0000   1.0000   1.0000   1.0000   1.0000   1.0000   1.0000   1.0000
     1.0000   1.0000   1.0000   1.0000   1.0000   1.0000   1.0000   1.0000
     1.0000   1.0000   1.0000   1.0000   1.0000   1.0000   1.0000   1.0000
     1.0000   1.0000   1.0000   1.0000   1.0000   1.0000   1.0000   1.0000
     1.0000   1.0000   1.0000   1.0000   1.0000   1.0000   1.0000   1.0000
     1.0000   1.0000   1.0000   1.0000   1.0000   1.0000   1.0000   1.0000
     1.0000   1.0000   1.0000   1.0000   1.0000   1.0000   1.0000   1.0000
     1.0000   1.0000   1.0000   1.0000   1.0000   1.0000   1.0000   1.0000
     1.0000   1.0000   1.0000   1.0000   1.0000   1.0000   1.0000   1.0000
     1.0000   1.0000   1.0000   1.0000   1.0000   1.0000   1.0000   1.0000
     1.0000   1.0000   1.0000   1.0000   1.0000   1.0000   1.0000   1.0000
     1.0000   1.0000   1.0000   1.0000   1.0000   1.0000   1.0000   1.0000
     1.0000   1.0000   1.0000   1.0000   1.0000   1.0000   1.0000   1.0000
     1.0000   1.0000   1.0000   1.0000   1.0000   1.0000   1.0000   1.0000
     1.0000   1.0000   1.0000   1.0000   1.0000   1.0000   1.0000   1.0000
     1.0000   1.0000   1.0000   1.0000   1.0000   1.0000   1.0000   1.0000
     1.0000   1.0000   1.0000   1.0000   1.0000   1.0000   1.0000   1.0000
     1.0000   1.0000   1.0000   1.0000   1.0000   1.0000   1.0000   1.0000
     1.0000   1.0000   1.0000   1.0000   1.0000   1.0000   1.0000   1.0000
     1.0000   1.0000   1.0000   1.0000   1.0000   1.0000   1.0000   1.0000
     1.0000   1.0000   1.0000   1.0000   1.0000   1.0000   1.0000   1.0000
     1.0000   1.0000   1.0000   1.0000   1.0000   1.0000   1.0000   1.0000
     1.0000   1.0000   1.0000   1.0000   1.0000   1.0000   1.0000   1.0000
     1.0000   1.0000   1.0000   1.0000   1.0000   1.0000   1.0000   1.0000
     1.0000   1.0000   1.0000   1.0000   1.0000   1.0000   1.0000   1.0000
     1.0000   1.0000   1.0000   1.0000   1.0000   1.0000   1.0000   1.0000
     1.0000   1.0000   1.0000   1.0000   1.0000   1.0000   1.0000   1.0000
     1.0000   1.0000   1.0000   1.0000   1.0000   1.0000   1.0000   1.0000
     1.0000   1.0000   1.0000   1.0000   1.0000   1.0000   1.0000   1.0000
     1.0000   1.0000   1.0000   1.0000   1.0000   1.0000   1.0000   1.0000
     1.0000   1.0000   1.0000   1.0000   1.0000   1.0000   1.0000   1.0000
     1.0000   1.0000   1.0000   1.0000   1.0000   1.0000   1.0000   1.0000
     1.0000   1.0000   1.0000   1.0000   1.0000   1.0000   1.0000   1.0000
     1.0000   1.0000   1.0000   1.0000   1.0000   1.0000   1.0000   1.0000
     1.0000   1.0000   1.0000   1.0000   1.0000   1.0000   1.0000   1.0000
     1.0000   1.0000   1.0000   1.0000   1.0000   1.0000   1.0000   1.0000
     1.0000   1.0000   1.0000   1.0000   1.0000   1.0000   1.0000   1.0000
     1.0000   1.0000   1.0000   1.0000   1.0000   1.0000   1.0000   1.0000
     1.0000   1.0000   1.0000   1.0000   1.0000   1.0000   1.0000   1.0000
     1.0000   1.0000   1.0000   1.0000   1.0000   1.0000   1.0000   1.0000
     1.0000   1.0000   1.0000   1.0000   1.0000   1.0000   1.0000   1.0000
     1.0000   1.0000   1.0000   1.0000   1.0000   1.0000   1.0000   1.0000
     1.0000   1.0000   1.0000   1.0000   1.0000   1.0000   1.0000   1.0000
     1.0000   1.0000   1.0000   1.0000   1.0000   1.0000   1.0000   1.0000
     1.0000   1.0000   1.0000   1.0000   1.0000   1.0000   1.0000   1.0000
     1.0000   1.0000   1.0000   1.0000   1.0000   1.0000   1.0000   1.0000
     1.0000   1.0000   1.0000   1.0000   1.0000   1.0000   1.0000   1.0000
     1.0000   1.0000   1.0000   1.0000   1.0000   1.0000   1.0000   1.0000
     1.0000   1.0000   1.0000   1.0000   1.0000   1.0000   1.0000   1.0000
     1.0000   1.0000   1.0000   1.0000   1.0000   1.0000   1.0000   1.0000
     1.0000   1.0000   1.0000   1.0000   1.0000   1.0000   1.0000   1.0000
     1.0000   1.0000   1.0000   1.0000   1.0000   1.0000   1.0000   1.0000
     1.0000   1.0000   1.0000   1.0000   1.0000   1.0000   1.0000   1.0000
     1.0000   1.0000   1.0000   1.0000   1.0000   1.0000   1.0000   1.0000
     1.0000   1.0000   1.0000   1.0000   1.0000   1.0000   1.0000   1.0000
     1.0000   1.0000   1.0000   1.0000   1.0000   1.0000   1.0000   1.0000
     1.0000   1.0000   1.0000   1.0000   1.0000   1.0000   1.0000   1.0000
     1.0000   1.0000   1.0000   1.0000   1.0000   1.0000   1.0000   1.0000
     1.0000   1.0000   1.0000   1.0000   1.0000   1.0000   1.0000   1.0000
     1.0000   1.0000   1.0000   1.0000   1.0000   1.0000   1.0000   1.0000
     1.0000   1.0000   1.0000   1.0000   1.0000   1.0000   1.0000   1.0000
     1.0000   1.0000   1.0000   1.0000   1.0000   1.0000   1.0000   1.0000
     1.0000   1.0000   1.0000   1.0000   1.0000   1.0000   1.0000   1.0000
     1.0000   1.0000   1.0000   1.0000   1.0000   1.0000   1.0000   1.0000
     1.0000   1.0000   1.0000   1.0000   1.0000   1.0000   1.0000   1.0000
     1.0000   1.0000   1.0000   1.0000   1.0000   1.0000   1.0000   1.0000
     1.0000   1.0000   1.0000   1.0000   1.0000   1.0000   1.0000   1.0000
     1.0000   1.0000   1.0000   1.0000   1.0000   1.0000   1.0000   1.0000
     1.0000   1.0000   1.0000   1.0000   1.0000   1.0000   1.0000   1.0000
     1.0000   1.0000   1.0000   1.0000   1.0000   1.0000   1.0000   1.0000
     1.0000   1.0000   1.0000   1.0000   1.0000   1.0000   1.0000   1.0000
     1.0000   1.0000   1.0000   1.0000   1.0000   1.0000   1.0000   1.0000
     1.0000   1.0000   1.0000   1.0000   1.0000   1.0000   1.0000   1.0000
     1.0000   1.0000   1.0000   1.0000   1.0000   1.0000   1.0000   1.0000
     1.0000   1.0000   1.0000   1.0000   1.0000   1.0000   1.0000   1.0000
     1.0000   1.0000   1.0000   1.0000   1.0000   1.0000   1.0000   1.0000
     1.0000   1.0000   1.0000   1.0000   1.0000   1.0000   1.0000   1.0000
     1.0000   1.0000   1.0000   1.0000   1.0000   1.0000   1.0000   1.0000
     1.0000   1.0000   1.0000   1.0000   1.0000   1.0000   1.0000   1.0000

     highest occupied level (ev):     1.2427

!    total energy              =  -14225.28746750 Ry
     estimated scf accuracy    <          3.0E-09 Ry

     The total energy is the sum of the following terms:
     one-electron contribution =  -15720.05932447 Ry
     hartree contribution      =    8487.48019810 Ry
     xc contribution           =   -2486.48171806 Ry
     ewald contribution        =   -3375.02731509 Ry
     one-center paw contrib.   =   -1131.19930797 Ry
      -> PAW hartree energy AE =       0.00000000 Ry
      -> PAW hartree energy PS =       0.00000000 Ry
      -> PAW xc energy AE      =       0.00000000 Ry
      -> PAW xc energy PS      =       0.00000000 Ry
      -> total E_H with PAW    =    8487.48019810 Ry
      -> total E_XC with PAW   =   -2486.48171806 Ry

     convergence has been achieved in  18 iterations

     Forces acting on atoms (cartesian axes, Ry/au):

     atom    1 type  1   force =    -0.00000228   -0.00023928   -0.00013581
     atom    2 type  1   force =    -0.00000303   -0.00023837   -0.00013535
     atom    3 type  1   force =    -0.00000202   -0.00023783   -0.00013445
     atom    4 type  1   force =    -0.00000300   -0.00023841   -0.00013535
     atom    5 type  1   force =    -0.00000286   -0.00023872   -0.00013520
     atom    6 type  1   force =    -0.00001575   -0.00024381   -0.00013187
     atom    7 type  1   force =    -0.00000248   -0.00023933   -0.00013560
     atom    8 type  1   force =    -0.00000232   -0.00023888   -0.00013558
     atom    9 type  1   force =    -0.00019707   -0.00013187   -0.00017396
     atom   10 type  1   force =    -0.00019745   -0.00013143   -0.00017416
     atom   11 type  1   force =    -0.00019735   -0.00013131   -0.00017457
     atom   12 type  1   force =    -0.00019660   -0.00013129   -0.00017380
     atom   13 type  1   force =    -0.00021026   -0.00014567   -0.00018570
     atom   14 type  1   force =    -0.00019686   -0.00013151   -0.00017394
     atom   15 type  1   force =    -0.00019677   -0.00013137   -0.00017415
     atom   16 type  1   force =    -0.00019726   -0.00013143   -0.00017381
     atom   17 type  2   force =    -0.00001594    0.00000263    0.00001158
     atom   18 type  2   force =    -0.00001598    0.00000220    0.00001174
     atom   19 type  2   force =    -0.00001631    0.00000239    0.00001172
     atom   20 type  2   force =    -0.00001600    0.00000284    0.00001159
     atom   21 type  2   force =    -0.00042314    0.00077082    0.00004472
     atom   22 type  2   force =    -0.00001631    0.00000263    0.00001158
     atom   23 type  2   force =    -0.00001566    0.00000274    0.00001149
     atom   24 type  2   force =    -0.00001606    0.00000244    0.00001165
     atom   25 type  2   force =     0.00019871   -0.00004537    0.00002677
     atom   26 type  2   force =     0.00019750   -0.00004501    0.00002736
     atom   27 type  2   force =     0.00019841   -0.00004539    0.00002728
     atom   28 type  2   force =     0.00019661   -0.00004533    0.00002698
     atom   29 type  2   force =     0.00016881   -0.00006093   -0.00006274
     atom   30 type  2   force =     0.00019850   -0.00004551    0.00002699
     atom   31 type  2   force =     0.00019709   -0.00004507    0.00002710
     atom   32 type  2   force =     0.00019813   -0.00004508    0.00002716
     atom   33 type  2   force =    -0.00037768    0.00510806   -0.00142901
     atom   34 type  2   force =    -0.00008441    0.00015404    0.00008257
     atom   35 type  2   force =    -0.00008497    0.00015425    0.00008251
     atom   36 type  2   force =    -0.00008453    0.00015423    0.00008250
     atom   37 type  2   force =    -0.00008456    0.00015441    0.00008254
     atom   38 type  2   force =    -0.00008433    0.00015411    0.00008245
     atom   39 type  2   force =    -0.00008413    0.00015404    0.00008246
     atom   40 type  2   force =    -0.00008469    0.00015400    0.00008243
     atom   41 type  3   force =     0.00035552   -0.00512300    0.00118806
     atom   42 type  3   force =     0.00002338    0.00004594   -0.00005432
     atom   43 type  3   force =     0.00002337    0.00004617   -0.00005432
     atom   44 type  3   force =     0.00002338    0.00004612   -0.00005431
     atom   45 type  3   force =     0.00002348    0.00004612   -0.00005445
     atom   46 type  3   force =     0.00002341    0.00004605   -0.00005425
     atom   47 type  3   force =     0.00002337    0.00004597   -0.00005427
     atom   48 type  3   force =     0.00002332    0.00004596   -0.00005421
     atom   49 type  2   force =     0.00025870   -0.00001425    0.00021304
     atom   50 type  2   force =     0.00014327   -0.00000579   -0.00000110
     atom   51 type  2   force =     0.00014228   -0.00000527   -0.00000115
     atom   52 type  2   force =     0.00014287   -0.00000562   -0.00000107
     atom   53 type  2   force =     0.00014294   -0.00000566   -0.00000114
     atom   54 type  2   force =     0.00014313   -0.00000575   -0.00000101
     atom   55 type  2   force =     0.00014397   -0.00000604   -0.00000106
     atom   56 type  2   force =     0.00014305   -0.00000550   -0.00000119
     atom   57 type  3   force =     0.00004128   -0.00009351   -0.00006230
     atom   58 type  3   force =     0.00003628   -0.00007024   -0.00004868
     atom   59 type  3   force =     0.00003639   -0.00007021   -0.00004885
     atom   60 type  3   force =     0.00003620   -0.00007014   -0.00004841
     atom   61 type  3   force =     0.00003628   -0.00007021   -0.00004847
     atom   62 type  3   force =     0.00003608   -0.00006976   -0.00004841
     atom   63 type  3   force =     0.00003652   -0.00006976   -0.00004848
     atom   64 type  3   force =     0.00003627   -0.00007004   -0.00004845
     atom   65 type  1   force =     0.00005279    0.00020464    0.00017880
     atom   66 type  1   force =     0.00005298    0.00020392    0.00017746
     atom   67 type  1   force =     0.00005325    0.00020459    0.00017788
     atom   68 type  1   force =     0.00005311    0.00020536    0.00017831
     atom   69 type  1   force =     0.00004923    0.00020763    0.00017903
     atom   70 type  1   force =     0.00005281    0.00020485    0.00017809
     atom   71 type  1   force =     0.00005283    0.00020416    0.00017793
     atom   72 type  1   force =     0.00005243    0.00020400    0.00017752
     atom   73 type  1   force =    -0.00015652    0.00025256    0.00011442
     atom   74 type  1   force =    -0.00015565    0.00025209    0.00011359
     atom   75 type  1   force =    -0.00015640    0.00025260    0.00011309
     atom   76 type  1   force =    -0.00015598    0.00025299    0.00011417
     atom   77 type  1   force =    -0.00013190    0.00024383    0.00012220
     atom   78 type  1   force =    -0.00015624    0.00025309    0.00011388
     atom   79 type  1   force =    -0.00015567    0.00025273    0.00011419
     atom   80 type  1   force =    -0.00015575    0.00025281    0.00011404
     atom   81 type  2   force =    -0.00009950   -0.00007624   -0.00003214
     atom   82 type  2   force =    -0.00009976   -0.00007607   -0.00003208
     atom   83 type  2   force =    -0.00009972   -0.00007619   -0.00003211
     atom   84 type  2   force =    -0.00010012   -0.00007609   -0.00003194
     atom   85 type  2   force =     0.00005790    0.00001995    0.00015080
     atom   86 type  2   force =    -0.00009955   -0.00007595   -0.00003224
     atom   87 type  2   force =    -0.00010009   -0.00007635   -0.00003209
     atom   88 type  2   force =    -0.00009977   -0.00007603   -0.00003215
     atom   89 type  3   force =    -0.00000440   -0.00001958    0.00001427
     atom   90 type  3   force =    -0.00000438   -0.00002020    0.00001380
     atom   91 type  3   force =    -0.00000443   -0.00001995    0.00001373
     atom   92 type  3   force =    -0.00000444   -0.00002002    0.00001388
     atom   93 type  3   force =    -0.00000446   -0.00002001    0.00001383
     atom   94 type  3   force =    -0.00002602    0.00001277    0.00000724
     atom   95 type  3   force =    -0.00000436   -0.00002001    0.00001397
     atom   96 type  3   force =    -0.00000430   -0.00002004    0.00001390
     atom   97 type  1   force =     0.00013213   -0.00020479    0.00002058
     atom   98 type  1   force =     0.00013138   -0.00020411    0.00002169
     atom   99 type  1   force =     0.00013184   -0.00020397    0.00002159
     atom  100 type  1   force =     0.00013129   -0.00020418    0.00002157
     atom  101 type  1   force =     0.00013108   -0.00020355    0.00002202
     atom  102 type  1   force =     0.00012395   -0.00021942   -0.00008526
     atom  103 type  1   force =     0.00013154   -0.00020393    0.00002146
     atom  104 type  1   force =     0.00013204   -0.00020381    0.00002164
     atom  105 type  2   force =    -0.00006224   -0.00003532    0.00007247
     atom  106 type  2   force =    -0.00006562   -0.00004293    0.00007315
     atom  107 type  2   force =    -0.00006537   -0.00004338    0.00007323
     atom  108 type  2   force =    -0.00006556   -0.00004322    0.00007315
     atom  109 type  2   force =    -0.00006537   -0.00004295    0.00007329
     atom  110 type  2   force =    -0.00006555   -0.00004328    0.00007311
     atom  111 type  2   force =    -0.00006513   -0.00004243    0.00007294
     atom  112 type  2   force =    -0.00006542   -0.00004288    0.00007291
     atom  113 type  3   force =    -0.00009160   -0.00003656   -0.00013069
     atom  114 type  3   force =    -0.00006644   -0.00002206   -0.00002944
     atom  115 type  3   force =    -0.00006653   -0.00002178   -0.00002959
     atom  116 type  3   force =    -0.00006652   -0.00002194   -0.00002935
     atom  117 type  3   force =    -0.00006658   -0.00002190   -0.00002939
     atom  118 type  3   force =    -0.00006646   -0.00002200   -0.00002932
     atom  119 type  3   force =    -0.00006625   -0.00002226   -0.00002926
     atom  120 type  3   force =    -0.00006640   -0.00002196   -0.00002935
     atom  121 type  1   force =     0.00001832    0.00024587   -0.00013994
     atom  122 type  1   force =     0.00000237    0.00023912   -0.00013541
     atom  123 type  1   force =     0.00000372    0.00023835   -0.00013458
     atom  124 type  1   force =     0.00000268    0.00023872   -0.00013550
     atom  125 type  1   force =     0.00000215    0.00023803   -0.00013473
     atom  126 type  1   force =     0.00000265    0.00023938   -0.00013524
     atom  127 type  1   force =     0.00000203    0.00023899   -0.00013545
     atom  128 type  1   force =     0.00000239    0.00023919   -0.00013566
     atom  129 type  1   force =     0.00019046    0.00014828   -0.00018753
     atom  130 type  1   force =     0.00019698    0.00013158   -0.00017411
     atom  131 type  1   force =     0.00019644    0.00013131   -0.00017359
     atom  132 type  1   force =     0.00019708    0.00013134   -0.00017403
     atom  133 type  1   force =     0.00019657    0.00013110   -0.00017366
     atom  134 type  1   force =     0.00019723    0.00013309   -0.00017267
     atom  135 type  1   force =     0.00019641    0.00013166   -0.00017429
     atom  136 type  1   force =     0.00019709    0.00013147   -0.00017413
     atom  137 type  2   force =     0.00001483   -0.00000203    0.00001309
     atom  138 type  2   force =     0.00001629   -0.00000241    0.00001158
     atom  139 type  2   force =     0.00001594   -0.00000282    0.00001153
     atom  140 type  2   force =     0.00001643   -0.00000269    0.00001149
     atom  141 type  2   force =     0.00001632   -0.00000276    0.00001158
     atom  142 type  2   force =     0.00001545   -0.00000295    0.00001155
     atom  143 type  2   force =     0.00001424   -0.00000289    0.00001173
     atom  144 type  2   force =     0.00001590   -0.00000259    0.00001161
     atom  145 type  2   force =    -0.00018263    0.00003400    0.00003734
     atom  146 type  2   force =    -0.00019724    0.00004496    0.00002707
     atom  147 type  2   force =    -0.00019850    0.00004606    0.00002642
     atom  148 type  2   force =    -0.00019816    0.00004532    0.00002700
     atom  149 type  2   force =    -0.00019768    0.00004564    0.00002674
     atom  150 type  2   force =    -0.00019928    0.00004539    0.00002719
     atom  151 type  2   force =    -0.00019497    0.00004432    0.00002708
     atom  152 type  2   force =    -0.00019760    0.00004492    0.00002730
     atom  153 type  2   force =     0.00008450   -0.00015399    0.00008259
     atom  154 type  2   force =     0.00008467   -0.00015435    0.00008246
     atom  155 type  2   force =     0.00008475   -0.00015723    0.00008167
     atom  156 type  2   force =     0.00008471   -0.00015426    0.00008246
     atom  157 type  2   force =     0.00008490   -0.00015585    0.00008202
     atom  158 type  2   force =     0.00008450   -0.00015410    0.00008237
     atom  159 type  2   force =     0.00008471   -0.00015380    0.00008265
     atom  160 type  2   force =     0.00008449   -0.00015428    0.00008242
     atom  161 type  3   force =    -0.00002332   -0.00004594   -0.00005451
     atom  162 type  3   force =    -0.00002346   -0.00004608   -0.00005432
     atom  163 type  3   force =    -0.00002317   -0.00004616   -0.00005414
     atom  164 type  3   force =    -0.00002339   -0.00004610   -0.00005432
     atom  165 type  3   force =    -0.00002280   -0.00004661   -0.00005374
     atom  166 type  3   force =    -0.00002334   -0.00004607   -0.00005426
     atom  167 type  3   force =    -0.00002338   -0.00004588   -0.00005437
     atom  168 type  3   force =    -0.00002334   -0.00004602   -0.00005430
     atom  169 type  2   force =    -0.00014382    0.00000578   -0.00000117
     atom  170 type  2   force =    -0.00014286    0.00000541   -0.00000113
     atom  171 type  2   force =    -0.00014326    0.00000574   -0.00000114
     atom  172 type  2   force =    -0.00014253    0.00000586   -0.00000108
     atom  173 type  2   force =    -0.00014248    0.00000581   -0.00000127
     atom  174 type  2   force =    -0.00014206    0.00000546   -0.00000074
     atom  175 type  2   force =    -0.00014259    0.00000544   -0.00000097
     atom  176 type  2   force =    -0.00014365    0.00000544   -0.00000126
     atom  177 type  3   force =    -0.00003657    0.00007169   -0.00004767
     atom  178 type  3   force =    -0.00003625    0.00007008   -0.00004848
     atom  179 type  3   force =    -0.00003636    0.00007016   -0.00004851
     atom  180 type  3   force =    -0.00003627    0.00007015   -0.00004848
     atom  181 type  3   force =    -0.00003616    0.00007008   -0.00004863
     atom  182 type  3   force =    -0.00003589    0.00007017   -0.00004886
     atom  183 type  3   force =    -0.00003618    0.00007027   -0.00004840
     atom  184 type  3   force =    -0.00003620    0.00007007   -0.00004834
     atom  185 type  1   force =    -0.00004568   -0.00020961    0.00017823
     atom  186 type  1   force =    -0.00005299   -0.00020423    0.00017786
     atom  187 type  1   force =    -0.00005245   -0.00020529    0.00017846
     atom  188 type  1   force =    -0.00005284   -0.00020450    0.00017791
     atom  189 type  1   force =    -0.00005363   -0.00020526    0.00017859
     atom  190 type  1   force =    -0.00005136   -0.00020405    0.00017668
     atom  191 type  1   force =    -0.00005294   -0.00020391    0.00017739
     atom  192 type  1   force =    -0.00005268   -0.00020405    0.00017767
     atom  193 type  1   force =     0.00013917   -0.00025423    0.00009306
     atom  194 type  1   force =     0.00015567   -0.00025251    0.00011392
     atom  195 type  1   force =     0.00015677   -0.00025368    0.00011411
     atom  196 type  1   force =     0.00015615   -0.00025257    0.00011374
     atom  197 type  1   force =     0.00015648   -0.00025275    0.00011399
     atom  198 type  1   force =     0.00015639   -0.00025385    0.00011519
     atom  199 type  1   force =     0.00015487   -0.00025256    0.00011412
     atom  200 type  1   force =     0.00015559   -0.00025276    0.00011392
     atom  201 type  2   force =     0.00010059    0.00007605   -0.00003240
     atom  202 type  2   force =     0.00009980    0.00007536   -0.00003209
     atom  203 type  2   force =     0.00009940    0.00007624   -0.00003225
     atom  204 type  2   force =     0.00009865    0.00007611   -0.00003228
     atom  205 type  2   force =     0.00009998    0.00007615   -0.00003203
     atom  206 type  2   force =     0.00010056    0.00007729   -0.00003183
     atom  207 type  2   force =     0.00009919    0.00007648   -0.00003159
     atom  208 type  2   force =     0.00009985    0.00007608   -0.00003210
     atom  209 type  3   force =     0.00000432    0.00002031    0.00001404
     atom  210 type  3   force =     0.00000470    0.00002006    0.00001341
     atom  211 type  3   force =     0.00000434    0.00001990    0.00001367
     atom  212 type  3   force =     0.00000436    0.00002022    0.00001397
     atom  213 type  3   force =     0.00000445    0.00002000    0.00001381
     atom  214 type  3   force =     0.00000406    0.00002086    0.00001352
     atom  215 type  3   force =     0.00000403    0.00002000    0.00001377
     atom  216 type  3   force =     0.00000440    0.00002000    0.00001389
     atom  217 type  1   force =    -0.00013133    0.00020421    0.00002144
     atom  218 type  1   force =    -0.00013116    0.00020449    0.00002243
     atom  219 type  1   force =    -0.00013143    0.00020355    0.00002236
     atom  220 type  1   force =    -0.00013131    0.00020179    0.00002177
     atom  221 type  1   force =    -0.00013141    0.00020351    0.00002159
     atom  222 type  1   force =    -0.00013219    0.00020333    0.00002157
     atom  223 type  1   force =    -0.00013323    0.00020171    0.00002088
     atom  224 type  1   force =    -0.00013178    0.00020414    0.00002151
     atom  225 type  2   force =     0.00018570   -0.00052027    0.00027157
     atom  226 type  2   force =     0.00006519    0.00004330    0.00007319
     atom  227 type  2   force =     0.00006589    0.00004285    0.00007336
     atom  228 type  2   force =     0.00006550    0.00004307    0.00007311
     atom  229 type  2   force =     0.00006555    0.00004314    0.00007315
     atom  230 type  2   force =     0.00006585    0.00004288    0.00007315
     atom  231 type  2   force =     0.00006527    0.00004337    0.00007300
     atom  232 type  2   force =     0.00006554    0.00004294    0.00007308
     atom  233 type  3   force =     0.00006883    0.00001875   -0.00002716
     atom  234 type  3   force =     0.00006655    0.00002189   -0.00002939
     atom  235 type  3   force =     0.00006637    0.00002201   -0.00002949
     atom  236 type  3   force =     0.00006646    0.00002193   -0.00002938
     atom  237 type  3   force =     0.00006642    0.00002198   -0.00002951
     atom  238 type  3   force =     0.00006645    0.00002182   -0.00002936
     atom  239 type  3   force =     0.00006674    0.00002190   -0.00002929
     atom  240 type  3   force =     0.00006651    0.00002205   -0.00002928
     atom  241 type  1   force =    -0.00023846    0.00000152    0.00013479
     atom  242 type  1   force =    -0.00023885    0.00000257    0.00013565
     atom  243 type  1   force =    -0.00023734    0.00000315    0.00013569
     atom  244 type  1   force =    -0.00023888    0.00000245    0.00013547
     atom  245 type  1   force =    -0.00024133    0.00000350    0.00013737
     atom  246 type  1   force =    -0.00023784    0.00000289    0.00013552
     atom  247 type  1   force =    -0.00023904    0.00000231    0.00013554
     atom  248 type  1   force =    -0.00023887    0.00000251    0.00013549
     atom  249 type  1   force =    -0.00013157    0.00019524    0.00017471
     atom  250 type  1   force =    -0.00013121    0.00019726    0.00017415
     atom  251 type  1   force =    -0.00013164    0.00019622    0.00017430
     atom  252 type  1   force =    -0.00013152    0.00019713    0.00017403
     atom  253 type  1   force =    -0.00013454    0.00019838    0.00017600
     atom  254 type  1   force =    -0.00013103    0.00019719    0.00017474
     atom  255 type  1   force =    -0.00013117    0.00019729    0.00017407
     atom  256 type  1   force =    -0.00013133    0.00019705    0.00017414
     atom  257 type  2   force =     0.00000598    0.00001506   -0.00001152
     atom  258 type  2   force =     0.00000247    0.00001619   -0.00001163
     atom  259 type  2   force =     0.00000312    0.00001514   -0.00001154
     atom  260 type  2   force =     0.00000253    0.00001612   -0.00001167
     atom  261 type  2   force =     0.00000222    0.00001532   -0.00001167
     atom  262 type  2   force =     0.00000273    0.00001586   -0.00001164
     atom  263 type  2   force =     0.00000249    0.00001625   -0.00001170
     atom  264 type  2   force =     0.00000262    0.00001621   -0.00001153
     atom  265 type  2   force =    -0.00004410   -0.00019156   -0.00002687
     atom  266 type  2   force =    -0.00004529   -0.00019812   -0.00002715
     atom  267 type  2   force =    -0.00004596   -0.00019796   -0.00002653
     atom  268 type  2   force =    -0.00004498   -0.00019796   -0.00002724
     atom  269 type  2   force =    -0.00004245   -0.00019511   -0.00002850
     atom  270 type  2   force =    -0.00004465   -0.00019694   -0.00002717
     atom  271 type  2   force =    -0.00004497   -0.00019779   -0.00002735
     atom  272 type  2   force =    -0.00004526   -0.00019774   -0.00002708
     atom  273 type  2   force =     0.00015475    0.00009198   -0.00008081
     atom  274 type  2   force =     0.00015415    0.00008454   -0.00008252
     atom  275 type  2   force =     0.00015430    0.00008480   -0.00008246
     atom  276 type  2   force =     0.00015421    0.00008453   -0.00008242
     atom  277 type  2   force =     0.00015481    0.00008503   -0.00008184
     atom  278 type  2   force =     0.00015445    0.00008454   -0.00008240
     atom  279 type  2   force =     0.00015409    0.00008430   -0.00008247
     atom  280 type  2   force =     0.00015417    0.00008475   -0.00008247
     atom  281 type  3   force =     0.00004668   -0.00002300    0.00005354
     atom  282 type  3   force =     0.00004609   -0.00002342    0.00005434
     atom  283 type  3   force =     0.00004611   -0.00002345    0.00005428
     atom  284 type  3   force =     0.00004606   -0.00002334    0.00005424
     atom  285 type  3   force =     0.00004642   -0.00002286    0.00005347
     atom  286 type  3   force =     0.00004608   -0.00002338    0.00005430
     atom  287 type  3   force =     0.00004602   -0.00002339    0.00005428
     atom  288 type  3   force =     0.00004608   -0.00002334    0.00005426
     atom  289 type  2   force =    -0.00000947   -0.00014598    0.00000141
     atom  290 type  2   force =    -0.00000574   -0.00014325    0.00000109
     atom  291 type  2   force =    -0.00000574   -0.00014247    0.00000116
     atom  292 type  2   force =    -0.00000542   -0.00014297    0.00000109
     atom  293 type  2   force =    -0.00000511   -0.00014288    0.00000112
     atom  294 type  2   force =    -0.00000530   -0.00014269    0.00000112
     atom  295 type  2   force =    -0.00000536   -0.00014325    0.00000109
     atom  296 type  2   force =    -0.00000562   -0.00014297    0.00000116
     atom  297 type  3   force =    -0.00007202   -0.00003823    0.00004766
     atom  298 type  3   force =    -0.00007002   -0.00003632    0.00004852
     atom  299 type  3   force =    -0.00006996   -0.00003621    0.00004842
     atom  300 type  3   force =    -0.00007001   -0.00003620    0.00004835
     atom  301 type  3   force =    -0.00007005   -0.00003610    0.00004833
     atom  302 type  3   force =    -0.00007020   -0.00003621    0.00004841
     atom  303 type  3   force =    -0.00007000   -0.00003627    0.00004847
     atom  304 type  3   force =    -0.00007049   -0.00003636    0.00004864
     atom  305 type  1   force =     0.00020400   -0.00005367   -0.00017706
     atom  306 type  1   force =     0.00020421   -0.00005299   -0.00017782
     atom  307 type  1   force =     0.00020521   -0.00005278   -0.00017887
     atom  308 type  1   force =     0.00020433   -0.00005266   -0.00017768
     atom  309 type  1   force =     0.00020073   -0.00005070   -0.00017557
     atom  310 type  1   force =     0.00020505   -0.00005210   -0.00017854
     atom  311 type  1   force =     0.00020439   -0.00005300   -0.00017748
     atom  312 type  1   force =     0.00020418   -0.00005278   -0.00017767
     atom  313 type  1   force =     0.00025265    0.00015412   -0.00011458
     atom  314 type  1   force =     0.00025249    0.00015602   -0.00011361
     atom  315 type  1   force =     0.00025323    0.00015640   -0.00011448
     atom  316 type  1   force =     0.00025274    0.00015579   -0.00011397
     atom  317 type  1   force =     0.00025219    0.00015206   -0.00011445
     atom  318 type  1   force =     0.00025313    0.00015519   -0.00011408
     atom  319 type  1   force =     0.00025264    0.00015591   -0.00011360
     atom  320 type  1   force =     0.00025274    0.00015591   -0.00011378
     atom  321 type  2   force =    -0.00007778    0.00009765    0.00003045
     atom  322 type  2   force =    -0.00007619    0.00009977    0.00003213
     atom  323 type  2   force =    -0.00007759    0.00010142    0.00003153
     atom  324 type  2   force =    -0.00007595    0.00010017    0.00003208
     atom  325 type  2   force =    -0.00007530    0.00009998    0.00003202
     atom  326 type  2   force =    -0.00007632    0.00010026    0.00003199
     atom  327 type  2   force =    -0.00007580    0.00010013    0.00003211
     atom  328 type  2   force =    -0.00007610    0.00009959    0.00003211
     atom  329 type  3   force =    -0.00002014    0.00000396   -0.00001372
     atom  330 type  3   force =    -0.00002003    0.00000441   -0.00001391
     atom  331 type  3   force =    -0.00002070    0.00000389   -0.00001353
     atom  332 type  3   force =    -0.00001998    0.00000439   -0.00001393
     atom  333 type  3   force =    -0.00001997    0.00000438   -0.00001394
     atom  334 type  3   force =    -0.00002009    0.00000436   -0.00001385
     atom  335 type  3   force =    -0.00001991    0.00000449   -0.00001396
     atom  336 type  3   force =    -0.00002005    0.00000441   -0.00001385
     atom  337 type  1   force =    -0.00020400   -0.00012976   -0.00002090
     atom  338 type  1   force =    -0.00020414   -0.00013144   -0.00002156
     atom  339 type  1   force =    -0.00020356   -0.00013267   -0.00002174
     atom  340 type  1   force =    -0.00020364   -0.00013135   -0.00002133
     atom  341 type  1   force =    -0.00020475   -0.00013229   -0.00002136
     atom  342 type  1   force =    -0.00020347   -0.00013190   -0.00002130
     atom  343 type  1   force =    -0.00020374   -0.00013144   -0.00002141
     atom  344 type  1   force =    -0.00020376   -0.00013128   -0.00002195
     atom  345 type  2   force =    -0.00004211    0.00006434   -0.00007306
     atom  346 type  2   force =    -0.00004185    0.00006649   -0.00007318
     atom  347 type  2   force =    -0.00004310    0.00006547   -0.00007301
     atom  348 type  2   force =    -0.00004328    0.00006531   -0.00007304
     atom  349 type  2   force =    -0.00004339    0.00006570   -0.00007313
     atom  350 type  2   force =    -0.00004362    0.00006529   -0.00007306
     atom  351 type  2   force =    -0.00004278    0.00006585   -0.00007312
     atom  352 type  2   force =    -0.00004287    0.00006570   -0.00007313
     atom  353 type  3   force =    -0.00001904    0.00006493    0.00002564
     atom  354 type  3   force =    -0.00002196    0.00006641    0.00002942
     atom  355 type  3   force =    -0.00002188    0.00006644    0.00002931
     atom  356 type  3   force =    -0.00002200    0.00006653    0.00002929
     atom  357 type  3   force =    -0.00002189    0.00006647    0.00002935
     atom  358 type  3   force =    -0.00002187    0.00006658    0.00002932
     atom  359 type  3   force =    -0.00002202    0.00006651    0.00002938
     atom  360 type  3   force =    -0.00002193    0.00006644    0.00002945
     atom  361 type  1   force =     0.00023984   -0.00000261    0.00013560
     atom  362 type  1   force =     0.00023886   -0.00000256    0.00013574
     atom  363 type  1   force =     0.00024844   -0.00000343    0.00013711
     atom  364 type  1   force =     0.00023859   -0.00000250    0.00013523
     atom  365 type  1   force =     0.00023842   -0.00000269    0.00013571
     atom  366 type  1   force =     0.00023905   -0.00000325    0.00013483
     atom  367 type  1   force =     0.00023817   -0.00000333    0.00013534
     atom  368 type  1   force =     0.00023873   -0.00000254    0.00013546
     atom  369 type  1   force =     0.00013675   -0.00019757    0.00017630
     atom  370 type  1   force =     0.00013131   -0.00019668    0.00017411
     atom  371 type  1   force =     0.00013182   -0.00019778    0.00017373
     atom  372 type  1   force =     0.00013143   -0.00019728    0.00017424
     atom  373 type  1   force =     0.00013147   -0.00019720    0.00017443
     atom  374 type  1   force =     0.00013168   -0.00019699    0.00017424
     atom  375 type  1   force =     0.00013138   -0.00019669    0.00017435
     atom  376 type  1   force =     0.00013149   -0.00019648    0.00017379
     atom  377 type  2   force =    -0.00000230   -0.00001690   -0.00001135
     atom  378 type  2   force =    -0.00000296   -0.00001587   -0.00001155
     atom  379 type  2   force =    -0.00000230   -0.00001628   -0.00001169
     atom  380 type  2   force =    -0.00000255   -0.00001627   -0.00001164
     atom  381 type  2   force =    -0.00000271   -0.00001617   -0.00001168
     atom  382 type  2   force =    -0.00000226   -0.00001623   -0.00001153
     atom  383 type  2   force =    -0.00000266   -0.00001588   -0.00001160
     atom  384 type  2   force =    -0.00000240   -0.00001555   -0.00001169
     atom  385 type  2   force =     0.00003115    0.00017997   -0.00003444
     atom  386 type  2   force =     0.00004507    0.00019676   -0.00002692
     atom  387 type  2   force =     0.00004472    0.00019871   -0.00002749
     atom  388 type  2   force =     0.00004515    0.00019821   -0.00002725
     atom  389 type  2   force =     0.00004533    0.00019884   -0.00002734
     atom  390 type  2   force =     0.00004539    0.00019773   -0.00002699
     atom  391 type  2   force =     0.00004555    0.00019725   -0.00002685
     atom  392 type  2   force =     0.00004561    0.00019797   -0.00002667
     atom  393 type  2   force =    -0.00015305   -0.00008489   -0.00008218
     atom  394 type  2   force =    -0.00015432   -0.00008465   -0.00008249
     atom  395 type  2   force =    -0.00015424   -0.00008438   -0.00008245
     atom  396 type  2   force =    -0.00015421   -0.00008455   -0.00008245
     atom  397 type  2   force =    -0.00015419   -0.00008421   -0.00008250
     atom  398 type  2   force =    -0.00015420   -0.00008469   -0.00008257
     atom  399 type  2   force =    -0.00015414   -0.00008468   -0.00008249
     atom  400 type  2   force =    -0.00015367   -0.00008468   -0.00008263
     atom  401 type  3   force =    -0.00004569    0.00002272    0.00005410
     atom  402 type  3   force =    -0.00004576    0.00002285    0.00005435
     atom  403 type  3   force =    -0.00004606    0.00002339    0.00005420
     atom  404 type  3   force =    -0.00004611    0.00002337    0.00005422
     atom  405 type  3   force =    -0.00004590    0.00002349    0.00005427
     atom  406 type  3   force =    -0.00004612    0.00002339    0.00005431
     atom  407 type  3   force =    -0.00004612    0.00002333    0.00005437
     atom  408 type  3   force =    -0.00004593    0.00002340    0.00005436
     atom  409 type  2   force =     0.00000558    0.00014341    0.00000123
     atom  410 type  2   force =     0.00000552    0.00014357    0.00000154
     atom  411 type  2   force =     0.00000575    0.00014319    0.00000101
     atom  412 type  2   force =     0.00000540    0.00014318    0.00000107
     atom  413 type  2   force =     0.00000581    0.00014325    0.00000167
     atom  414 type  2   force =     0.00000569    0.00014301    0.00000098
     atom  415 type  2   force =     0.00000529    0.00014221    0.00000139
     atom  416 type  2   force =     0.00000567    0.00014292    0.00000115
     atom  417 type  3   force =     0.00007030    0.00003637    0.00004836
     atom  418 type  3   force =     0.00006990    0.00003607    0.00004832
     atom  419 type  3   force =     0.00007041    0.00003625    0.00004838
     atom  420 type  3   force =     0.00007008    0.00003627    0.00004844
     atom  421 type  3   force =     0.00006999    0.00003688    0.00004882
     atom  422 type  3   force =     0.00007018    0.00003630    0.00004845
     atom  423 type  3   force =     0.00006906    0.00003593    0.00004853
     atom  424 type  3   force =     0.00007013    0.00003623    0.00004842
     atom  425 type  1   force =    -0.00020219    0.00005057   -0.00016167
     atom  426 type  1   force =    -0.00020444    0.00005306   -0.00017778
     atom  427 type  1   force =    -0.00020375    0.00005245   -0.00017703
     atom  428 type  1   force =    -0.00020418    0.00005264   -0.00017772
     atom  429 type  1   force =    -0.00020514    0.00005263   -0.00017792
     atom  430 type  1   force =    -0.00020434    0.00005325   -0.00017802
     atom  431 type  1   force =    -0.00020439    0.00005317   -0.00017815
     atom  432 type  1   force =    -0.00020456    0.00005271   -0.00017784
     atom  433 type  1   force =    -0.00025814   -0.00013639   -0.00011551
     atom  434 type  1   force =    -0.00025272   -0.00015588   -0.00011384
     atom  435 type  1   force =    -0.00025233   -0.00015598   -0.00011366
     atom  436 type  1   force =    -0.00025256   -0.00015582   -0.00011372
     atom  437 type  1   force =    -0.00025354   -0.00015621   -0.00011336
     atom  438 type  1   force =    -0.00025240   -0.00015592   -0.00011378
     atom  439 type  1   force =    -0.00025261   -0.00015595   -0.00011385
     atom  440 type  1   force =    -0.00025346   -0.00015608   -0.00011406
     atom  441 type  2   force =     0.00007366   -0.00010030    0.00003138
     atom  442 type  2   force =     0.00007614   -0.00009997    0.00003194
     atom  443 type  2   force =     0.00007568   -0.00009975    0.00003225
     atom  444 type  2   force =     0.00007616   -0.00009967    0.00003212
     atom  445 type  2   force =     0.00007636   -0.00009993    0.00003214
     atom  446 type  2   force =     0.00007615   -0.00010000    0.00003212
     atom  447 type  2   force =     0.00007655   -0.00010021    0.00003193
     atom  448 type  2   force =     0.00007589   -0.00010022    0.00003224
     atom  449 type  3   force =     0.00001994   -0.00000443   -0.00001408
     atom  450 type  3   force =     0.00002008   -0.00000439   -0.00001397
     atom  451 type  3   force =     0.00001961   -0.00000468   -0.00001321
     atom  452 type  3   force =     0.00002001   -0.00000434   -0.00001381
     atom  453 type  3   force =     0.00002022   -0.00000435   -0.00001370
     atom  454 type  3   force =     0.00001964   -0.00000430   -0.00001366
     atom  455 type  3   force =     0.00002008   -0.00000434   -0.00001402
     atom  456 type  3   force =     0.00002005   -0.00000438   -0.00001394
     atom  457 type  1   force =     0.00020382    0.00013082   -0.00002144
     atom  458 type  1   force =     0.00020375    0.00013122   -0.00002142
     atom  459 type  1   force =     0.00020483    0.00013405   -0.00002198
     atom  460 type  1   force =     0.00020304    0.00013188   -0.00002142
     atom  461 type  1   force =     0.00020389    0.00013197   -0.00002165
     atom  462 type  1   force =     0.00020406    0.00013222   -0.00002237
     atom  463 type  1   force =     0.00020333    0.00013142   -0.00002121
     atom  464 type  1   force =     0.00020422    0.00013168   -0.00002185
     atom  465 type  2   force =     0.00004327   -0.00006817   -0.00006782
     atom  466 type  2   force =     0.00004318   -0.00006569   -0.00007311
     atom  467 type  2   force =     0.00004295   -0.00006575   -0.00007301
     atom  468 type  2   force =     0.00004311   -0.00006535   -0.00007305
     atom  469 type  2   force =     0.00004150   -0.00006547   -0.00007297
     atom  470 type  2   force =     0.00004314   -0.00006553   -0.00007306
     atom  471 type  2   force =     0.00004335   -0.00006551   -0.00007307
     atom  472 type  2   force =     0.00004296   -0.00006553   -0.00007316
     atom  473 type  3   force =     0.00002224   -0.00006605    0.00002892
     atom  474 type  3   force =     0.00002189   -0.00006609    0.00002943
     atom  475 type  3   force =     0.00002194   -0.00006648    0.00002929
     atom  476 type  3   force =     0.00002205   -0.00006656    0.00002930
     atom  477 type  3   force =     0.00002203   -0.00006615    0.00002950
     atom  478 type  3   force =     0.00002200   -0.00006649    0.00002933
     atom  479 type  3   force =     0.00002200   -0.00006652    0.00002943
     atom  480 type  3   force =     0.00002192   -0.00006643    0.00002938
     atom  481 type  4   force =    -0.00000349    0.00000205   -0.00000030
     atom  482 type  4   force =    -0.00000010   -0.00000085   -0.00000098
     atom  483 type  4   force =    -0.00000741   -0.00000184   -0.00000437
     atom  484 type  4   force =     0.00000016   -0.00000055   -0.00000094
     atom  485 type  4   force =     0.00000229    0.00000043   -0.00000138
     atom  486 type  4   force =    -0.00000649    0.00000732    0.00000009
     atom  487 type  4   force =     0.00000176    0.00000097   -0.00000158
     atom  488 type  4   force =     0.00000033   -0.00000047    0.00000051
     atom  489 type  4   force =     0.00000218    0.00000237   -0.00000242
     atom  490 type  4   force =    -0.00000050    0.00000025    0.00000065
     atom  491 type  4   force =    -0.00000027   -0.00000119    0.00000157
     atom  492 type  4   force =    -0.00000032   -0.00000105    0.00000029
     atom  493 type  4   force =     0.00005210   -0.00002930   -0.00003227
     atom  494 type  4   force =     0.00000026   -0.00000106    0.00000043
     atom  495 type  4   force =    -0.00000060    0.00000121   -0.00000124
     atom  496 type  4   force =     0.00000007    0.00000054    0.00000008
     The non-local contrib.  to forces
     atom    1 type  1   force =     0.42451043   -0.94528398   -0.55500359
     atom    2 type  1   force =     0.42450394   -0.94527193   -0.55499427
     atom    3 type  1   force =     0.42450760   -0.94526615   -0.55499106
     atom    4 type  1   force =     0.42450730   -0.94527696   -0.55499891
     atom    5 type  1   force =     0.42450461   -0.94527345   -0.55499537
     atom    6 type  1   force =     0.42450031   -0.94537740   -0.55500236
     atom    7 type  1   force =     0.42450671   -0.94528023   -0.55499994
     atom    8 type  1   force =     0.42450830   -0.94527562   -0.55499908
     atom    9 type  1   force =    -1.90169720   -0.92018207   -0.83651033
     atom   10 type  1   force =    -1.90169521   -0.92018490   -0.83651173
     atom   11 type  1   force =    -1.90169180   -0.92017972   -0.83650910
     atom   12 type  1   force =    -1.90169148   -0.92017917   -0.83650714
     atom   13 type  1   force =    -1.90172707   -0.92022312   -0.83650952
     atom   14 type  1   force =    -1.90169893   -0.92018336   -0.83651184
     atom   15 type  1   force =    -1.90169729   -0.92018427   -0.83651220
     atom   16 type  1   force =    -1.90170072   -0.92018675   -0.83651324
     atom   17 type  2   force =     0.20916930   -0.04486565    0.00802106
     atom   18 type  2   force =     0.20917355   -0.04486745    0.00801960
     atom   19 type  2   force =     0.20917147   -0.04486521    0.00802016
     atom   20 type  2   force =     0.20917562   -0.04486514    0.00802045
     atom   21 type  2   force =     0.20967726   -0.04336302    0.00852435
     atom   22 type  2   force =     0.20917086   -0.04486439    0.00802099
     atom   23 type  2   force =     0.20917439   -0.04486540    0.00802050
     atom   24 type  2   force =     0.20917185   -0.04486610    0.00802036
     atom   25 type  2   force =     0.18057433   -0.00954232    0.01138329
     atom   26 type  2   force =     0.18057820   -0.00954503    0.01138166
     atom   27 type  2   force =     0.18057592   -0.00954360    0.01138322
     atom   28 type  2   force =     0.18058158   -0.00954165    0.01138437
     atom   29 type  2   force =     0.18060296   -0.00959366    0.01134403
     atom   30 type  2   force =     0.18057532   -0.00954260    0.01138337
     atom   31 type  2   force =     0.18057951   -0.00954379    0.01138278
     atom   32 type  2   force =     0.18057636   -0.00954458    0.01138206
     atom   33 type  2   force =     0.03776542    0.05495552   -0.02256419
     atom   34 type  2   force =     0.03833673    0.04943559   -0.02158962
     atom   35 type  2   force =     0.03834081    0.04943105   -0.02158876
     atom   36 type  2   force =     0.03833846    0.04943219   -0.02158971
     atom   37 type  2   force =     0.03833709    0.04943087   -0.02158905
     atom   38 type  2   force =     0.03833885    0.04943160   -0.02159012
     atom   39 type  2   force =     0.03833623    0.04943555   -0.02159042
     atom   40 type  2   force =     0.03833982    0.04943452   -0.02158982
     atom   41 type  3   force =    -0.02531246    0.07156655   -0.00810687
     atom   42 type  3   force =    -0.02448915    0.07095374   -0.00853848
     atom   43 type  3   force =    -0.02448907    0.07095362   -0.00853846
     atom   44 type  3   force =    -0.02448911    0.07095365   -0.00853848
     atom   45 type  3   force =    -0.02448914    0.07095363   -0.00853844
     atom   46 type  3   force =    -0.02448911    0.07095364   -0.00853850
     atom   47 type  3   force =    -0.02448915    0.07095374   -0.00853851
     atom   48 type  3   force =    -0.02448909    0.07095371   -0.00853850
     atom   49 type  2   force =     0.19577956    0.10374618   -0.02177430
     atom   50 type  2   force =     0.19564293    0.10406903   -0.02183033
     atom   51 type  2   force =     0.19565094    0.10406736   -0.02183020
     atom   52 type  2   force =     0.19564603    0.10406725   -0.02183124
     atom   53 type  2   force =     0.19564437    0.10406730   -0.02183101
     atom   54 type  2   force =     0.19564639    0.10406576   -0.02183145
     atom   55 type  2   force =     0.19563887    0.10406885   -0.02183126
     atom   56 type  2   force =     0.19564739    0.10406796   -0.02183139
     atom   57 type  3   force =     0.07447377   -0.02095047   -0.00102263
     atom   58 type  3   force =     0.07447310   -0.02094773   -0.00102124
     atom   59 type  3   force =     0.07447328   -0.02094777   -0.00102118
     atom   60 type  3   force =     0.07447318   -0.02094778   -0.00102132
     atom   61 type  3   force =     0.07447313   -0.02094777   -0.00102131
     atom   62 type  3   force =     0.07447316   -0.02094785   -0.00102134
     atom   63 type  3   force =     0.07447295   -0.02094783   -0.00102131
     atom   64 type  3   force =     0.07447320   -0.02094779   -0.00102130
     atom   65 type  1   force =     0.46059469    0.90170839    0.60854640
     atom   66 type  1   force =     0.46059729    0.90170536    0.60853865
     atom   67 type  1   force =     0.46059729    0.90171156    0.60854204
     atom   68 type  1   force =     0.46060016    0.90171350    0.60854445
     atom   69 type  1   force =     0.46044083    0.90147986    0.60851945
     atom   70 type  1   force =     0.46059668    0.90171250    0.60854326
     atom   71 type  1   force =     0.46059742    0.90170581    0.60854093
     atom   72 type  1   force =     0.46059523    0.90170573    0.60853918
     atom   73 type  1   force =    -1.81427879    1.18902545    0.50399302
     atom   74 type  1   force =    -1.81427113    1.18901984    0.50398798
     atom   75 type  1   force =    -1.81427822    1.18902716    0.50399043
     atom   76 type  1   force =    -1.81427599    1.18902716    0.50399119
     atom   77 type  1   force =    -1.81433790    1.18901673    0.50399553
     atom   78 type  1   force =    -1.81427622    1.18902516    0.50399023
     atom   79 type  1   force =    -1.81427211    1.18902129    0.50398890
     atom   80 type  1   force =    -1.81427354    1.18902115    0.50398822
     atom   81 type  2   force =    -0.12229042    0.00072166    0.01060975
     atom   82 type  2   force =    -0.12228863    0.00071942    0.01060809
     atom   83 type  2   force =    -0.12229038    0.00072150    0.01060907
     atom   84 type  2   force =    -0.12228688    0.00072249    0.01060900
     atom   85 type  2   force =    -0.12238443    0.00114087    0.01066200
     atom   86 type  2   force =    -0.12229061    0.00072152    0.01060977
     atom   87 type  2   force =    -0.12228604    0.00072336    0.01060857
     atom   88 type  2   force =    -0.12228918    0.00072103    0.01060906
     atom   89 type  3   force =    -0.04392399   -0.06010600    0.00989216
     atom   90 type  3   force =    -0.04392406   -0.06010589    0.00989234
     atom   91 type  3   force =    -0.04392395   -0.06010588    0.00989234
     atom   92 type  3   force =    -0.04392403   -0.06010591    0.00989230
     atom   93 type  3   force =    -0.04392404   -0.06010591    0.00989235
     atom   94 type  3   force =    -0.04392604   -0.06010239    0.00989150
     atom   95 type  3   force =    -0.04392403   -0.06010592    0.00989228
     atom   96 type  3   force =    -0.04392396   -0.06010584    0.00989228
     atom   97 type  1   force =     0.67099877   -1.73658501    0.15449611
     atom   98 type  1   force =     0.67099483   -1.73657648    0.15449913
     atom   99 type  1   force =     0.67099901   -1.73657903    0.15449911
     atom  100 type  1   force =     0.67099389   -1.73657891    0.15449890
     atom  101 type  1   force =     0.67099422   -1.73657547    0.15450077
     atom  102 type  1   force =     0.67090713   -1.73659773    0.15493016
     atom  103 type  1   force =     0.67099650   -1.73657764    0.15449849
     atom  104 type  1   force =     0.67099999   -1.73657599    0.15449934
     atom  105 type  2   force =    -0.02526066    0.04104997   -0.00105460
     atom  106 type  2   force =    -0.02521831    0.04109246   -0.00104283
     atom  107 type  2   force =    -0.02521734    0.04108910   -0.00104210
     atom  108 type  2   force =    -0.02521773    0.04108907   -0.00104313
     atom  109 type  2   force =    -0.02521959    0.04108756   -0.00104099
     atom  110 type  2   force =    -0.02521864    0.04108692   -0.00104417
     atom  111 type  2   force =    -0.02521845    0.04109520   -0.00104385
     atom  112 type  2   force =    -0.02521651    0.04109369   -0.00104299
     atom  113 type  3   force =     0.05070937    0.05410825   -0.00606640
     atom  114 type  3   force =     0.05071359    0.05410627   -0.00605701
     atom  115 type  3   force =     0.05071366    0.05410621   -0.00605696
     atom  116 type  3   force =     0.05071360    0.05410620   -0.00605703
     atom  117 type  3   force =     0.05071356    0.05410615   -0.00605700
     atom  118 type  3   force =     0.05071358    0.05410616   -0.00605704
     atom  119 type  3   force =     0.05071351    0.05410625   -0.00605705
     atom  120 type  3   force =     0.05071365    0.05410628   -0.00605703
     atom  121 type  1   force =    -0.42446622    0.94527737   -0.55499784
     atom  122 type  1   force =    -0.42450886    0.94527806   -0.55499775
     atom  123 type  1   force =    -0.42450022    0.94526565   -0.55498882
     atom  124 type  1   force =    -0.42450675    0.94527611   -0.55499859
     atom  125 type  1   force =    -0.42450818    0.94527030   -0.55499359
     atom  126 type  1   force =    -0.42449916    0.94527020   -0.55499028
     atom  127 type  1   force =    -0.42451177    0.94527412   -0.55499793
     atom  128 type  1   force =    -0.42450777    0.94527917   -0.55500040
     atom  129 type  1   force =     1.90172384    0.92020316   -0.83649972
     atom  130 type  1   force =     1.90169597    0.92018419   -0.83651159
     atom  131 type  1   force =     1.90170163    0.92018212   -0.83651170
     atom  132 type  1   force =     1.90169662    0.92018324   -0.83651103
     atom  133 type  1   force =     1.90169088    0.92017908   -0.83650728
     atom  134 type  1   force =     1.90171322    0.92019683   -0.83651225
     atom  135 type  1   force =     1.90169375    0.92018385   -0.83651066
     atom  136 type  1   force =     1.90169942    0.92018603   -0.83651292
     atom  137 type  2   force =    -0.20916143    0.04486888    0.00801943
     atom  138 type  2   force =    -0.20917361    0.04486793    0.00802134
     atom  139 type  2   force =    -0.20917107    0.04486301    0.00802289
     atom  140 type  2   force =    -0.20917150    0.04486299    0.00802007
     atom  141 type  2   force =    -0.20917390    0.04486395    0.00802112
     atom  142 type  2   force =    -0.20916857    0.04486167    0.00801969
     atom  143 type  2   force =    -0.20918424    0.04486062    0.00801953
     atom  144 type  2   force =    -0.20917273    0.04486637    0.00802025
     atom  145 type  2   force =    -0.18055869    0.00955460    0.01138755
     atom  146 type  2   force =    -0.18057933    0.00954415    0.01138288
     atom  147 type  2   force =    -0.18057506    0.00954134    0.01138423
     atom  148 type  2   force =    -0.18057600    0.00954359    0.01138282
     atom  149 type  2   force =    -0.18057927    0.00954144    0.01138445
     atom  150 type  2   force =    -0.18057216    0.00954336    0.01138244
     atom  151 type  2   force =    -0.18058734    0.00954517    0.01138288
     atom  152 type  2   force =    -0.18057772    0.00954435    0.01138233
     atom  153 type  2   force =    -0.03833781   -0.04943644   -0.02158870
     atom  154 type  2   force =    -0.03833733   -0.04943583   -0.02159031
     atom  155 type  2   force =    -0.03835882   -0.04943079   -0.02158909
     atom  156 type  2   force =    -0.03833927   -0.04943065   -0.02158938
     atom  157 type  2   force =    -0.03834115   -0.04941750   -0.02159129
     atom  158 type  2   force =    -0.03833848   -0.04943049   -0.02158941
     atom  159 type  2   force =    -0.03833771   -0.04943744   -0.02158834
     atom  160 type  2   force =    -0.03833832   -0.04943551   -0.02159018
     atom  161 type  3   force =     0.02448913   -0.07095376   -0.00853843
     atom  162 type  3   force =     0.02448914   -0.07095373   -0.00853849
     atom  163 type  3   force =     0.02448890   -0.07095352   -0.00853852
     atom  164 type  3   force =     0.02448910   -0.07095361   -0.00853846
     atom  165 type  3   force =     0.02448888   -0.07095328   -0.00853858
     atom  166 type  3   force =     0.02448911   -0.07095362   -0.00853848
     atom  167 type  3   force =     0.02448914   -0.07095379   -0.00853847
     atom  168 type  3   force =     0.02448912   -0.07095373   -0.00853850
     atom  169 type  2   force =    -0.19565332   -0.10407962   -0.02183454
     atom  170 type  2   force =    -0.19564743   -0.10406672   -0.02183124
     atom  171 type  2   force =    -0.19564412   -0.10406936   -0.02183088
     atom  172 type  2   force =    -0.19564700   -0.10406987   -0.02183124
     atom  173 type  2   force =    -0.19564781   -0.10406873   -0.02182984
     atom  174 type  2   force =    -0.19564797   -0.10407135   -0.02183101
     atom  175 type  2   force =    -0.19564607   -0.10406517   -0.02183166
     atom  176 type  2   force =    -0.19564273   -0.10406619   -0.02183147
     atom  177 type  3   force =    -0.07447340    0.02094737   -0.00102157
     atom  178 type  3   force =    -0.07447319    0.02094780   -0.00102130
     atom  179 type  3   force =    -0.07447312    0.02094775   -0.00102129
     atom  180 type  3   force =    -0.07447318    0.02094775   -0.00102131
     atom  181 type  3   force =    -0.07447322    0.02094776   -0.00102123
     atom  182 type  3   force =    -0.07447326    0.02094769   -0.00102116
     atom  183 type  3   force =    -0.07447315    0.02094779   -0.00102133
     atom  184 type  3   force =    -0.07447310    0.02094780   -0.00102132
     atom  185 type  1   force =    -0.46046972   -0.90154018    0.60848446
     atom  186 type  1   force =    -0.46059745   -0.90170499    0.60854000
     atom  187 type  1   force =    -0.46059692   -0.90171675    0.60854675
     atom  188 type  1   force =    -0.46059724   -0.90171095    0.60854294
     atom  189 type  1   force =    -0.46060232   -0.90171873    0.60854932
     atom  190 type  1   force =    -0.46059231   -0.90170866    0.60853664
     atom  191 type  1   force =    -0.46059901   -0.90170037    0.60853587
     atom  192 type  1   force =    -0.46059572   -0.90170459    0.60853848
     atom  193 type  1   force =     1.81447666   -1.18917997    0.50396288
     atom  194 type  1   force =     1.81427131   -1.18902064    0.50398847
     atom  195 type  1   force =     1.81427964   -1.18902860    0.50399196
     atom  196 type  1   force =     1.81427494   -1.18902367    0.50398984
     atom  197 type  1   force =     1.81427296   -1.18902563    0.50399087
     atom  198 type  1   force =     1.81427382   -1.18902180    0.50398525
     atom  199 type  1   force =     1.81426892   -1.18901899    0.50398752
     atom  200 type  1   force =     1.81427359   -1.18902155    0.50398832
     atom  201 type  2   force =     0.12229132   -0.00072076    0.01060851
     atom  202 type  2   force =     0.12229114   -0.00071717    0.01061095
     atom  203 type  2   force =     0.12228841   -0.00072270    0.01061115
     atom  204 type  2   force =     0.12229041   -0.00072326    0.01060821
     atom  205 type  2   force =     0.12228841   -0.00072341    0.01060916
     atom  206 type  2   force =     0.12228456   -0.00073165    0.01060846
     atom  207 type  2   force =     0.12228043   -0.00072617    0.01060783
     atom  208 type  2   force =     0.12228847   -0.00072110    0.01060900
     atom  209 type  3   force =     0.04392407    0.06010589    0.00989225
     atom  210 type  3   force =     0.04392402    0.06010601    0.00989249
     atom  211 type  3   force =     0.04392401    0.06010588    0.00989240
     atom  212 type  3   force =     0.04392406    0.06010586    0.00989229
     atom  213 type  3   force =     0.04392398    0.06010586    0.00989232
     atom  214 type  3   force =     0.04392396    0.06010554    0.00989235
     atom  215 type  3   force =     0.04392386    0.06010574    0.00989226
     atom  216 type  3   force =     0.04392401    0.06010591    0.00989230
     atom  217 type  1   force =    -0.67099472    1.73657728    0.15449813
     atom  218 type  1   force =    -0.67099589    1.73658502    0.15450210
     atom  219 type  1   force =    -0.67099806    1.73657628    0.15450331
     atom  220 type  1   force =    -0.67098916    1.73655116    0.15449588
     atom  221 type  1   force =    -0.67099582    1.73657479    0.15449924
     atom  222 type  1   force =    -0.67099777    1.73656858    0.15449814
     atom  223 type  1   force =    -0.67100169    1.73656010    0.15449622
     atom  224 type  1   force =    -0.67099791    1.73657956    0.15449904
     atom  225 type  2   force =     0.02624429   -0.04165850   -0.00036040
     atom  226 type  2   force =     0.02521688   -0.04108927   -0.00104225
     atom  227 type  2   force =     0.02522026   -0.04109144   -0.00104131
     atom  228 type  2   force =     0.02521775   -0.04109173   -0.00104309
     atom  229 type  2   force =     0.02521575   -0.04109316   -0.00104234
     atom  230 type  2   force =     0.02521746   -0.04109372   -0.00104356
     atom  231 type  2   force =     0.02521523   -0.04109069   -0.00104355
     atom  232 type  2   force =     0.02521976   -0.04108969   -0.00104331
     atom  233 type  3   force =    -0.05071575   -0.05410723   -0.00605778
     atom  234 type  3   force =    -0.05071362   -0.05410619   -0.00605701
     atom  235 type  3   force =    -0.05071359   -0.05410628   -0.00605699
     atom  236 type  3   force =    -0.05071362   -0.05410627   -0.00605703
     atom  237 type  3   force =    -0.05071367   -0.05410633   -0.00605699
     atom  238 type  3   force =    -0.05071365   -0.05410631   -0.00605703
     atom  239 type  3   force =    -0.05071361   -0.05410614   -0.00605705
     atom  240 type  3   force =    -0.05071355   -0.05410616   -0.00605703
     atom  241 type  1   force =    -0.94526588   -0.42451693    0.55499551
     atom  242 type  1   force =    -0.94527892   -0.42450785    0.55500079
     atom  243 type  1   force =    -0.94525899   -0.42450154    0.55499226
     atom  244 type  1   force =    -0.94527807   -0.42450711    0.55499923
     atom  245 type  1   force =    -0.94529449   -0.42450838    0.55501115
     atom  246 type  1   force =    -0.94526590   -0.42450174    0.55499592
     atom  247 type  1   force =    -0.94528089   -0.42450913    0.55500120
     atom  248 type  1   force =    -0.94527661   -0.42450726    0.55499898
     atom  249 type  1   force =    -0.92018078    1.90168702    0.83650778
     atom  250 type  1   force =    -0.92018384    1.90169678    0.83651191
     atom  251 type  1   force =    -0.92018104    1.90169892    0.83651030
     atom  252 type  1   force =    -0.92018520    1.90169911    0.83651241
     atom  253 type  1   force =    -0.92019583    1.90170838    0.83651977
     atom  254 type  1   force =    -0.92018490    1.90170367    0.83651396
     atom  255 type  1   force =    -0.92018467    1.90169688    0.83651178
     atom  256 type  1   force =    -0.92018412    1.90169732    0.83651198
     atom  257 type  2   force =    -0.04485999   -0.20919152   -0.00801662
     atom  258 type  2   force =    -0.04486584   -0.20917197   -0.00802035
     atom  259 type  2   force =    -0.04486111   -0.20917115   -0.00802007
     atom  260 type  2   force =    -0.04486576   -0.20917232   -0.00801985
     atom  261 type  2   force =    -0.04487077   -0.20917611   -0.00801837
     atom  262 type  2   force =    -0.04486504   -0.20917187   -0.00801980
     atom  263 type  2   force =    -0.04486622   -0.20917319   -0.00801996
     atom  264 type  2   force =    -0.04486516   -0.20917279   -0.00802037
     atom  265 type  2   force =    -0.00954511   -0.18059728   -0.01138388
     atom  266 type  2   force =    -0.00954407   -0.18057665   -0.01138251
     atom  267 type  2   force =    -0.00954148   -0.18057573   -0.01138452
     atom  268 type  2   force =    -0.00954375   -0.18057700   -0.01138242
     atom  269 type  2   force =    -0.00955172   -0.18058184   -0.01137724
     atom  270 type  2   force =    -0.00954253   -0.18057661   -0.01138385
     atom  271 type  2   force =    -0.00954429   -0.18057820   -0.01138260
     atom  272 type  2   force =    -0.00954406   -0.18057761   -0.01138268
     atom  273 type  2   force =     0.04942663   -0.03835585    0.02159720
     atom  274 type  2   force =     0.04943315   -0.03833741    0.02158972
     atom  275 type  2   force =     0.04943612   -0.03833896    0.02159023
     atom  276 type  2   force =     0.04943289   -0.03833873    0.02159029
     atom  277 type  2   force =     0.04942164   -0.03834627    0.02159162
     atom  278 type  2   force =     0.04943236   -0.03833898    0.02159006
     atom  279 type  2   force =     0.04943350   -0.03833792    0.02158996
     atom  280 type  2   force =     0.04943386   -0.03833843    0.02158972
     atom  281 type  3   force =     0.07095340    0.02448880    0.00853865
     atom  282 type  3   force =     0.07095368    0.02448914    0.00853848
     atom  283 type  3   force =     0.07095373    0.02448912    0.00853850
     atom  284 type  3   force =     0.07095367    0.02448910    0.00853850
     atom  285 type  3   force =     0.07095338    0.02448887    0.00853867
     atom  286 type  3   force =     0.07095366    0.02448910    0.00853848
     atom  287 type  3   force =     0.07095369    0.02448913    0.00853849
     atom  288 type  3   force =     0.07095369    0.02448912    0.00853850
     atom  289 type  2   force =     0.10408538   -0.19563866    0.02185058
     atom  290 type  2   force =     0.10406760   -0.19564337    0.02183101
     atom  291 type  2   force =     0.10406929   -0.19564985    0.02183191
     atom  292 type  2   force =     0.10406754   -0.19564653    0.02183156
     atom  293 type  2   force =     0.10406473   -0.19565186    0.02183232
     atom  294 type  2   force =     0.10406774   -0.19564840    0.02183148
     atom  295 type  2   force =     0.10406730   -0.19564509    0.02183126
     atom  296 type  2   force =     0.10406891   -0.19564435    0.02183073
     atom  297 type  3   force =    -0.02094730   -0.07447289    0.00102167
     atom  298 type  3   force =    -0.02094779   -0.07447310    0.00102129
     atom  299 type  3   force =    -0.02094778   -0.07447324    0.00102133
     atom  300 type  3   force =    -0.02094779   -0.07447318    0.00102135
     atom  301 type  3   force =    -0.02094783   -0.07447331    0.00102133
     atom  302 type  3   force =    -0.02094776   -0.07447323    0.00102134
     atom  303 type  3   force =    -0.02094780   -0.07447314    0.00102131
     atom  304 type  3   force =    -0.02094771   -0.07447316    0.00102124
     atom  305 type  1   force =     0.90169646   -0.46060427   -0.60853354
     atom  306 type  1   force =     0.90170951   -0.46059770   -0.60854206
     atom  307 type  1   force =     0.90171345   -0.46059626   -0.60854737
     atom  308 type  1   force =     0.90170665   -0.46059562   -0.60853950
     atom  309 type  1   force =     0.90165098   -0.46057473   -0.60850428
     atom  310 type  1   force =     0.90170691   -0.46059184   -0.60854145
     atom  311 type  1   force =     0.90170809   -0.46059771   -0.60853895
     atom  312 type  1   force =     0.90170816   -0.46059706   -0.60854070
     atom  313 type  1   force =     1.18901712    1.81426304   -0.50398584
     atom  314 type  1   force =     1.18902156    1.81427236   -0.50398867
     atom  315 type  1   force =     1.18902780    1.81427975   -0.50399357
     atom  316 type  1   force =     1.18902234    1.81427466   -0.50398905
     atom  317 type  1   force =     1.18901911    1.81428759   -0.50398743
     atom  318 type  1   force =     1.18903014    1.81428468   -0.50399382
     atom  319 type  1   force =     1.18902102    1.81427161   -0.50398764
     atom  320 type  1   force =     1.18902191    1.81427298   -0.50398857
     atom  321 type  2   force =     0.00073403    0.12227628   -0.01060363
     atom  322 type  2   force =     0.00072151    0.12228932   -0.01060895
     atom  323 type  2   force =     0.00073429    0.12228120   -0.01060791
     atom  324 type  2   force =     0.00072152    0.12228902   -0.01060888
     atom  325 type  2   force =     0.00071602    0.12228773   -0.01060862
     atom  326 type  2   force =     0.00072378    0.12228753   -0.01060864
     atom  327 type  2   force =     0.00072059    0.12228954   -0.01060885
     atom  328 type  2   force =     0.00072191    0.12228907   -0.01060899
     atom  329 type  3   force =    -0.06010548    0.04392371   -0.00989222
     atom  330 type  3   force =    -0.06010590    0.04392402   -0.00989229
     atom  331 type  3   force =    -0.06010543    0.04392388   -0.00989232
     atom  332 type  3   force =    -0.06010590    0.04392401   -0.00989228
     atom  333 type  3   force =    -0.06010603    0.04392402   -0.00989228
     atom  334 type  3   force =    -0.06010583    0.04392397   -0.00989230
     atom  335 type  3   force =    -0.06010594    0.04392401   -0.00989228
     atom  336 type  3   force =    -0.06010589    0.04392401   -0.00989232
     atom  337 type  1   force =    -1.73653648   -0.67099178   -0.15448881
     atom  338 type  1   force =    -1.73657808   -0.67099570   -0.15449884
     atom  339 type  1   force =    -1.73657392   -0.67100238   -0.15449707
     atom  340 type  1   force =    -1.73657799   -0.67099661   -0.15449811
     atom  341 type  1   force =    -1.73658648   -0.67100168   -0.15449807
     atom  342 type  1   force =    -1.73657528   -0.67099741   -0.15449783
     atom  343 type  1   force =    -1.73657973   -0.67099614   -0.15449843
     atom  344 type  1   force =    -1.73657340   -0.67099509   -0.15449962
     atom  345 type  2   force =     0.04107929    0.02522715    0.00104506
     atom  346 type  2   force =     0.04108843    0.02522824    0.00104136
     atom  347 type  2   force =     0.04109088    0.02521673    0.00104384
     atom  348 type  2   force =     0.04109246    0.02521629    0.00104355
     atom  349 type  2   force =     0.04109346    0.02521454    0.00104053
     atom  350 type  2   force =     0.04109006    0.02521587    0.00104361
     atom  351 type  2   force =     0.04109154    0.02522132    0.00104130
     atom  352 type  2   force =     0.04109017    0.02521909    0.00104293
     atom  353 type  3   force =     0.05410609   -0.05071378    0.00605797
     atom  354 type  3   force =     0.05410617   -0.05071354    0.00605700
     atom  355 type  3   force =     0.05410628   -0.05071366    0.00605705
     atom  356 type  3   force =     0.05410625   -0.05071362    0.00605705
     atom  357 type  3   force =     0.05410630   -0.05071376    0.00605705
     atom  358 type  3   force =     0.05410623   -0.05071364    0.00605704
     atom  359 type  3   force =     0.05410619   -0.05071357    0.00605702
     atom  360 type  3   force =     0.05410623   -0.05071361    0.00605700
     atom  361 type  1   force =     0.94528744    0.42450745    0.55500185
     atom  362 type  1   force =     0.94527829    0.42450715    0.55500115
     atom  363 type  1   force =     0.94533381    0.42452458    0.55503464
     atom  364 type  1   force =     0.94527441    0.42450820    0.55499700
     atom  365 type  1   force =     0.94527145    0.42450657    0.55499809
     atom  366 type  1   force =     0.94527292    0.42450317    0.55499271
     atom  367 type  1   force =     0.94527201    0.42450260    0.55499738
     atom  368 type  1   force =     0.94527599    0.42450770    0.55499816
     atom  369 type  1   force =     0.92022319   -1.90172799    0.83652724
     atom  370 type  1   force =     0.92018333   -1.90169639    0.83651083
     atom  371 type  1   force =     0.92018902   -1.90170230    0.83651384
     atom  372 type  1   force =     0.92018464   -1.90169795    0.83651237
     atom  373 type  1   force =     0.92018258   -1.90170000    0.83651148
     atom  374 type  1   force =     0.92018293   -1.90169523    0.83651098
     atom  375 type  1   force =     0.92018308   -1.90169729    0.83651199
     atom  376 type  1   force =     0.92018455   -1.90170195    0.83651321
     atom  377 type  2   force =     0.04487211    0.20920405   -0.00802149
     atom  378 type  2   force =     0.04486327    0.20917674   -0.00802063
     atom  379 type  2   force =     0.04486678    0.20917047   -0.00801984
     atom  380 type  2   force =     0.04486530    0.20917147   -0.00801960
     atom  381 type  2   force =     0.04486380    0.20916915   -0.00801946
     atom  382 type  2   force =     0.04486563    0.20917252   -0.00802062
     atom  383 type  2   force =     0.04486449    0.20917362   -0.00802051
     atom  384 type  2   force =     0.04486603    0.20917340   -0.00802366
     atom  385 type  2   force =     0.00956443    0.18061053   -0.01137323
     atom  386 type  2   force =     0.00954359    0.18058104   -0.01138342
     atom  387 type  2   force =     0.00954507    0.18057488   -0.01138115
     atom  388 type  2   force =     0.00954409    0.18057601   -0.01138235
     atom  389 type  2   force =     0.00954260    0.18057307   -0.01138351
     atom  390 type  2   force =     0.00954363    0.18057732   -0.01138277
     atom  391 type  2   force =     0.00954348    0.18057832   -0.01138325
     atom  392 type  2   force =     0.00954305    0.18057723   -0.01138348
     atom  393 type  2   force =    -0.04943573    0.03835054    0.02158537
     atom  394 type  2   force =    -0.04943606    0.03834299    0.02158910
     atom  395 type  2   force =    -0.04943163    0.03833728    0.02159055
     atom  396 type  2   force =    -0.04943349    0.03833758    0.02159060
     atom  397 type  2   force =    -0.04943600    0.03833581    0.02159088
     atom  398 type  2   force =    -0.04943302    0.03833744    0.02158896
     atom  399 type  2   force =    -0.04943390    0.03833938    0.02158929
     atom  400 type  2   force =    -0.04943406    0.03834005    0.02158778
     atom  401 type  3   force =    -0.07095374   -0.02448886    0.00853849
     atom  402 type  3   force =    -0.07095376   -0.02448897    0.00853847
     atom  403 type  3   force =    -0.07095365   -0.02448913    0.00853851
     atom  404 type  3   force =    -0.07095368   -0.02448913    0.00853852
     atom  405 type  3   force =    -0.07095376   -0.02448918    0.00853851
     atom  406 type  3   force =    -0.07095367   -0.02448913    0.00853848
     atom  407 type  3   force =    -0.07095369   -0.02448910    0.00853847
     atom  408 type  3   force =    -0.07095370   -0.02448909    0.00853846
     atom  409 type  2   force =    -0.10407188    0.19564748    0.02183173
     atom  410 type  2   force =    -0.10406594    0.19565318    0.02183188
     atom  411 type  2   force =    -0.10406868    0.19564328    0.02183150
     atom  412 type  2   force =    -0.10406704    0.19564389    0.02183125
     atom  413 type  2   force =    -0.10406921    0.19563982    0.02183006
     atom  414 type  2   force =    -0.10406902    0.19564395    0.02183113
     atom  415 type  2   force =    -0.10406433    0.19565462    0.02183036
     atom  416 type  2   force =    -0.10406831    0.19564725    0.02183141
     atom  417 type  3   force =     0.02094771    0.07447321    0.00102135
     atom  418 type  3   force =     0.02094784    0.07447338    0.00102125
     atom  419 type  3   force =     0.02094772    0.07447312    0.00102134
     atom  420 type  3   force =     0.02094779    0.07447312    0.00102133
     atom  421 type  3   force =     0.02094781    0.07447295    0.00102114
     atom  422 type  3   force =     0.02094775    0.07447312    0.00102134
     atom  423 type  3   force =     0.02094795    0.07447332    0.00102126
     atom  424 type  3   force =     0.02094777    0.07447320    0.00102131
     atom  425 type  1   force =    -0.90167155    0.46058128   -0.60837887
     atom  426 type  1   force =    -0.90170875    0.46059870   -0.60854189
     atom  427 type  1   force =    -0.90170267    0.46059365   -0.60853533
     atom  428 type  1   force =    -0.90170732    0.46059562   -0.60854006
     atom  429 type  1   force =    -0.90171245    0.46059368   -0.60854020
     atom  430 type  1   force =    -0.90170960    0.46059801   -0.60854277
     atom  431 type  1   force =    -0.90171010    0.46059825   -0.60854341
     atom  432 type  1   force =    -0.90170993    0.46059646   -0.60854169
     atom  433 type  1   force =    -1.18902531   -1.81428619   -0.50396205
     atom  434 type  1   force =    -1.18902285   -1.81427293   -0.50398906
     atom  435 type  1   force =    -1.18901907   -1.81427261   -0.50398652
     atom  436 type  1   force =    -1.18902215   -1.81427449   -0.50398907
     atom  437 type  1   force =    -1.18903065   -1.81428389   -0.50399123
     atom  438 type  1   force =    -1.18902240   -1.81427272   -0.50398942
     atom  439 type  1   force =    -1.18902283   -1.81427296   -0.50398960
     atom  440 type  1   force =    -1.18902400   -1.81427531   -0.50398941
     atom  441 type  2   force =    -0.00071101   -0.12228308   -0.01061072
     atom  442 type  2   force =    -0.00072411   -0.12228601   -0.01060868
     atom  443 type  2   force =    -0.00071872   -0.12229189   -0.01060908
     atom  444 type  2   force =    -0.00072207   -0.12228989   -0.01060856
     atom  445 type  2   force =    -0.00072403   -0.12228983   -0.01060852
     atom  446 type  2   force =    -0.00072266   -0.12228902   -0.01060875
     atom  447 type  2   force =    -0.00072495   -0.12228597   -0.01060886
     atom  448 type  2   force =    -0.00071987   -0.12228602   -0.01061200
     atom  449 type  3   force =     0.06010599   -0.04392409   -0.00989227
     atom  450 type  3   force =     0.06010589   -0.04392403   -0.00989227
     atom  451 type  3   force =     0.06010618   -0.04392389   -0.00989246
     atom  452 type  3   force =     0.06010582   -0.04392394   -0.00989229
     atom  453 type  3   force =     0.06010579   -0.04392394   -0.00989233
     atom  454 type  3   force =     0.06010595   -0.04392397   -0.00989240
     atom  455 type  3   force =     0.06010584   -0.04392403   -0.00989225
     atom  456 type  3   force =     0.06010587   -0.04392401   -0.00989229
     atom  457 type  1   force =     1.73657879    0.67099398   -0.15449832
     atom  458 type  1   force =     1.73657349    0.67099397   -0.15449766
     atom  459 type  1   force =     1.73659297    0.67100706   -0.15450284
     atom  460 type  1   force =     1.73657168    0.67099792   -0.15449848
     atom  461 type  1   force =     1.73657596    0.67099864   -0.15449916
     atom  462 type  1   force =     1.73659106    0.67100548   -0.15450543
     atom  463 type  1   force =     1.73657264    0.67099396   -0.15449753
     atom  464 type  1   force =     1.73657506    0.67099468   -0.15450036
     atom  465 type  2   force =    -0.04108599   -0.02523097    0.00108179
     atom  466 type  2   force =    -0.04109285   -0.02521581    0.00104259
     atom  467 type  2   force =    -0.04108900   -0.02521954    0.00104395
     atom  468 type  2   force =    -0.04109058   -0.02521851    0.00104386
     atom  469 type  2   force =    -0.04109125   -0.02522567    0.00104485
     atom  470 type  2   force =    -0.04109077   -0.02521887    0.00104356
     atom  471 type  2   force =    -0.04109213   -0.02521686    0.00104309
     atom  472 type  2   force =    -0.04109025   -0.02521789    0.00104237
     atom  473 type  3   force =    -0.05410665    0.05071383    0.00605718
     atom  474 type  3   force =    -0.05410633    0.05071377    0.00605700
     atom  475 type  3   force =    -0.05410621    0.05071358    0.00605705
     atom  476 type  3   force =    -0.05410618    0.05071356    0.00605704
     atom  477 type  3   force =    -0.05410616    0.05071346    0.00605695
     atom  478 type  3   force =    -0.05410624    0.05071358    0.00605704
     atom  479 type  3   force =    -0.05410625    0.05071367    0.00605701
     atom  480 type  3   force =    -0.05410625    0.05071363    0.00605702
     atom  481 type  4   force =     0.00002488   -0.00001695   -0.00000932
     atom  482 type  4   force =    -0.00000271    0.00000629    0.00001117
     atom  483 type  4   force =     0.00008148    0.00001427    0.00005029
     atom  484 type  4   force =    -0.00000391   -0.00000054   -0.00000299
     atom  485 type  4   force =    -0.00002529   -0.00000652    0.00001943
     atom  486 type  4   force =     0.00004110   -0.00008542   -0.00003632
     atom  487 type  4   force =    -0.00001129   -0.00000935    0.00000219
     atom  488 type  4   force =    -0.00000058    0.00000371   -0.00000174
     atom  489 type  4   force =    -0.00002218   -0.00001395    0.00002494
     atom  490 type  4   force =     0.00000015   -0.00000048   -0.00000704
     atom  491 type  4   force =     0.00000280    0.00001463   -0.00001359
     atom  492 type  4   force =    -0.00000211    0.00001050    0.00000168
     atom  493 type  4   force =    -0.00025937    0.00023764    0.00012878
     atom  494 type  4   force =    -0.00000236    0.00001038    0.00000116
     atom  495 type  4   force =     0.00000572   -0.00001399    0.00001289
     atom  496 type  4   force =     0.00000049   -0.00000716    0.00000228
     The ionic contribution  to forces
     atom    1 type  1   force =    -0.12040764   -1.15058010   -2.54593905
     atom    2 type  1   force =    -0.12032953   -1.15058975   -2.54607835
     atom    3 type  1   force =    -0.12041784   -1.15067642   -2.54597504
     atom    4 type  1   force =    -0.12032208   -1.15066539   -2.54594004
     atom    5 type  1   force =    -0.12033537   -1.15064603   -2.54598283
     atom    6 type  1   force =    -0.11998360   -1.15023023   -2.54554063
     atom    7 type  1   force =    -0.12033557   -1.15059514   -2.54597188
     atom    8 type  1   force =    -0.12038698   -1.15059542   -2.54598204
     atom    9 type  1   force =    14.27346508    1.63978687    2.01246084
     atom   10 type  1   force =    14.27343099    1.63976969    2.01259245
     atom   11 type  1   force =    14.27351447    1.63966523    2.01263098
     atom   12 type  1   force =    14.27341478    1.63968003    2.01255040
     atom   13 type  1   force =    14.27379527    1.63988481    2.01281183
     atom   14 type  1   force =    14.27347226    1.63972591    2.01257263
     atom   15 type  1   force =    14.27344548    1.63978447    2.01254882
     atom   16 type  1   force =    14.27348313    1.63978452    2.01257609
     atom   17 type  2   force =    -2.68730757   -1.12161520   -0.87826487
     atom   18 type  2   force =    -2.68738320   -1.12160140   -0.87816508
     atom   19 type  2   force =    -2.68732351   -1.12166539   -0.87817823
     atom   20 type  2   force =    -2.68737906   -1.12166776   -0.87817333
     atom   21 type  2   force =    -2.68740794   -1.11825514   -0.87707074
     atom   22 type  2   force =    -2.68733733   -1.12168667   -0.87821534
     atom   23 type  2   force =    -2.68739928   -1.12164137   -0.87820463
     atom   24 type  2   force =    -2.68735044   -1.12164717   -0.87819880
     atom   25 type  2   force =    -5.25566241   -0.26027718   -0.96595192
     atom   26 type  2   force =    -5.25572941   -0.26028321   -0.96584146
     atom   27 type  2   force =    -5.25566845   -0.26034417   -0.96584146
     atom   28 type  2   force =    -5.25572947   -0.26034422   -0.96585184
     atom   29 type  2   force =    -5.25449101   -0.25910568   -0.96521283
     atom   30 type  2   force =    -5.25568772   -0.26034820   -0.96587638
     atom   31 type  2   force =    -5.25573344   -0.26030248   -0.96587638
     atom   32 type  2   force =    -5.25569317   -0.26030793   -0.96586774
     atom   33 type  2   force =    -3.29472304   -5.21873782    2.51241122
     atom   34 type  2   force =    -3.27857155   -5.22874083    2.50205003
     atom   35 type  2   force =    -3.27863485   -5.22868212    2.50205244
     atom   36 type  2   force =    -3.27858482   -5.22869375    2.50206233
     atom   37 type  2   force =    -3.27854257   -5.22865403    2.50200986
     atom   38 type  2   force =    -3.27860467   -5.22865095    2.50209031
     atom   39 type  2   force =    -3.27854619   -5.22871051    2.50208724
     atom   40 type  2   force =    -3.27860379   -5.22871080    2.50209657
     atom   41 type  3   force =    -0.73136447   -2.15826974    1.25421283
     atom   42 type  3   force =    -0.74072490   -2.14441530    1.26069712
     atom   43 type  3   force =    -0.74074003   -2.14440017    1.26069712
     atom   44 type  3   force =    -0.74072798   -2.14440325    1.26069919
     atom   45 type  3   force =    -0.74071746   -2.14439273    1.26068599
     atom   46 type  3   force =    -0.74073282   -2.14439357    1.26070578
     atom   47 type  3   force =    -0.74071830   -2.14440809    1.26070578
     atom   48 type  3   force =    -0.74073259   -2.14440786    1.26070824
     atom   49 type  2   force =    -6.17674934   -1.54859798    0.63371803
     atom   50 type  2   force =    -6.17630268   -1.54850309    0.63327689
     atom   51 type  2   force =    -6.17637815   -1.54844496    0.63327917
     atom   52 type  2   force =    -6.17631762   -1.54845765    0.63332126
     atom   53 type  2   force =    -6.17628328   -1.54842791    0.63328133
     atom   54 type  2   force =    -6.17631971   -1.54838848    0.63335324
     atom   55 type  2   force =    -6.17625941   -1.54845281    0.63334204
     atom   56 type  2   force =    -6.17633000   -1.54846364    0.63334191
     atom   57 type  3   force =    -1.97456376    0.04598091    0.18336044
     atom   58 type  3   force =    -1.97452803    0.04600474    0.18329805
     atom   59 type  3   force =    -1.97454387    0.04602090    0.18329408
     atom   60 type  3   force =    -1.97453025    0.04601673    0.18331258
     atom   61 type  3   force =    -1.97452327    0.04602380    0.18330392
     atom   62 type  3   force =    -1.97452621    0.04603359    0.18331862
     atom   63 type  3   force =    -1.97450894    0.04602162    0.18331880
     atom   64 type  3   force =    -1.97453104    0.04601588    0.18331546
     atom   65 type  1   force =    -0.87355374    0.57404605    1.98634302
     atom   66 type  1   force =    -0.87361035    0.57400602    1.98647219
     atom   67 type  1   force =    -0.87353761    0.57393060    1.98650191
     atom   68 type  1   force =    -0.87361324    0.57394219    1.98646912
     atom   69 type  1   force =    -0.87168855    0.57428514    1.98666114
     atom   70 type  1   force =    -0.87358658    0.57392623    1.98644818
     atom   71 type  1   force =    -0.87362529    0.57399631    1.98642942
     atom   72 type  1   force =    -0.87358759    0.57398512    1.98645206
     atom   73 type  1   force =    14.19225763   -5.31463187    0.05303146
     atom   74 type  1   force =    14.19223592   -5.31467418    0.05315820
     atom   75 type  1   force =    14.19232787   -5.31477829    0.05322571
     atom   76 type  1   force =    14.19222797   -5.31474274    0.05314381
     atom   77 type  1   force =    14.19283735   -5.31465065    0.05335814
     atom   78 type  1   force =    14.19225212   -5.31473270    0.05314742
     atom   79 type  1   force =    14.19223391   -5.31466202    0.05311040
     atom   80 type  1   force =    14.19225934   -5.31467286    0.05314852
     atom   81 type  2   force =    -0.21532212    2.77184515   -3.53168996
     atom   82 type  2   force =    -0.21541160    2.77190483   -3.53157073
     atom   83 type  2   force =    -0.21534586    2.77182150   -3.53161347
     atom   84 type  2   force =    -0.21539986    2.77181574   -3.53160975
     atom   85 type  2   force =    -0.21568427    2.77255876   -3.53132026
     atom   86 type  2   force =    -0.21534785    2.77180051   -3.53165944
     atom   87 type  2   force =    -0.21542063    2.77182758   -3.53163107
     atom   88 type  2   force =    -0.21536495    2.77182802   -3.53162473
     atom   89 type  3   force =     0.26881763    1.65184912   -1.78764801
     atom   90 type  3   force =     0.26884880    1.65182904   -1.78768870
     atom   91 type  3   force =     0.26882642    1.65182590   -1.78766796
     atom   92 type  3   force =     0.26883942    1.65182730   -1.78766676
     atom   93 type  3   force =     0.26884192    1.65182575   -1.78767723
     atom   94 type  3   force =     0.26881960    1.65193438   -1.78763553
     atom   95 type  3   force =     0.26883886    1.65182934   -1.78766777
     atom   96 type  3   force =     0.26882576    1.65182779   -1.78766780
     atom   97 type  1   force =    -5.25695302    6.86286278   -1.77945384
     atom   98 type  1   force =    -5.25688217    6.86275755   -1.77958186
     atom   99 type  1   force =    -5.25695945    6.86273206   -1.77950624
     atom  100 type  1   force =    -5.25688759    6.86274370   -1.77951212
     atom  101 type  1   force =    -5.25690334    6.86269834   -1.77959190
     atom  102 type  1   force =    -5.25737283    6.86300521   -1.77923388
     atom  103 type  1   force =    -5.25692904    6.86273321   -1.77952432
     atom  104 type  1   force =    -5.25701118    6.86273411   -1.77955494
     atom  105 type  2   force =     5.12491754    4.86182878    1.83993657
     atom  106 type  2   force =     5.12458015    4.86160594    1.83971858
     atom  107 type  2   force =     5.12455428    4.86164736    1.83970703
     atom  108 type  2   force =     5.12458668    4.86164859    1.83972451
     atom  109 type  2   force =     5.12458246    4.86165705    1.83962169
     atom  110 type  2   force =     5.12454198    4.86164375    1.83974153
     atom  111 type  2   force =     5.12460174    4.86157422    1.83976039
     atom  112 type  2   force =     5.12453317    4.86157917    1.83970878
     atom  113 type  3   force =    -1.67821770   -1.91386817    0.71647150
     atom  114 type  3   force =    -1.67845123   -1.91360700    0.71620391
     atom  115 type  3   force =    -1.67846358   -1.91358900    0.71619955
     atom  116 type  3   force =    -1.67845278   -1.91359384    0.71620684
     atom  117 type  3   force =    -1.67844559   -1.91358396    0.71619377
     atom  118 type  3   force =    -1.67845527   -1.91358580    0.71621169
     atom  119 type  3   force =    -1.67843651   -1.91360039    0.71621576
     atom  120 type  3   force =    -1.67845650   -1.91359994    0.71621355
     atom  121 type  1   force =     0.12009419    1.15071421   -2.54579382
     atom  122 type  1   force =     0.12039715    1.15059038   -2.54604974
     atom  123 type  1   force =     0.12028153    1.15061522   -2.54602185
     atom  124 type  1   force =     0.12037580    1.15061639   -2.54596465
     atom  125 type  1   force =     0.12041731    1.15064133   -2.54601262
     atom  126 type  1   force =     0.12037878    1.15075984   -2.54588845
     atom  127 type  1   force =     0.12042900    1.15064492   -2.54595722
     atom  128 type  1   force =     0.12035198    1.15062721   -2.54595440
     atom  129 type  1   force =   -14.27393795   -1.63926670    2.01289552
     atom  130 type  1   force =   -14.27341626   -1.63977831    2.01251505
     atom  131 type  1   force =   -14.27351968   -1.63974413    2.01255249
     atom  132 type  1   force =   -14.27344077   -1.63974441    2.01257267
     atom  133 type  1   force =   -14.27339011   -1.63972119    2.01250754
     atom  134 type  1   force =   -14.27347909   -1.63962570    2.01264422
     atom  135 type  1   force =   -14.27340622   -1.63974033    2.01258507
     atom  136 type  1   force =   -14.27347587   -1.63974970    2.01259197
     atom  137 type  2   force =     2.68734249    1.12155813   -0.87810343
     atom  138 type  2   force =     2.68735022    1.12159600   -0.87826446
     atom  139 type  2   force =     2.68732955    1.12166846   -0.87828055
     atom  140 type  2   force =     2.68735114    1.12165633   -0.87818190
     atom  141 type  2   force =     2.68737535    1.12168202   -0.87821421
     atom  142 type  2   force =     2.68739403    1.12171819   -0.87817491
     atom  143 type  2   force =     2.68746850    1.12169941   -0.87814029
     atom  144 type  2   force =     2.68736681    1.12165173   -0.87818569
     atom  145 type  2   force =     5.25556185    0.26018446   -0.96566594
     atom  146 type  2   force =     5.25572245    0.26026875   -0.96593146
     atom  147 type  2   force =     5.25565800    0.26033203   -0.96592142
     atom  148 type  2   force =     5.25570739    0.26032192   -0.96586101
     atom  149 type  2   force =     5.25573579    0.26035004   -0.96589584
     atom  150 type  2   force =     5.25572594    0.26040355   -0.96583595
     atom  151 type  2   force =     5.25577749    0.26033848   -0.96583668
     atom  152 type  2   force =     5.25570393    0.26031876   -0.96584938
     atom  153 type  2   force =     3.27859467    5.22873436    2.50204490
     atom  154 type  2   force =     3.27861199    5.22873894    2.50207789
     atom  155 type  2   force =     3.27879788    5.22875463    2.50217544
     atom  156 type  2   force =     3.27859901    5.22868815    2.50207577
     atom  157 type  2   force =     3.27863869    5.22860241    2.50214914
     atom  158 type  2   force =     3.27857249    5.22864865    2.50204170
     atom  159 type  2   force =     3.27858105    5.22873682    2.50197773
     atom  160 type  2   force =     3.27858079    5.22871323    2.50208061
     atom  161 type  3   force =     0.74073072    2.14441556    1.26069165
     atom  162 type  3   force =     0.74073221    2.14441331    1.26070298
     atom  163 type  3   force =     0.74078033    2.14440306    1.26072581
     atom  164 type  3   force =     0.74072991    2.14440032    1.26070346
     atom  165 type  3   force =     0.74075927    2.14437131    1.26073189
     atom  166 type  3   force =     0.74072747    2.14439421    1.26069826
     atom  167 type  3   force =     0.74072625    2.14441647    1.26068275
     atom  168 type  3   force =     0.74072893    2.14440914    1.26070257
     atom  169 type  2   force =     6.17648481    1.54868176    0.63347189
     atom  170 type  2   force =     6.17634609    1.54845296    0.63331089
     atom  171 type  2   force =     6.17631269    1.54847522    0.63331913
     atom  172 type  2   force =     6.17635592    1.54848756    0.63332815
     atom  173 type  2   force =     6.17634605    1.54846902    0.63321849
     atom  174 type  2   force =     6.17627432    1.54848324    0.63336027
     atom  175 type  2   force =     6.17633925    1.54843078    0.63334535
     atom  176 type  2   force =     6.17627398    1.54842043    0.63329059
     atom  177 type  3   force =     1.97455443   -0.04593777    0.18335854
     atom  178 type  3   force =     1.97453834   -0.04601876    0.18330607
     atom  179 type  3   force =     1.97452591   -0.04601413    0.18331188
     atom  180 type  3   force =     1.97453762   -0.04601216    0.18331240
     atom  181 type  3   force =     1.97454015   -0.04601511    0.18328890
     atom  182 type  3   force =     1.97451342   -0.04600332    0.18332497
     atom  183 type  3   force =     1.97453512   -0.04602070    0.18331510
     atom  184 type  3   force =     1.97451859   -0.04602334    0.18330848
     atom  185 type  1   force =     0.87339774   -0.57472183    1.98702986
     atom  186 type  1   force =     0.87362434   -0.57404455    1.98639729
     atom  187 type  1   force =     0.87354944   -0.57394657    1.98641176
     atom  188 type  1   force =     0.87360065   -0.57395994    1.98645066
     atom  189 type  1   force =     0.87363981   -0.57391440    1.98640027
     atom  190 type  1   force =     0.87360292   -0.57388121    1.98647568
     atom  191 type  1   force =     0.87366986   -0.57396816    1.98649021
     atom  192 type  1   force =     0.87359234   -0.57397734    1.98648149
     atom  193 type  1   force =   -14.19344799    5.31491529    0.05439470
     atom  194 type  1   force =   -14.19220845    5.31464673    0.05309658
     atom  195 type  1   force =   -14.19229935    5.31471730    0.05311986
     atom  196 type  1   force =   -14.19223607    5.31470845    0.05313912
     atom  197 type  1   force =   -14.19219013    5.31474590    0.05308059
     atom  198 type  1   force =   -14.19226032    5.31479518    0.05317921
     atom  199 type  1   force =   -14.19219063    5.31469760    0.05316593
     atom  200 type  1   force =   -14.19226164    5.31469050    0.05317422
     atom  201 type  2   force =     0.21536079   -2.77186342   -3.53157881
     atom  202 type  2   force =     0.21535204   -2.77186866   -3.53173245
     atom  203 type  2   force =     0.21535617   -2.77183483   -3.53171216
     atom  204 type  2   force =     0.21535701   -2.77183359   -3.53159680
     atom  205 type  2   force =     0.21538822   -2.77180821   -3.53163156
     atom  206 type  2   force =     0.21544085   -2.77175070   -3.53159933
     atom  207 type  2   force =     0.21545687   -2.77176059   -3.53157618
     atom  208 type  2   force =     0.21538967   -2.77181991   -3.53162403
     atom  209 type  3   force =    -0.26884134   -1.65183280   -1.78765821
     atom  210 type  3   force =    -0.26883525   -1.65183340   -1.78770440
     atom  211 type  3   force =    -0.26884113   -1.65183384   -1.78768410
     atom  212 type  3   force =    -0.26883661   -1.65183321   -1.78766135
     atom  213 type  3   force =    -0.26883040   -1.65182587   -1.78767020
     atom  214 type  3   force =    -0.26880808   -1.65179863   -1.78765881
     atom  215 type  3   force =    -0.26882150   -1.65181742   -1.78766165
     atom  216 type  3   force =    -0.26883224   -1.65182583   -1.78766887
     atom  217 type  1   force =     5.25694282   -6.86276621   -1.77949592
     atom  218 type  1   force =     5.25687373   -6.86277828   -1.77962684
     atom  219 type  1   force =     5.25694613   -6.86275302   -1.77964689
     atom  220 type  1   force =     5.25687624   -6.86273888   -1.77946655
     atom  221 type  1   force =     5.25694109   -6.86271951   -1.77952505
     atom  222 type  1   force =     5.25701220   -6.86267904   -1.77950574
     atom  223 type  1   force =     5.25704246   -6.86259812   -1.77943763
     atom  224 type  1   force =     5.25696815   -6.86272881   -1.77953807
     atom  225 type  2   force =    -5.12540884   -4.86304970    1.84135494
     atom  226 type  2   force =    -5.12454777   -4.86166558    1.83969670
     atom  227 type  2   force =    -5.12461129   -4.86159896    1.83969148
     atom  228 type  2   force =    -5.12455949   -4.86161510    1.83971633
     atom  229 type  2   force =    -5.12452325   -4.86157737    1.83966981
     atom  230 type  2   force =    -5.12457053   -4.86156965    1.83974174
     atom  231 type  2   force =    -5.12450554   -4.86162831    1.83974376
     atom  232 type  2   force =    -5.12457400   -4.86163066    1.83974640
     atom  233 type  3   force =     1.67867045    1.91369410    0.71632884
     atom  234 type  3   force =     1.67845792    1.91359005    0.71620637
     atom  235 type  3   force =     1.67844881    1.91360288    0.71620361
     atom  236 type  3   force =     1.67845771    1.91360093    0.71620751
     atom  237 type  3   force =     1.67846196    1.91360800    0.71618616
     atom  238 type  3   force =     1.67844961    1.91360420    0.71621246
     atom  239 type  3   force =     1.67846611    1.91358771    0.71621608
     atom  240 type  3   force =     1.67844826    1.91358890    0.71621008
     atom  241 type  1   force =    -1.15069086    0.12051241    2.54593174
     atom  242 type  1   force =    -1.15059404    0.12038773    2.54591348
     atom  243 type  1   force =    -1.15069401    0.12030504    2.54603146
     atom  244 type  1   force =    -1.15059489    0.12034585    2.54596107
     atom  245 type  1   force =    -1.15051347    0.12031350    2.54590235
     atom  246 type  1   force =    -1.15071862    0.12032811    2.54615476
     atom  247 type  1   force =    -1.15059823    0.12038716    2.54593224
     atom  248 type  1   force =    -1.15064857    0.12038749    2.54595482
     atom  249 type  1   force =     1.63971707  -14.27335486   -2.01259910
     atom  250 type  1   force =     1.63978405  -14.27341236   -2.01263046
     atom  251 type  1   force =     1.63972591  -14.27348890   -2.01250142
     atom  252 type  1   force =     1.63978167  -14.27347322   -2.01257723
     atom  253 type  1   force =     1.63983319  -14.27353904   -2.01262716
     atom  254 type  1   force =     1.63952582  -14.27374540   -2.01237074
     atom  255 type  1   force =     1.63975873  -14.27343803   -2.01261511
     atom  256 type  1   force =     1.63971254  -14.27343147   -2.01259391
     atom  257 type  2   force =    -1.12174286    2.68760974    0.87799431
     atom  258 type  2   force =    -1.12164416    2.68736341    0.87816953
     atom  259 type  2   force =    -1.12171659    2.68732771    0.87822883
     atom  260 type  2   force =    -1.12164561    2.68735106    0.87817728
     atom  261 type  2   force =    -1.12148952    2.68737756    0.87810114
     atom  262 type  2   force =    -1.12167765    2.68736087    0.87822728
     atom  263 type  2   force =    -1.12163306    2.68737497    0.87816962
     atom  264 type  2   force =    -1.12166165    2.68737633    0.87819206
     atom  265 type  2   force =    -0.26036082    5.25586885    0.96578237
     atom  266 type  2   force =    -0.26030500    5.25572354    0.96583349
     atom  267 type  2   force =    -0.26035392    5.25566682    0.96591984
     atom  268 type  2   force =    -0.26030604    5.25569536    0.96585631
     atom  269 type  2   force =    -0.26016152    5.25565905    0.96577340
     atom  270 type  2   force =    -0.26036871    5.25566678    0.96592664
     atom  271 type  2   force =    -0.26030775    5.25572283    0.96583478
     atom  272 type  2   force =    -0.26033513    5.25572183    0.96585435
     atom  273 type  2   force =    -5.22865934    3.27893183   -2.50245215
     atom  274 type  2   force =    -5.22869561    3.27858726   -2.50208381
     atom  275 type  2   force =    -5.22873155    3.27857877   -2.50205708
     atom  276 type  2   force =    -5.22869577    3.27858799   -2.50208655
     atom  277 type  2   force =    -5.22850904    3.27867494   -2.50221995
     atom  278 type  2   force =    -5.22871485    3.27859578   -2.50205524
     atom  279 type  2   force =    -5.22868653    3.27859662   -2.50208246
     atom  280 type  2   force =    -5.22870296    3.27860102   -2.50207173
     atom  281 type  3   force =    -2.14437016    0.74079814   -1.26076392
     atom  282 type  3   force =    -2.14440454    0.74073044   -1.26070387
     atom  283 type  3   force =    -2.14440733    0.74072760   -1.26069956
     atom  284 type  3   force =    -2.14440364    0.74072988   -1.26070330
     atom  285 type  3   force =    -2.14434687    0.74075752   -1.26076986
     atom  286 type  3   force =    -2.14440849    0.74072767   -1.26069840
     atom  287 type  3   force =    -2.14440481    0.74072996   -1.26070310
     atom  288 type  3   force =    -2.14440612    0.74073069   -1.26070411
     atom  289 type  2   force =    -1.54885701    6.17638741   -0.63397989
     atom  290 type  2   force =    -1.54844822    6.17629502   -0.63333609
     atom  291 type  2   force =    -1.54853234    6.17633597   -0.63332717
     atom  292 type  2   force =    -1.54845438    6.17631911   -0.63335667
     atom  293 type  2   force =    -1.54837127    6.17638215   -0.63337823
     atom  294 type  2   force =    -1.54846743    6.17634687   -0.63331978
     atom  295 type  2   force =    -1.54842122    6.17632274   -0.63333720
     atom  296 type  2   force =    -1.54845567    6.17633756   -0.63329449
     atom  297 type  3   force =     0.04589951    1.97446560   -0.18343580
     atom  298 type  3   force =     0.04602127    1.97452066   -0.18331482
     atom  299 type  3   force =     0.04600136    1.97453681   -0.18331465
     atom  300 type  3   force =     0.04601828    1.97453086   -0.18332154
     atom  301 type  3   force =     0.04603245    1.97454376   -0.18332360
     atom  302 type  3   force =     0.04601442    1.97453814   -0.18331284
     atom  303 type  3   force =     0.04602703    1.97452859   -0.18331482
     atom  304 type  3   force =     0.04601784    1.97453316   -0.18329985
     atom  305 type  1   force =     0.57397058    0.87373986   -1.98653699
     atom  306 type  1   force =     0.57398725    0.87363845   -1.98648604
     atom  307 type  1   force =     0.57398458    0.87356767   -1.98638969
     atom  308 type  1   force =     0.57398569    0.87358553   -1.98645518
     atom  309 type  1   force =     0.57424693    0.87341187   -1.98660976
     atom  310 type  1   force =     0.57391894    0.87346983   -1.98642945
     atom  311 type  1   force =     0.57396608    0.87361660   -1.98649608
     atom  312 type  1   force =     0.57395169    0.87361391   -1.98647397
     atom  313 type  1   force =    -5.31470560  -14.19214583   -0.05318849
     atom  314 type  1   force =    -5.31466743  -14.19218898   -0.05318913
     atom  315 type  1   force =    -5.31468397  -14.19226395   -0.05308048
     atom  316 type  1   force =    -5.31467387  -14.19225906   -0.05314339
     atom  317 type  1   force =    -5.31457590  -14.19240662   -0.05321426
     atom  318 type  1   force =    -5.31479610  -14.19254746   -0.05315889
     atom  319 type  1   force =    -5.31470168  -14.19223029   -0.05319015
     atom  320 type  1   force =    -5.31472677  -14.19222826   -0.05316651
     atom  321 type  2   force =     2.77163096    0.21554239    3.53145670
     atom  322 type  2   force =     2.77183468    0.21537364    3.53159750
     atom  323 type  2   force =     2.77166726    0.21535162    3.53163954
     atom  324 type  2   force =     2.77183369    0.21536518    3.53160000
     atom  325 type  2   force =     2.77193025    0.21539803    3.53157563
     atom  326 type  2   force =     2.77181021    0.21539237    3.53165156
     atom  327 type  2   force =     2.77186458    0.21539714    3.53159400
     atom  328 type  2   force =     2.77181852    0.21539989    3.53163202
     atom  329 type  3   force =     1.65179421   -0.26881089    1.78765062
     atom  330 type  3   force =     1.65183077   -0.26883386    1.78766086
     atom  331 type  3   force =     1.65175528   -0.26884893    1.78766681
     atom  332 type  3   force =     1.65183124   -0.26883855    1.78766328
     atom  333 type  3   force =     1.65184890   -0.26883296    1.78766079
     atom  334 type  3   force =     1.65182492   -0.26883095    1.78767783
     atom  335 type  3   force =     1.65184007   -0.26882667    1.78765897
     atom  336 type  3   force =     1.65182592   -0.26882737    1.78766993
     atom  337 type  1   force =     6.86232846    5.25705364    1.77922377
     atom  338 type  1   force =     6.86274840    5.25692160    1.77949986
     atom  339 type  1   force =     6.86255781    5.25697288    1.77950774
     atom  340 type  1   force =     6.86274546    5.25693123    1.77948544
     atom  341 type  1   force =     6.86283794    5.25698593    1.77947098
     atom  342 type  1   force =     6.86272317    5.25696752    1.77953977
     atom  343 type  1   force =     6.86279826    5.25695377    1.77949249
     atom  344 type  1   force =     6.86273151    5.25696798    1.77955575
     atom  345 type  2   force =     4.86181364   -5.12463968   -1.83983624
     atom  346 type  2   force =     4.86157584   -5.12462709   -1.83967257
     atom  347 type  2   force =     4.86162947   -5.12455078   -1.83975176
     atom  348 type  2   force =     4.86160875   -5.12455203   -1.83973466
     atom  349 type  2   force =     4.86160528   -5.12441504   -1.83980246
     atom  350 type  2   force =     4.86163769   -5.12454403   -1.83975020
     atom  351 type  2   force =     4.86160998   -5.12459837   -1.83966941
     atom  352 type  2   force =     4.86163698   -5.12457583   -1.83972729
     atom  353 type  3   force =    -1.91351901    1.67846401   -0.71641902
     atom  354 type  3   force =    -1.91359650    1.67844430   -0.71620823
     atom  355 type  3   force =    -1.91360243    1.67845532   -0.71621035
     atom  356 type  3   force =    -1.91359690    1.67845461   -0.71621438
     atom  357 type  3   force =    -1.91357233    1.67848487   -0.71623232
     atom  358 type  3   force =    -1.91359672    1.67845991   -0.71620970
     atom  359 type  3   force =    -1.91359167    1.67845235   -0.71620727
     atom  360 type  3   force =    -1.91359436    1.67845502   -0.71620539
     atom  361 type  1   force =     1.15054734   -0.12033128    2.54596647
     atom  362 type  1   force =     1.15063166   -0.12036263    2.54590771
     atom  363 type  1   force =     1.15030873   -0.12058319    2.54563590
     atom  364 type  1   force =     1.15064767   -0.12041461    2.54596231
     atom  365 type  1   force =     1.15067070   -0.12037259    2.54594944
     atom  366 type  1   force =     1.15064521   -0.12033227    2.54605169
     atom  367 type  1   force =     1.15069958   -0.12029875    2.54592495
     atom  368 type  1   force =     1.15061364   -0.12032886    2.54595835
     atom  369 type  1   force =    -1.64004516   14.27346821   -2.01316313
     atom  370 type  1   force =    -1.63973479   14.27342250   -2.01258343
     atom  371 type  1   force =    -1.63983462   14.27346616   -2.01256518
     atom  372 type  1   force =    -1.63974147   14.27344821   -2.01262321
     atom  373 type  1   force =    -1.63962604   14.27353834   -2.01263125
     atom  374 type  1   force =    -1.63975295   14.27348136   -2.01257428
     atom  375 type  1   force =    -1.63970350   14.27345841   -2.01259465
     atom  376 type  1   force =    -1.63973229   14.27348462   -2.01253403
     atom  377 type  2   force =     1.12149741   -2.68762974    0.87822189
     atom  378 type  2   force =     1.12172324   -2.68743936    0.87816368
     atom  379 type  2   force =     1.12162826   -2.68734140    0.87817931
     atom  380 type  2   force =     1.12166279   -2.68734781    0.87815353
     atom  381 type  2   force =     1.12168794   -2.68732074    0.87815329
     atom  382 type  2   force =     1.12163950   -2.68729489    0.87816929
     atom  383 type  2   force =     1.12168315   -2.68737568    0.87818911
     atom  384 type  2   force =     1.12165829   -2.68737937    0.87826720
     atom  385 type  2   force =     0.26006992   -5.25614470    0.96550428
     atom  386 type  2   force =     0.26035276   -5.25577100    0.96585206
     atom  387 type  2   force =     0.26028453   -5.25568761    0.96585206
     atom  388 type  2   force =     0.26032514   -5.25569968    0.96582351
     atom  389 type  2   force =     0.26037218   -5.25564803    0.96581957
     atom  390 type  2   force =     0.26031440   -5.25566369    0.96585033
     atom  391 type  2   force =     0.26035349   -5.25571707    0.96585929
     atom  392 type  2   force =     0.26033456   -5.25570341    0.96591843
     atom  393 type  2   force =     5.22863472   -3.27877158   -2.50204764
     atom  394 type  2   force =     5.22883250   -3.27872479   -2.50214720
     atom  395 type  2   force =     5.22868310   -3.27857891   -2.50208702
     atom  396 type  2   force =     5.22870182   -3.27857917   -2.50210438
     atom  397 type  2   force =     5.22872440   -3.27855325   -2.50210280
     atom  398 type  2   force =     5.22869761   -3.27849805   -2.50211260
     atom  399 type  2   force =     5.22872149   -3.27860275   -2.50206923
     atom  400 type  2   force =     5.22871188   -3.27861164   -2.50201807
     atom  401 type  3   force =     2.14440332   -0.74078072   -1.26071104
     atom  402 type  3   force =     2.14443584   -0.74078485   -1.26072564
     atom  403 type  3   force =     2.14440169   -0.74072718   -1.26070672
     atom  404 type  3   force =     2.14440307   -0.74072700   -1.26070906
     atom  405 type  3   force =     2.14441038   -0.74071658   -1.26070885
     atom  406 type  3   force =     2.14440872   -0.74070987   -1.26071157
     atom  407 type  3   force =     2.14440991   -0.74073182   -1.26069890
     atom  408 type  3   force =     2.14441053   -0.74073247   -1.26069336
     atom  409 type  2   force =     1.54858454   -6.17634815   -0.63338119
     atom  410 type  2   force =     1.54842240   -6.17633736   -0.63325755
     atom  411 type  2   force =     1.54848357   -6.17630276   -0.63335503
     atom  412 type  2   force =     1.54844692   -6.17630409   -0.63332811
     atom  413 type  2   force =     1.54838323   -6.17617493   -0.63340085
     atom  414 type  2   force =     1.54847559   -6.17631218   -0.63335588
     atom  415 type  2   force =     1.54837916   -6.17638407   -0.63325691
     atom  416 type  2   force =     1.54847502   -6.17633831   -0.63333499
     atom  417 type  3   force =    -0.04598694   -1.97452897   -0.18332579
     atom  418 type  3   force =    -0.04602174   -1.97452838   -0.18330135
     atom  419 type  3   force =    -0.04600831   -1.97452563   -0.18331900
     atom  420 type  3   force =    -0.04601866   -1.97452565   -0.18331125
     atom  421 type  3   force =    -0.04605206   -1.97448458   -0.18334517
     atom  422 type  3   force =    -0.04601351   -1.97453032   -0.18331904
     atom  423 type  3   force =    -0.04604766   -1.97454216   -0.18330307
     atom  424 type  3   force =    -0.04601379   -1.97453392   -0.18331627
     atom  425 type  1   force =    -0.57385309   -0.87428478   -1.98784778
     atom  426 type  1   force =    -0.57394884   -0.87367334   -1.98646891
     atom  427 type  1   force =    -0.57400722   -0.87358182   -1.98647402
     atom  428 type  1   force =    -0.57396731   -0.87359164   -1.98649299
     atom  429 type  1   force =    -0.57388935   -0.87349644   -1.98653443
     atom  430 type  1   force =    -0.57397083   -0.87355035   -1.98646627
     atom  431 type  1   force =    -0.57393079   -0.87360860   -1.98645133
     atom  432 type  1   force =    -0.57395691   -0.87359639   -1.98642279
     atom  433 type  1   force =     5.31466812   14.19238973   -0.05437067
     atom  434 type  1   force =     5.31470938   14.19220480   -0.05315476
     atom  435 type  1   force =     5.31465009   14.19225224   -0.05315068
     atom  436 type  1   force =     5.31470279   14.19224516   -0.05318233
     atom  437 type  1   force =     5.31482820   14.19236094   -0.05324239
     atom  438 type  1   force =     5.31469508   14.19227616   -0.05314705
     atom  439 type  1   force =     5.31473434   14.19224261   -0.05315223
     atom  440 type  1   force =     5.31470994   14.19225739   -0.05312292
     atom  441 type  2   force =    -2.77192490   -0.21547829    3.53176440
     atom  442 type  2   force =    -2.77176187   -0.21542311    3.53159817
     atom  443 type  2   force =    -2.77184963   -0.21535056    3.53161074
     atom  444 type  2   force =    -2.77180370   -0.21535847    3.53158312
     atom  445 type  2   force =    -2.77179762   -0.21535341    3.53157993
     atom  446 type  2   force =    -2.77185864   -0.21531504    3.53160234
     atom  447 type  2   force =    -2.77179226   -0.21540160    3.53161370
     atom  448 type  2   force =    -2.77187417   -0.21543749    3.53172746
     atom  449 type  3   force =    -1.65183595    0.26884385    1.78766421
     atom  450 type  3   force =    -1.65182236    0.26883912    1.78765856
     atom  451 type  3   force =    -1.65185118    0.26881029    1.78771194
     atom  452 type  3   force =    -1.65181764    0.26882553    1.78766422
     atom  453 type  3   force =    -1.65181682    0.26882605    1.78766538
     atom  454 type  3   force =    -1.65184467    0.26881682    1.78769401
     atom  455 type  3   force =    -1.65182148    0.26884000    1.78765686
     atom  456 type  3   force =    -1.65183542    0.26884465    1.78766538
     atom  457 type  1   force =    -6.86275563   -5.25691073    1.77951548
     atom  458 type  1   force =    -6.86269675   -5.25690979    1.77947795
     atom  459 type  1   force =    -6.86278310   -5.25696015    1.77964956
     atom  460 type  1   force =    -6.86263752   -5.25697698    1.77948522
     atom  461 type  1   force =    -6.86270636   -5.25697089    1.77951034
     atom  462 type  1   force =    -6.86289932   -5.25706937    1.77962635
     atom  463 type  1   force =    -6.86271130   -5.25692549    1.77947328
     atom  464 type  1   force =    -6.86281600   -5.25683549    1.77948401
     atom  465 type  2   force =    -4.86159860    5.12483738   -1.84053248
     atom  466 type  2   force =    -4.86161728    5.12454084   -1.83973046
     atom  467 type  2   force =    -4.86166137    5.12456438   -1.83972185
     atom  468 type  2   force =    -4.86162014    5.12456272   -1.83974822
     atom  469 type  2   force =    -4.86149761    5.12466272   -1.83981602
     atom  470 type  2   force =    -4.86162830    5.12458375   -1.83971963
     atom  471 type  2   force =    -4.86159872    5.12456424   -1.83972918
     atom  472 type  2   force =    -4.86161723    5.12457421   -1.83971061
     atom  473 type  3   force =     1.91366862   -1.67846504   -0.71626301
     atom  474 type  3   force =     1.91358988   -1.67846465   -0.71620140
     atom  475 type  3   force =     1.91359681   -1.67845150   -0.71621367
     atom  476 type  3   force =     1.91359434   -1.67845177   -0.71621149
     atom  477 type  3   force =     1.91360192   -1.67840826   -0.71623907
     atom  478 type  3   force =     1.91359873   -1.67844982   -0.71621302
     atom  479 type  3   force =     1.91359544   -1.67846008   -0.71619998
     atom  480 type  3   force =     1.91359906   -1.67845588   -0.71620911
     atom  481 type  4   force =    -0.00041941    0.00034614    0.00010096
     atom  482 type  4   force =     0.00010572    0.00002072   -0.00031545
     atom  483 type  4   force =    -0.00050696   -0.00029890   -0.00016133
     atom  484 type  4   force =     0.00010526   -0.00011572    0.00001514
     atom  485 type  4   force =     0.00023003   -0.00005218   -0.00013869
     atom  486 type  4   force =     0.00011281    0.00051351    0.00078967
     atom  487 type  4   force =     0.00019707    0.00013734   -0.00006772
     atom  488 type  4   force =    -0.00007291    0.00009241   -0.00002249
     atom  489 type  4   force =     0.00017938    0.00039219   -0.00034909
     atom  490 type  4   force =     0.00001116    0.00021101   -0.00000984
     atom  491 type  4   force =     0.00020501   -0.00007661    0.00016067
     atom  492 type  4   force =     0.00000975   -0.00004741    0.00007149
     atom  493 type  4   force =     0.00462785   -0.00358232   -0.00225564
     atom  494 type  4   force =     0.00002727   -0.00033856   -0.00008116
     atom  495 type  4   force =    -0.00011017    0.00008612   -0.00013254
     atom  496 type  4   force =    -0.00000478    0.00004787   -0.00006190
     The local contribution  to forces
     atom    1 type  1   force =    -0.30099118    2.09124394    3.09819925
     atom    2 type  1   force =    -0.30106306    2.09124328    3.09833001
     atom    3 type  1   force =    -0.30097815    2.09132417    3.09822405
     atom    4 type  1   force =    -0.30107417    2.09132310    3.09819597
     atom    5 type  1   force =    -0.30105817    2.09130062    3.09823560
     atom    6 type  1   force =    -0.30141911    2.09098172    3.09780330
     atom    7 type  1   force =    -0.30106132    2.09125487    3.09822818
     atom    8 type  1   force =    -0.30100976    2.09125188    3.09823795
     atom    9 type  1   force =   -12.38537096   -0.72455154   -1.18102139
     atom   10 type  1   force =   -12.38533965   -0.72453202   -1.18115234
     atom   11 type  1   force =   -12.38542634   -0.72443250   -1.18119386
     atom   12 type  1   force =   -12.38532577   -0.72444861   -1.18111488
     atom   13 type  1   force =   -12.38568480   -0.72462404   -1.18138547
     atom   14 type  1   force =   -12.38537673   -0.72448870   -1.18113154
     atom   15 type  1   force =   -12.38535127   -0.72454689   -1.18110812
     atom   16 type  1   force =   -12.38538627   -0.72454593   -1.18113479
     atom   17 type  2   force =     2.48455116    1.16468349    0.87018663
     atom   18 type  2   force =     2.48462298    1.16466986    0.87008846
     atom   19 type  2   force =     2.48456475    1.16473196    0.87010096
     atom   20 type  2   force =     2.48461663    1.16473529    0.87009553
     atom   21 type  2   force =     2.48374915    1.16061605    0.86853275
     atom   22 type  2   force =     2.48457890    1.16475346    0.87013708
     atom   23 type  2   force =     2.48463814    1.16470939    0.87012672
     atom   24 type  2   force =     2.48459196    1.16471443    0.87012108
     atom   25 type  2   force =     5.07226816    0.26996692    0.95432041
     atom   26 type  2   force =     5.07232990    0.26997472    0.95421177
     atom   27 type  2   force =     5.07227194    0.27003409    0.95421016
     atom   28 type  2   force =     5.07232583    0.27003265    0.95421910
     atom   29 type  2   force =     5.07103832    0.26882997    0.95353015
     atom   30 type  2   force =     5.07229188    0.27003814    0.95424504
     atom   31 type  2   force =     5.07233223    0.26999377    0.95424554
     atom   32 type  2   force =     5.07229553    0.26999851    0.95423694
     atom   33 type  2   force =     3.25881454    5.16630619   -2.49158262
     atom   34 type  2   force =     3.24249043    5.17667941   -2.48070754
     atom   35 type  2   force =     3.24254910    5.17662529   -2.48071086
     atom   36 type  2   force =     3.24250290    5.17663552   -2.48072004
     atom   37 type  2   force =     3.24246065    5.17659752   -2.48066785
     atom   38 type  2   force =     3.24252204    5.17659301   -2.48074744
     atom   39 type  2   force =     3.24246630    5.17664866   -2.48074407
     atom   40 type  2   force =     3.24251939    5.17665021   -2.48075407
     atom   41 type  3   force =     0.75703277    2.08158068   -1.24491855
     atom   42 type  3   force =     0.76523759    2.07350796   -1.25221352
     atom   43 type  3   force =     0.76525267    2.07349311   -1.25221354
     atom   44 type  3   force =     0.76524082    2.07349623   -1.25221568
     atom   45 type  3   force =     0.76523029    2.07348558   -1.25220256
     atom   46 type  3   force =     0.76524564    2.07348642   -1.25222214
     atom   47 type  3   force =     0.76523108    2.07350081   -1.25222215
     atom   48 type  3   force =     0.76524523    2.07350049   -1.25222454
     atom   49 type  2   force =     5.98035291    1.44639935   -0.61211514
     atom   50 type  2   force =     5.97992537    1.44599766   -0.61183157
     atom   51 type  2   force =     5.97999201    1.44594195   -0.61183413
     atom   52 type  2   force =     5.97993690    1.44595324   -0.61187506
     atom   53 type  2   force =     5.97990440    1.44592481   -0.61183542
     atom   54 type  2   force =     5.97993916    1.44588598   -0.61190674
     atom   55 type  2   force =     5.97988693    1.44594670   -0.61189569
     atom   56 type  2   force =     5.97994816    1.44595960   -0.61189564
     atom   57 type  3   force =     1.90013048   -0.02512434   -0.18239982
     atom   58 type  3   force =     1.90009058   -0.02512758   -0.18232515
     atom   59 type  3   force =     1.90010636   -0.02514361   -0.18232143
     atom   60 type  3   force =     1.90009250   -0.02513953   -0.18233935
     atom   61 type  3   force =     1.90008581   -0.02514649   -0.18233075
     atom   62 type  3   force =     1.90008836   -0.02515588   -0.18234539
     atom   63 type  3   force =     1.90007172   -0.02514399   -0.18234563
     atom   64 type  3   force =     1.90009345   -0.02513843   -0.18234228
     atom   65 type  1   force =     0.41627026   -1.47143188   -2.59174037
     atom   66 type  1   force =     0.41632417   -1.47139048   -2.59186368
     atom   67 type  1   force =     0.41625178   -1.47132038   -2.59189627
     atom   68 type  1   force =     0.41632526   -1.47133246   -2.59186518
     atom   69 type  1   force =     0.41455382   -1.47144252   -2.59203217
     atom   70 type  1   force =     0.41630041   -1.47131589   -2.59184326
     atom   71 type  1   force =     0.41633893   -1.47138003   -2.59182236
     atom   72 type  1   force =     0.41630244   -1.47136990   -2.59184424
     atom   73 type  1   force =   -12.39098412    4.13251653   -0.55435505
     atom   74 type  1   force =   -12.39097029    4.13256283   -0.55447851
     atom   75 type  1   force =   -12.39105580    4.13266042   -0.55454878
     atom   76 type  1   force =   -12.39095694    4.13262515   -0.55446672
     atom   77 type  1   force =   -12.39148185    4.13253362   -0.55467750
     atom   78 type  1   force =   -12.39098115    4.13261812   -0.55446886
     atom   79 type  1   force =   -12.39096647    4.13255071   -0.55443055
     atom   80 type  1   force =   -12.39099191    4.13255981   -0.55446947
     atom   81 type  2   force =     0.33923695   -2.77032192    3.52082523
     atom   82 type  2   force =     0.33932510   -2.77038003    3.52070787
     atom   83 type  2   force =     0.33926135   -2.77029889    3.52074955
     atom   84 type  2   force =     0.33931109   -2.77029370    3.52074585
     atom   85 type  2   force =     0.33984862   -2.77135173    3.52058571
     atom   86 type  2   force =     0.33926332   -2.77027747    3.52079447
     atom   87 type  2   force =     0.33933083   -2.77030649    3.52076745
     atom   88 type  2   force =     0.33927981   -2.77030545    3.52076068
     atom   89 type  3   force =    -0.22489727   -1.59176274    1.77777035
     atom   90 type  3   force =    -0.22492849   -1.59174336    1.77781042
     atom   91 type  3   force =    -0.22490624   -1.59174002    1.77778956
     atom   92 type  3   force =    -0.22491910   -1.59174149    1.77778859
     atom   93 type  3   force =    -0.22492169   -1.59173996    1.77779894
     atom   94 type  3   force =    -0.22491888   -1.59181941    1.77775149
     atom   95 type  3   force =    -0.22491844   -1.59174363    1.77778967
     atom   96 type  3   force =    -0.22490549   -1.59174206    1.77778963
     atom   97 type  1   force =     4.59012928   -5.13731434    1.62595710
     atom   98 type  1   force =     4.59006068   -5.13721670    1.62608325
     atom   99 type  1   force =     4.59013443   -5.13718866    1.62600747
     atom  100 type  1   force =     4.59006825   -5.13720087    1.62601375
     atom  101 type  1   force =     4.59008232   -5.13715845    1.62609204
     atom  102 type  1   force =     4.59063211   -5.13745927    1.62520168
     atom  103 type  1   force =     4.59010734   -5.13719187    1.62602613
     atom  104 type  1   force =     4.59018536   -5.13719371    1.62605600
     atom  105 type  2   force =    -5.09743280   -4.89911020   -1.83880820
     atom  106 type  2   force =    -5.09713985   -4.89893782   -1.83860123
     atom  107 type  2   force =    -5.09711493   -4.89897643   -1.83859027
     atom  108 type  2   force =    -5.09714782   -4.89897645   -1.83860681
     atom  109 type  2   force =    -5.09714097   -4.89898389   -1.83850592
     atom  110 type  2   force =    -5.09710231   -4.89896970   -1.83862282
     atom  111 type  2   force =    -5.09716200   -4.89890739   -1.83864211
     atom  112 type  2   force =    -5.09709478   -4.89891207   -1.83859141
     atom  113 type  3   force =     1.62741685    1.85972275   -0.71053576
     atom  114 type  3   force =     1.62767124    1.85947818   -0.71017629
     atom  115 type  3   force =     1.62768345    1.85946053   -0.71017213
     atom  116 type  3   force =     1.62767277    1.85946509   -0.71017914
     atom  117 type  3   force =     1.62766550    1.85945545   -0.71016611
     atom  118 type  3   force =     1.62767535    1.85945706   -0.71018393
     atom  119 type  3   force =     1.62765685    1.85947129   -0.71018793
     atom  120 type  3   force =     1.62767655    1.85947119   -0.71018582
     atom  121 type  1   force =     0.30127783   -2.09136464    3.09804406
     atom  122 type  1   force =     0.30099997   -2.09124922    3.09830479
     atom  123 type  1   force =     0.30110825   -2.09126214    3.09826874
     atom  124 type  1   force =     0.30102003   -2.09127299    3.09822023
     atom  125 type  1   force =     0.30097946   -2.09129329    3.09826407
     atom  126 type  1   force =     0.30101018   -2.09140968    3.09813569
     atom  127 type  1   force =     0.30097138   -2.09129897    3.09821189
     atom  128 type  1   force =     0.30104412   -2.09128681    3.09821149
     atom  129 type  1   force =    12.38581146    0.72402853   -1.18148099
     atom  130 type  1   force =    12.38532360    0.72454029   -1.18107438
     atom  131 type  1   force =    12.38542068    0.72450899   -1.18111172
     atom  132 type  1   force =    12.38534764    0.72450866   -1.18113326
     atom  133 type  1   force =    12.38530214    0.72448835   -1.18107104
     atom  134 type  1   force =    12.38536977    0.72437790   -1.18120218
     atom  135 type  1   force =    12.38531523    0.72450422   -1.18114629
     atom  136 type  1   force =    12.38537968    0.72451041   -1.18115056
     atom  137 type  2   force =    -2.48459534   -1.16462784    0.87002834
     atom  138 type  2   force =    -2.48458922   -1.16466634    0.87018590
     atom  139 type  2   force =    -2.48457147   -1.16473422    0.87020036
     atom  140 type  2   force =    -2.48459230   -1.16472119    0.87010442
     atom  141 type  2   force =    -2.48461417   -1.16474852    0.87013590
     atom  142 type  2   force =    -2.48463939   -1.16478168    0.87009783
     atom  143 type  2   force =    -2.48469975   -1.16476178    0.87006356
     atom  144 type  2   force =    -2.48460728   -1.16472042    0.87010815
     atom  145 type  2   force =    -5.07216643   -0.26989616    0.95404031
     atom  146 type  2   force =    -5.07232147   -0.26996077    0.95430074
     atom  147 type  2   force =    -5.07226273   -0.27001981    0.95428858
     atom  148 type  2   force =    -5.07231065   -0.27001165    0.95422964
     atom  149 type  2   force =    -5.07233520   -0.27003849    0.95426309
     atom  150 type  2   force =    -5.07233358   -0.27009294    0.95420511
     atom  151 type  2   force =    -5.07236631   -0.27003071    0.95420538
     atom  152 type  2   force =    -5.07230526   -0.27001068    0.95421914
     atom  153 type  2   force =    -3.24251241   -5.17667214   -2.48070322
     atom  154 type  2   force =    -3.24253087   -5.17667722   -2.48073493
     atom  155 type  2   force =    -3.24269538   -5.17670048   -2.48083444
     atom  156 type  2   force =    -3.24251486   -5.17663155   -2.48073365
     atom  157 type  2   force =    -3.24255370   -5.17656016   -2.48080553
     atom  158 type  2   force =    -3.24248964   -5.17659240   -2.48069956
     atom  159 type  2   force =    -3.24249875   -5.17667313   -2.48063645
     atom  160 type  2   force =    -3.24249878   -5.17665172   -2.48073783
     atom  161 type  3   force =    -0.76524337   -2.07350816   -1.25220829
     atom  162 type  3   force =    -0.76524514   -2.07350614   -1.25221944
     atom  163 type  3   force =    -0.76529272   -2.07349611   -1.25224204
     atom  164 type  3   force =    -0.76524263   -2.07349309   -1.25221992
     atom  165 type  3   force =    -0.76527129   -2.07346514   -1.25224767
     atom  166 type  3   force =    -0.76524012   -2.07348709   -1.25221459
     atom  167 type  3   force =    -0.76523901   -2.07350892   -1.25219921
     atom  168 type  3   force =    -0.76524175   -2.07350187   -1.25221902
     atom  169 type  2   force =    -5.98009807   -1.44616567   -0.61202251
     atom  170 type  2   force =    -5.97996402   -1.44595045   -0.61186481
     atom  171 type  2   force =    -5.97993429   -1.44596948   -0.61187333
     atom  172 type  2   force =    -5.97997392   -1.44598063   -0.61188182
     atom  173 type  2   force =    -5.97996334   -1.44596431   -0.61177382
     atom  174 type  2   force =    -5.97989127   -1.44597541   -0.61191396
     atom  175 type  2   force =    -5.97995839   -1.44592865   -0.61189851
     atom  176 type  2   force =    -5.97989745   -1.44591854   -0.61184430
     atom  177 type  3   force =    -1.90011681    0.02506247   -0.18238434
     atom  178 type  3   force =    -1.90010083    0.02514133   -0.18233293
     atom  179 type  3   force =    -1.90008857    0.02513689   -0.18233878
     atom  180 type  3   force =    -1.90009990    0.02513499   -0.18233924
     atom  181 type  3   force =    -1.90010243    0.02513769   -0.18231595
     atom  182 type  3   force =    -1.90007533    0.02512620   -0.18235236
     atom  183 type  3   force =    -1.90009741    0.02514365   -0.18234185
     atom  184 type  3   force =    -1.90008103    0.02514588   -0.18233517
     atom  185 type  1   force =    -0.41623039    1.47193673   -2.59236697
     atom  186 type  1   force =    -0.41633774    1.47142746   -2.59178935
     atom  187 type  1   force =    -0.41626371    1.47134016   -2.59180981
     atom  188 type  1   force =    -0.41631459    1.47134963   -2.59184630
     atom  189 type  1   force =    -0.41634904    1.47130963   -2.59180074
     atom  190 type  1   force =    -0.41631918    1.47126873   -2.59186592
     atom  191 type  1   force =    -0.41638164    1.47134752   -2.59187895
     atom  192 type  1   force =    -0.41630759    1.47136003   -2.59187241
     atom  193 type  1   force =    12.39196219   -4.13264681   -0.55571077
     atom  194 type  1   force =    12.39094167   -4.13253612   -0.55441619
     atom  195 type  1   force =    12.39102534   -4.13259957   -0.55444299
     atom  196 type  1   force =    12.39096721   -4.13259341   -0.55446140
     atom  197 type  1   force =    12.39092274   -4.13263032   -0.55440283
     atom  198 type  1   force =    12.39099307   -4.13268331   -0.55449543
     atom  199 type  1   force =    12.39092640   -4.13258737   -0.55448537
     atom  200 type  1   force =    12.39099253   -4.13257899   -0.55449417
     atom  201 type  2   force =    -0.33927686    2.77034041    3.52071524
     atom  202 type  2   force =    -0.33926761    2.77034052    3.52086662
     atom  203 type  2   force =    -0.33926937    2.77031290    3.52084586
     atom  204 type  2   force =    -0.33927366    2.77031271    3.52073353
     atom  205 type  2   force =    -0.33930108    2.77028722    3.52076741
     atom  206 type  2   force =    -0.33935013    2.77023950    3.52073626
     atom  207 type  2   force =    -0.33936281    2.77024286    3.52071395
     atom  208 type  2   force =    -0.33930229    2.77029620    3.52075997
     atom  209 type  3   force =     0.22492082    1.59174738    1.77778027
     atom  210 type  3   force =     0.22491532    1.59174754    1.77782559
     atom  211 type  3   force =     0.22492085    1.59174795    1.77780559
     atom  212 type  3   force =     0.22491620    1.59174770    1.77778330
     atom  213 type  3   force =     0.22491018    1.59174010    1.77779191
     atom  214 type  3   force =     0.22488743    1.59171409    1.77778022
     atom  215 type  3   force =     0.22490093    1.59173177    1.77778336
     atom  216 type  3   force =     0.22491197    1.59173994    1.77779067
     atom  217 type  1   force =    -4.59012288    5.13722538    1.62599817
     atom  218 type  1   force =    -4.59005142    5.13722933    1.62612606
     atom  219 type  1   force =    -4.59012189    5.13721171    1.62614485
     atom  220 type  1   force =    -4.59006188    5.13722119    1.62597118
     atom  221 type  1   force =    -4.59011870    5.13718031    1.62602616
     atom  222 type  1   force =    -4.59018983    5.13714566    1.62600816
     atom  223 type  1   force =    -4.59021687    5.13707127    1.62594105
     atom  224 type  1   force =    -4.59014364    5.13718531    1.62603921
     atom  225 type  2   force =     5.09708756    4.90037466   -1.84070792
     atom  226 type  2   force =     5.09710886    4.89899467   -1.83857987
     atom  227 type  2   force =     5.09716958    4.89892976   -1.83857542
     atom  228 type  2   force =     5.09712077    4.89894551   -1.83859880
     atom  229 type  2   force =     5.09708549    4.89891013   -1.83855284
     atom  230 type  2   force =     5.09713208    4.89890174   -1.83862355
     atom  231 type  2   force =     5.09706886    4.89895789   -1.83862578
     atom  232 type  2   force =     5.09713259    4.89895950   -1.83862860
     atom  233 type  3   force =    -1.62788598   -1.85956752   -0.71029819
     atom  234 type  3   force =    -1.62767784   -1.85946151   -0.71017870
     atom  235 type  3   force =    -1.62766891   -1.85947411   -0.71017606
     atom  236 type  3   force =    -1.62767772   -1.85947212   -0.71017983
     atom  237 type  3   force =    -1.62768194   -1.85947915   -0.71015862
     atom  238 type  3   force =    -1.62766963   -1.85947547   -0.71018474
     atom  239 type  3   force =    -1.62768591   -1.85945906   -0.71018827
     atom  240 type  3   force =    -1.62766826   -1.85946020   -0.71018228
     atom  241 type  1   force =     2.09133886    0.30089208   -3.09818522
     atom  242 type  1   force =     2.09125306    0.30100992   -3.09817069
     atom  243 type  1   force =     2.09133465    0.30108711   -3.09828004
     atom  244 type  1   force =     2.09125424    0.30105067   -3.09821744
     atom  245 type  1   force =     2.09118542    0.30108591   -3.09816805
     atom  246 type  1   force =     2.09136669    0.30106318   -3.09840762
     atom  247 type  1   force =     2.09126002    0.30101108   -3.09819050
     atom  248 type  1   force =     2.09130524    0.30100975   -3.09821053
     atom  249 type  1   force =    -0.72448288   12.38526986    1.18116330
     atom  250 type  1   force =    -0.72454726   12.38531975    1.18119027
     atom  251 type  1   force =    -0.72449232   12.38539284    1.18106291
     atom  252 type  1   force =    -0.72454325   12.38537825    1.18113613
     atom  253 type  1   force =    -0.72458825   12.38543607    1.18118121
     atom  254 type  1   force =    -0.72428748   12.38564572    1.18092894
     atom  255 type  1   force =    -0.72452031   12.38534547    1.18117438
     atom  256 type  1   force =    -0.72447603   12.38533818    1.18115378
     atom  257 type  2   force =     1.16480900   -2.48483220   -0.86992035
     atom  258 type  2   force =     1.16471146   -2.48460485   -0.87009192
     atom  259 type  2   force =     1.16478002   -2.48457095   -0.87015134
     atom  260 type  2   force =     1.16471329   -2.48459152   -0.87010032
     atom  261 type  2   force =     1.16456151   -2.48461599   -0.87002532
     atom  262 type  2   force =     1.16474473   -2.48460195   -0.87015040
     atom  263 type  2   force =     1.16470115   -2.48461429   -0.87009253
     atom  264 type  2   force =     1.16472831   -2.48461685   -0.87011430
     atom  265 type  2   force =     0.27005485   -5.07244482   -0.95415068
     atom  266 type  2   force =     0.26999540   -5.07232563   -0.95420265
     atom  267 type  2   force =     0.27004093   -5.07226947   -0.95428621
     atom  268 type  2   force =     0.26999743   -5.07229710   -0.95422619
     atom  269 type  2   force =     0.26986189   -5.07225317   -0.95414877
     atom  270 type  2   force =     0.27005913   -5.07226845   -0.95429506
     atom  271 type  2   force =     0.26999978   -5.07232347   -0.95420470
     atom  272 type  2   force =     0.27002514   -5.07232265   -0.95422315
     atom  273 type  2   force =     5.17660755   -3.24282423    2.48110374
     atom  274 type  2   force =     5.17663654   -3.24250622    2.48074134
     atom  275 type  2   force =     5.17666976   -3.24249594    2.48071418
     atom  276 type  2   force =     5.17663733   -3.24250538    2.48074351
     atom  277 type  2   force =     5.17646194   -3.24258492    2.48087629
     atom  278 type  2   force =     5.17665680   -3.24251234    2.48071236
     atom  279 type  2   force =     5.17662714   -3.24251466    2.48073968
     atom  280 type  2   force =     5.17664314   -3.24251915    2.48072934
     atom  281 type  3   force =     2.07346383   -0.76531013    1.25227934
     atom  282 type  3   force =     2.07349748   -0.76524334    1.25222031
     atom  283 type  3   force =     2.07350020   -0.76524050    1.25221592
     atom  284 type  3   force =     2.07349659   -0.76524256    1.25221960
     atom  285 type  3   force =     2.07344037   -0.76526967    1.25228529
     atom  286 type  3   force =     2.07350141   -0.76524032    1.25221476
     atom  287 type  3   force =     2.07349769   -0.76524264    1.25221945
     atom  288 type  3   force =     2.07349903   -0.76524354    1.25222051
     atom  289 type  2   force =     1.44633185   -5.98001713    0.61251518
     atom  290 type  2   force =     1.44594367   -5.97991760    0.61189018
     atom  291 type  2   force =     1.44602644   -5.97995145    0.61188047
     atom  292 type  2   force =     1.44595023   -5.97993799    0.61191008
     atom  293 type  2   force =     1.44587054   -5.97999613    0.61193109
     atom  294 type  2   force =     1.44596318   -5.97996338    0.61187338
     atom  295 type  2   force =     1.44591735   -5.97994308    0.61189103
     atom  296 type  2   force =     1.44595001   -5.97995899    0.61184886
     atom  297 type  3   force =    -0.02502459   -1.90003036    0.18246149
     atom  298 type  3   force =    -0.02514391   -1.90008312    0.18234175
     atom  299 type  3   force =    -0.02512389   -1.90009902    0.18234145
     atom  300 type  3   force =    -0.02514089   -1.90009326    0.18234819
     atom  301 type  3   force =    -0.02515504   -1.90010575    0.18235031
     atom  302 type  3   force =    -0.02513729   -1.90010053    0.18233960
     atom  303 type  3   force =    -0.02514962   -1.90009111    0.18234168
     atom  304 type  3   force =    -0.02514100   -1.90009558    0.18232693
     atom  305 type  1   force =    -1.47134545   -0.41644799    2.59192327
     atom  306 type  1   force =    -1.47137519   -0.41635110    2.59188044
     atom  307 type  1   force =    -1.47137552   -0.41628119    2.59178841
     atom  308 type  1   force =    -1.47137045   -0.41630040    2.59184674
     atom  309 type  1   force =    -1.47158076   -0.41614514    2.59196920
     atom  310 type  1   force =    -1.47130297   -0.41618841    2.59182190
     atom  311 type  1   force =    -1.47135201   -0.41632973    2.59188716
     atom  312 type  1   force =    -1.47133895   -0.41632715    2.59186729
     atom  313 type  1   force =     4.13259821   12.39088570    0.55450509
     atom  314 type  1   force =     4.13255450   12.39092288    0.55451026
     atom  315 type  1   force =     4.13256550   12.39099100    0.55440566
     atom  316 type  1   force =     4.13256081   12.39098960    0.55446394
     atom  317 type  1   force =     4.13246428   12.39112183    0.55453382
     atom  318 type  1   force =     4.13267578   12.39126725    0.55448417
     atom  319 type  1   force =     4.13258996   12.39096391    0.55450960
     atom  320 type  1   force =     4.13261293   12.39096177    0.55448768
     atom  321 type  2   force =    -2.77012179   -0.33944557   -3.52059971
     atom  322 type  2   force =    -2.77031251   -0.33928837   -3.52073355
     atom  323 type  2   force =    -2.77015896   -0.33925658   -3.52077705
     atom  324 type  2   force =    -2.77031118   -0.33927930   -3.52073619
     atom  325 type  2   force =    -2.77040161   -0.33931094   -3.52071205
     atom  326 type  2   force =    -2.77028997   -0.33930456   -3.52078804
     atom  327 type  2   force =    -2.77034092   -0.33931161   -3.52073009
     atom  328 type  2   force =    -2.77029690   -0.33931477   -3.52076804
     atom  329 type  3   force =    -1.59170888    0.22489045   -1.77777239
     atom  330 type  3   force =    -1.59174506    0.22491347   -1.77778269
     atom  331 type  3   force =    -1.59167078    0.22492824   -1.77778821
     atom  332 type  3   force =    -1.59174544    0.22491816   -1.77778519
     atom  333 type  3   force =    -1.59176303    0.22491259   -1.77778266
     atom  334 type  3   force =    -1.59173925    0.22491056   -1.77779962
     atom  335 type  3   force =    -1.59175419    0.22490641   -1.77778089
     atom  336 type  3   force =    -1.59174031    0.22490702   -1.77779169
     atom  337 type  1   force =    -5.13682756   -4.59023400   -1.62573454
     atom  338 type  1   force =    -5.13720649   -4.59010064   -1.62600124
     atom  339 type  1   force =    -5.13701940   -4.59014651   -1.62601098
     atom  340 type  1   force =    -5.13720341   -4.59010884   -1.62598749
     atom  341 type  1   force =    -5.13728799   -4.59016029   -1.62597285
     atom  342 type  1   force =    -5.13718393   -4.59014406   -1.62604209
     atom  343 type  1   force =    -5.13725486   -4.59013147   -1.62599422
     atom  344 type  1   force =    -5.13719387   -4.59014783   -1.62605680
     atom  345 type  2   force =    -4.89913174    5.09719007    1.83871675
     atom  346 type  2   force =    -4.89890155    5.09717930    1.83855657
     atom  347 type  2   force =    -4.89895895    5.09711325    1.83863351
     atom  348 type  2   force =    -4.89894085    5.09711428    1.83861660
     atom  349 type  2   force =    -4.89893767    5.09697957    1.83868730
     atom  350 type  2   force =    -4.89896768    5.09710627    1.83863205
     atom  351 type  2   force =    -4.89894065    5.09715604    1.83855353
     atom  352 type  2   force =    -4.89896572    5.09713587    1.83860983
     atom  353 type  3   force =     1.85939340   -1.62768534    0.71038663
     atom  354 type  3   force =     1.85946780   -1.62766449    0.71018061
     atom  355 type  3   force =     1.85947367   -1.62767532    0.71018256
     atom  356 type  3   force =     1.85946811   -1.62767456    0.71018653
     atom  357 type  3   force =     1.85944351   -1.62770475    0.71020459
     atom  358 type  3   force =     1.85946811   -1.62767975    0.71018192
     atom  359 type  3   force =     1.85946290   -1.62767233    0.71017956
     atom  360 type  3   force =     1.85946556   -1.62767513    0.71017777
     atom  361 type  1   force =    -2.09121522   -0.30106456   -3.09822555
     atom  362 type  1   force =    -2.09128998   -0.30103470   -3.09816525
     atom  363 type  1   force =    -2.09101234   -0.30083250   -3.09792505
     atom  364 type  1   force =    -2.09130384   -0.30098210   -3.09821694
     atom  365 type  1   force =    -2.09132289   -0.30102315   -3.09820405
     atom  366 type  1   force =    -2.09129895   -0.30106145   -3.09830207
     atom  367 type  1   force =    -2.09135359   -0.30109366   -3.09817960
     atom  368 type  1   force =    -2.09126991   -0.30106815   -3.09821323
     atom  369 type  1   force =     0.72477522  -12.38534504    1.18171007
     atom  370 type  1   force =     0.72449764  -12.38532969    1.18114378
     atom  371 type  1   force =     0.72459177  -12.38536858    1.18112182
     atom  372 type  1   force =     0.72450422  -12.38535483    1.18118269
     atom  373 type  1   force =     0.72439007  -12.38544242    1.18119140
     atom  374 type  1   force =     0.72451712  -12.38538960    1.18113463
     atom  375 type  1   force =     0.72446722  -12.38536421    1.18115420
     atom  376 type  1   force =     0.72449438  -12.38538626    1.18109169
     atom  377 type  2   force =    -1.16457050    2.48483905   -0.87014272
     atom  378 type  2   force =    -1.16478927    2.48467542   -0.87008598
     atom  379 type  2   force =    -1.16469698    2.48458322   -0.87010246
     atom  380 type  2   force =    -1.16472939    2.48458984   -0.87007665
     atom  381 type  2   force =    -1.16475361    2.48456417   -0.87007675
     atom  382 type  2   force =    -1.16470645    2.48453558   -0.87009133
     atom  383 type  2   force =    -1.16474940    2.48461546   -0.87011123
     atom  384 type  2   force =    -1.16472582    2.48461957   -0.87018652
     atom  385 type  2   force =    -0.26979386    5.07269504   -0.95388968
     atom  386 type  2   force =    -0.27004431    5.07236817   -0.95422094
     atom  387 type  2   force =    -0.26997801    5.07229259   -0.95422377
     atom  388 type  2   force =    -0.27001556    5.07230241   -0.95419289
     atom  389 type  2   force =    -0.27006215    5.07225489   -0.95418856
     atom  390 type  2   force =    -0.27000411    5.07226475   -0.95421903
     atom  391 type  2   force =    -0.27004306    5.07231665   -0.95422737
     atom  392 type  2   force =    -0.27002458    5.07230486   -0.95428667
     atom  393 type  2   force =    -5.17657201    3.24267776    2.48070987
     atom  394 type  2   force =    -5.17677092    3.24263733    2.48080516
     atom  395 type  2   force =    -5.17662590    3.24249758    2.48074362
     atom  396 type  2   force =    -5.17664248    3.24249836    2.48076119
     atom  397 type  2   force =    -5.17666259    3.24247311    2.48075910
     atom  398 type  2   force =    -5.17663857    3.24241678    2.48077081
     atom  399 type  2   force =    -5.17666173    3.24251959    2.48072723
     atom  400 type  2   force =    -5.17665166    3.24252732    2.48067728
     atom  401 type  3   force =    -2.07349580    0.76529271    1.25222728
     atom  402 type  3   force =    -2.07352829    0.76529686    1.25224205
     atom  403 type  3   force =    -2.07349467    0.76523988    1.25222296
     atom  404 type  3   force =    -2.07349604    0.76523991    1.25222539
     atom  405 type  3   force =    -2.07350302    0.76522941    1.25222516
     atom  406 type  3   force =    -2.07350164    0.76522275    1.25222800
     atom  407 type  3   force =    -2.07350288    0.76524458    1.25221542
     atom  408 type  3   force =    -2.07350332    0.76524519    1.25220982
     atom  409 type  2   force =    -1.44607619    5.97996656    0.61193471
     atom  410 type  2   force =    -1.44591969    5.97995071    0.61181121
     atom  411 type  2   force =    -1.44597778    5.97992533    0.61190856
     atom  412 type  2   force =    -1.44594323    5.97992570    0.61188183
     atom  413 type  2   force =    -1.44587747    5.97980104    0.61195649
     atom  414 type  2   force =    -1.44596963    5.97993330    0.61190964
     atom  415 type  2   force =    -1.44587817    5.97999393    0.61181187
     atom  416 type  2   force =    -1.44596988    5.97995665    0.61188871
     atom  417 type  3   force =     0.02510990    1.90009154    0.18235250
     atom  418 type  3   force =     0.02514417    1.90009026    0.18232809
     atom  419 type  3   force =     0.02513137    1.90008794    0.18234573
     atom  420 type  3   force =     0.02514135    1.90008821    0.18233803
     atom  421 type  3   force =     0.02517457    1.90004774    0.18237256
     atom  422 type  3   force =     0.02513635    1.90009287    0.18234583
     atom  423 type  3   force =     0.02516914    1.90010412    0.18233001
     atom  424 type  3   force =     0.02513654    1.90009618    0.18234307
     atom  425 type  1   force =     1.47120585    0.41701072    2.59309660
     atom  426 type  1   force =     1.47133542    0.41638624    2.59186269
     atom  427 type  1   force =     1.47138841    0.41629869    2.59186215
     atom  428 type  1   force =     1.47135331    0.41630580    2.59188566
     atom  429 type  1   force =     1.47127888    0.41621343    2.59192630
     atom  430 type  1   force =     1.47135918    0.41626265    2.59186125
     atom  431 type  1   force =     1.47131936    0.41632084    2.59184691
     atom  432 type  1   force =     1.47134448    0.41630999    2.59181614
     atom  433 type  1   force =    -4.13255642  -12.39109082    0.55566393
     atom  434 type  1   force =    -4.13259651  -12.39093674    0.55447516
     atom  435 type  1   force =    -4.13254089  -12.39098452    0.55446850
     atom  436 type  1   force =    -4.13258888  -12.39097713    0.55450407
     atom  437 type  1   force =    -4.13270805  -12.39108240    0.55456551
     atom  438 type  1   force =    -4.13258128  -12.39100959    0.55446842
     atom  439 type  1   force =    -4.13262066  -12.39097561    0.55447367
     atom  440 type  1   force =    -4.13259591  -12.39098768    0.55444379
     atom  441 type  2   force =     2.77039041    0.33938663   -3.52089936
     atom  442 type  2   force =     2.77024165    0.33933404   -3.52073467
     atom  443 type  2   force =     2.77032395    0.33926791   -3.52074659
     atom  444 type  2   force =     2.77028247    0.33927430   -3.52071958
     atom  445 type  2   force =     2.77027774    0.33926816   -3.52071636
     atom  446 type  2   force =     2.77033725    0.33922892   -3.52073861
     atom  447 type  2   force =     2.77027383    0.33931264   -3.52075002
     atom  448 type  2   force =     2.77035012    0.33934856   -3.52086039
     atom  449 type  3   force =     1.59175003   -0.22492343   -1.77778628
     atom  450 type  3   force =     1.59173677   -0.22491866   -1.77778047
     atom  451 type  3   force =     1.59176488   -0.22489030   -1.77783289
     atom  452 type  3   force =     1.59173193   -0.22490519   -1.77778597
     atom  453 type  3   force =     1.59173143   -0.22490571   -1.77778695
     atom  454 type  3   force =     1.59175847   -0.22489635   -1.77781549
     atom  455 type  3   force =     1.59173575   -0.22491950   -1.77777888
     atom  456 type  3   force =     1.59174976   -0.22492430   -1.77778725
     atom  457 type  1   force =     5.13721314    4.59009035   -1.62601740
     atom  458 type  1   force =     5.13715910    4.59009046   -1.62598038
     atom  459 type  1   force =     5.13722715    4.59013081   -1.62614738
     atom  460 type  1   force =     5.13710112    4.59015349   -1.62598680
     atom  461 type  1   force =     5.13716632    4.59014761   -1.62601154
     atom  462 type  1   force =     5.13734493    4.59023820   -1.62612218
     atom  463 type  1   force =     5.13717438    4.59010481   -1.62597589
     atom  464 type  1   force =     5.13727684    4.59001575   -1.62598419
     atom  465 type  2   force =     4.89892457   -5.09738706    1.83938143
     atom  466 type  2   force =     4.89894890   -5.09710410    1.83861333
     atom  467 type  2   force =     4.89898900   -5.09712390    1.83860347
     atom  468 type  2   force =     4.89895012   -5.09712290    1.83862987
     atom  469 type  2   force =     4.89882593   -5.09721608    1.83869688
     atom  470 type  2   force =     4.89895864   -5.09714333    1.83860158
     atom  471 type  2   force =     4.89893054   -5.09712604    1.83861164
     atom  472 type  2   force =     4.89894592   -5.09713564    1.83859362
     atom  473 type  3   force =    -1.85953923    1.62768527    0.71023468
     atom  474 type  3   force =    -1.85946103    1.62768494    0.71017378
     atom  475 type  3   force =    -1.85946807    1.62767160    0.71018587
     atom  476 type  3   force =    -1.85946558    1.62767173    0.71018366
     atom  477 type  3   force =    -1.85947315    1.62762878    0.71021158
     atom  478 type  3   force =    -1.85947001    1.62766985    0.71018524
     atom  479 type  3   force =    -1.85946673    1.62768000    0.71017232
     atom  480 type  3   force =    -1.85947031    1.62767591    0.71018142
     atom  481 type  4   force =     0.00039223   -0.00032640   -0.00008916
     atom  482 type  4   force =    -0.00010233   -0.00002728    0.00030287
     atom  483 type  4   force =     0.00041830    0.00028325    0.00010622
     atom  484 type  4   force =    -0.00010087    0.00011647   -0.00001047
     atom  485 type  4   force =    -0.00020241    0.00005925    0.00011695
     atom  486 type  4   force =    -0.00015940   -0.00042100   -0.00075078
     atom  487 type  4   force =    -0.00018483   -0.00012705    0.00006629
     atom  488 type  4   force =     0.00007302   -0.00009647    0.00002385
     atom  489 type  4   force =    -0.00015484   -0.00037687    0.00032132
     atom  490 type  4   force =    -0.00001128   -0.00021046    0.00001742
     atom  491 type  4   force =    -0.00020770    0.00006032   -0.00014592
     atom  492 type  4   force =    -0.00000713    0.00003611   -0.00007363
     atom  493 type  4   force =    -0.00431644    0.00331445    0.00209357
     atom  494 type  4   force =    -0.00002458    0.00032703    0.00007929
     atom  495 type  4   force =     0.00010384   -0.00007070    0.00011827
     atom  496 type  4   force =     0.00000419   -0.00004000    0.00005912
     The core correction contribution to forces
     atom    1 type  1   force =    -0.00311527    0.00438523    0.00260963
     atom    2 type  1   force =    -0.00311521    0.00438513    0.00260954
     atom    3 type  1   force =    -0.00311524    0.00438508    0.00260952
     atom    4 type  1   force =    -0.00311524    0.00438518    0.00260958
     atom    5 type  1   force =    -0.00311522    0.00438515    0.00260955
     atom    6 type  1   force =    -0.00311513    0.00438607    0.00260960
     atom    7 type  1   force =    -0.00311524    0.00438520    0.00260959
     atom    8 type  1   force =    -0.00311525    0.00438516    0.00260959
     atom    9 type  1   force =     0.01340069    0.00481507    0.00489607
     atom   10 type  1   force =     0.01340067    0.00481509    0.00489606
     atom   11 type  1   force =     0.01340065    0.00481505    0.00489603
     atom   12 type  1   force =     0.01340064    0.00481505    0.00489603
     atom   13 type  1   force =     0.01340091    0.00481541    0.00489599
     atom   14 type  1   force =     0.01340070    0.00481508    0.00489607
     atom   15 type  1   force =     0.01340069    0.00481509    0.00489607
     atom   16 type  1   force =     0.01340072    0.00481511    0.00489608
     atom   17 type  2   force =    -0.00643115    0.00179764    0.00006799
     atom   18 type  2   force =    -0.00643122    0.00179769    0.00006800
     atom   19 type  2   force =    -0.00643122    0.00179763    0.00006802
     atom   20 type  2   force =    -0.00643127    0.00179765    0.00006800
     atom   21 type  2   force =    -0.00644368    0.00176940    0.00005742
     atom   22 type  2   force =    -0.00643118    0.00179761    0.00006799
     atom   23 type  2   force =    -0.00643126    0.00179765    0.00006799
     atom   24 type  2   force =    -0.00643120    0.00179765    0.00006801
     atom   25 type  2   force =     0.00302134   -0.00019481    0.00027359
     atom   26 type  2   force =     0.00302131   -0.00019471    0.00027357
     atom   27 type  2   force =     0.00302136   -0.00019475    0.00027355
     atom   28 type  2   force =     0.00302122   -0.00019479    0.00027353
     atom   29 type  2   force =     0.00302072   -0.00019507    0.00027384
     atom   30 type  2   force =     0.00302133   -0.00019482    0.00027355
     atom   31 type  2   force =     0.00302125   -0.00019477    0.00027357
     atom   32 type  2   force =     0.00302131   -0.00019475    0.00027357
     atom   33 type  2   force =    -0.00223165    0.00258291    0.00030529
     atom   34 type  2   force =    -0.00233792    0.00277913    0.00032854
     atom   35 type  2   force =    -0.00233797    0.00277922    0.00032851
     atom   36 type  2   force =    -0.00233796    0.00277915    0.00032855
     atom   37 type  2   force =    -0.00233789    0.00277923    0.00032850
     atom   38 type  2   force =    -0.00233795    0.00277920    0.00032852
     atom   39 type  2   force =    -0.00233791    0.00277912    0.00032853
     atom   40 type  2   force =    -0.00233794    0.00277914    0.00032853
     atom   41 type  3   force =     0.00000000    0.00000000    0.00000000
     atom   42 type  3   force =     0.00000000    0.00000000    0.00000000
     atom   43 type  3   force =     0.00000000    0.00000000    0.00000000
     atom   44 type  3   force =     0.00000000    0.00000000    0.00000000
     atom   45 type  3   force =     0.00000000    0.00000000    0.00000000
     atom   46 type  3   force =     0.00000000    0.00000000    0.00000000
     atom   47 type  3   force =     0.00000000    0.00000000    0.00000000
     atom   48 type  3   force =     0.00000000    0.00000000    0.00000000
     atom   49 type  2   force =     0.00087549   -0.00156524    0.00038559
     atom   50 type  2   force =     0.00087751   -0.00157220    0.00038510
     atom   51 type  2   force =     0.00087738   -0.00157216    0.00038514
     atom   52 type  2   force =     0.00087747   -0.00157218    0.00038512
     atom   53 type  2   force =     0.00087749   -0.00157216    0.00038512
     atom   54 type  2   force =     0.00087745   -0.00157218    0.00038511
     atom   55 type  2   force =     0.00087758   -0.00157220    0.00038508
     atom   56 type  2   force =     0.00087746   -0.00157218    0.00038509
     atom   57 type  3   force =     0.00000000    0.00000000    0.00000000
     atom   58 type  3   force =     0.00000000    0.00000000    0.00000000
     atom   59 type  3   force =     0.00000000    0.00000000    0.00000000
     atom   60 type  3   force =     0.00000000    0.00000000    0.00000000
     atom   61 type  3   force =     0.00000000    0.00000000    0.00000000
     atom   62 type  3   force =     0.00000000    0.00000000    0.00000000
     atom   63 type  3   force =     0.00000000    0.00000000    0.00000000
     atom   64 type  3   force =     0.00000000    0.00000000    0.00000000
     atom   65 type  1   force =    -0.00325625   -0.00412429   -0.00297495
     atom   66 type  1   force =    -0.00325627   -0.00412426   -0.00297490
     atom   67 type  1   force =    -0.00325627   -0.00412431   -0.00297493
     atom   68 type  1   force =    -0.00325629   -0.00412432   -0.00297494
     atom   69 type  1   force =    -0.00325520   -0.00412226   -0.00297464
     atom   70 type  1   force =    -0.00325626   -0.00412432   -0.00297493
     atom   71 type  1   force =    -0.00325627   -0.00412427   -0.00297492
     atom   72 type  1   force =    -0.00325625   -0.00412426   -0.00297490
     atom   73 type  1   force =     0.01284252   -0.00666369   -0.00256029
     atom   74 type  1   force =     0.01284246   -0.00666363   -0.00256026
     atom   75 type  1   force =     0.01284252   -0.00666369   -0.00256029
     atom   76 type  1   force =     0.01284250   -0.00666370   -0.00256029
     atom   77 type  1   force =     0.01284318   -0.00666358   -0.00256029
     atom   78 type  1   force =     0.01284250   -0.00666368   -0.00256028
     atom   79 type  1   force =     0.01284246   -0.00666364   -0.00256027
     atom   80 type  1   force =     0.01284248   -0.00666365   -0.00256026
     atom   81 type  2   force =    -0.00172107   -0.00232287    0.00022361
     atom   82 type  2   force =    -0.00172107   -0.00232281    0.00022357
     atom   83 type  2   force =    -0.00172106   -0.00232287    0.00022361
     atom   84 type  2   force =    -0.00172112   -0.00232287    0.00022361
     atom   85 type  2   force =    -0.00171800   -0.00233090    0.00022409
     atom   86 type  2   force =    -0.00172104   -0.00232285    0.00022361
     atom   87 type  2   force =    -0.00172111   -0.00232290    0.00022359
     atom   88 type  2   force =    -0.00172107   -0.00232287    0.00022359
     atom   89 type  3   force =     0.00000000    0.00000000    0.00000000
     atom   90 type  3   force =     0.00000000    0.00000000    0.00000000
     atom   91 type  3   force =     0.00000000    0.00000000    0.00000000
     atom   92 type  3   force =     0.00000000    0.00000000    0.00000000
     atom   93 type  3   force =     0.00000000    0.00000000    0.00000000
     atom   94 type  3   force =     0.00000000    0.00000000    0.00000000
     atom   95 type  3   force =     0.00000000    0.00000000    0.00000000
     atom   96 type  3   force =     0.00000000    0.00000000    0.00000000
     atom   97 type  1   force =    -0.00403858    0.01083139   -0.00097751
     atom   98 type  1   force =    -0.00403854    0.01083132   -0.00097753
     atom   99 type  1   force =    -0.00403858    0.01083135   -0.00097752
     atom  100 type  1   force =    -0.00403854    0.01083134   -0.00097751
     atom  101 type  1   force =    -0.00403854    0.01083132   -0.00097753
     atom  102 type  1   force =    -0.00403781    0.01083148   -0.00098194
     atom  103 type  1   force =    -0.00403856    0.01083133   -0.00097752
     atom  104 type  1   force =    -0.00403859    0.01083132   -0.00097752
     atom  105 type  2   force =    -0.00228970   -0.00379978   -0.00000094
     atom  106 type  2   force =    -0.00229027   -0.00380054   -0.00000107
     atom  107 type  2   force =    -0.00229031   -0.00380047   -0.00000109
     atom  108 type  2   force =    -0.00229028   -0.00380044   -0.00000105
     atom  109 type  2   force =    -0.00229029   -0.00380047   -0.00000110
     atom  110 type  2   force =    -0.00229029   -0.00380042   -0.00000107
     atom  111 type  2   force =    -0.00229031   -0.00380055   -0.00000106
     atom  112 type  2   force =    -0.00229030   -0.00380058   -0.00000108
     atom  113 type  3   force =     0.00000000    0.00000000    0.00000000
     atom  114 type  3   force =     0.00000000    0.00000000    0.00000000
     atom  115 type  3   force =     0.00000000    0.00000000    0.00000000
     atom  116 type  3   force =     0.00000000    0.00000000    0.00000000
     atom  117 type  3   force =     0.00000000    0.00000000    0.00000000
     atom  118 type  3   force =     0.00000000    0.00000000    0.00000000
     atom  119 type  3   force =     0.00000000    0.00000000    0.00000000
     atom  120 type  3   force =     0.00000000    0.00000000    0.00000000
     atom  121 type  1   force =     0.00311487   -0.00438518    0.00260955
     atom  122 type  1   force =     0.00311526   -0.00438518    0.00260956
     atom  123 type  1   force =     0.00311518   -0.00438507    0.00260950
     atom  124 type  1   force =     0.00311523   -0.00438517    0.00260958
     atom  125 type  1   force =     0.00311525   -0.00438512    0.00260954
     atom  126 type  1   force =     0.00311518   -0.00438509    0.00260952
     atom  127 type  1   force =     0.00311527   -0.00438515    0.00260957
     atom  128 type  1   force =     0.00311525   -0.00438519    0.00260960
     atom  129 type  1   force =    -0.01340089   -0.00481532    0.00489587
     atom  130 type  1   force =    -0.01340069   -0.00481509    0.00489608
     atom  131 type  1   force =    -0.01340073   -0.00481507    0.00489607
     atom  132 type  1   force =    -0.01340069   -0.00481508    0.00489606
     atom  133 type  1   force =    -0.01340064   -0.00481504    0.00489604
     atom  134 type  1   force =    -0.01340084   -0.00481517    0.00489609
     atom  135 type  1   force =    -0.01340067   -0.00481509    0.00489606
     atom  136 type  1   force =    -0.01340071   -0.00481511    0.00489607
     atom  137 type  2   force =     0.00643100   -0.00179766    0.00006800
     atom  138 type  2   force =     0.00643124   -0.00179769    0.00006798
     atom  139 type  2   force =     0.00643121   -0.00179759    0.00006798
     atom  140 type  2   force =     0.00643122   -0.00179759    0.00006801
     atom  141 type  2   force =     0.00643122   -0.00179758    0.00006799
     atom  142 type  2   force =     0.00643112   -0.00179763    0.00006803
     atom  143 type  2   force =     0.00643139   -0.00179753    0.00006804
     atom  144 type  2   force =     0.00643122   -0.00179764    0.00006800
     atom  145 type  2   force =    -0.00302140    0.00019445    0.00027346
     atom  146 type  2   force =    -0.00302125    0.00019476    0.00027355
     atom  147 type  2   force =    -0.00302135    0.00019480    0.00027352
     atom  148 type  2   force =    -0.00302133    0.00019475    0.00027356
     atom  149 type  2   force =    -0.00302127    0.00019483    0.00027352
     atom  150 type  2   force =    -0.00302137    0.00019478    0.00027356
     atom  151 type  2   force =    -0.00302112    0.00019473    0.00027355
     atom  152 type  2   force =    -0.00302130    0.00019476    0.00027358
     atom  153 type  2   force =     0.00233793   -0.00277911    0.00032850
     atom  154 type  2   force =     0.00233793   -0.00277909    0.00032853
     atom  155 type  2   force =     0.00233835   -0.00277922    0.00032849
     atom  156 type  2   force =     0.00233795   -0.00277918    0.00032849
     atom  157 type  2   force =     0.00233801   -0.00277947    0.00032854
     atom  158 type  2   force =     0.00233794   -0.00277924    0.00032848
     atom  159 type  2   force =     0.00233790   -0.00277911    0.00032856
     atom  160 type  2   force =     0.00233791   -0.00277914    0.00032854
     atom  161 type  3   force =     0.00000000    0.00000000    0.00000000
     atom  162 type  3   force =     0.00000000    0.00000000    0.00000000
     atom  163 type  3   force =     0.00000000    0.00000000    0.00000000
     atom  164 type  3   force =     0.00000000    0.00000000    0.00000000
     atom  165 type  3   force =     0.00000000    0.00000000    0.00000000
     atom  166 type  3   force =     0.00000000    0.00000000    0.00000000
     atom  167 type  3   force =     0.00000000    0.00000000    0.00000000
     atom  168 type  3   force =     0.00000000    0.00000000    0.00000000
     atom  169 type  2   force =    -0.00087737    0.00157237    0.00038514
     atom  170 type  2   force =    -0.00087745    0.00157212    0.00038511
     atom  171 type  2   force =    -0.00087748    0.00157221    0.00038509
     atom  172 type  2   force =    -0.00087744    0.00157223    0.00038511
     atom  173 type  2   force =    -0.00087742    0.00157220    0.00038511
     atom  174 type  2   force =    -0.00087742    0.00157222    0.00038512
     atom  175 type  2   force =    -0.00087747    0.00157213    0.00038510
     atom  176 type  2   force =    -0.00087751    0.00157216    0.00038512
     atom  177 type  3   force =     0.00000000    0.00000000    0.00000000
     atom  178 type  3   force =     0.00000000    0.00000000    0.00000000
     atom  179 type  3   force =     0.00000000    0.00000000    0.00000000
     atom  180 type  3   force =     0.00000000    0.00000000    0.00000000
     atom  181 type  3   force =     0.00000000    0.00000000    0.00000000
     atom  182 type  3   force =     0.00000000    0.00000000    0.00000000
     atom  183 type  3   force =     0.00000000    0.00000000    0.00000000
     atom  184 type  3   force =     0.00000000    0.00000000    0.00000000
     atom  185 type  1   force =     0.00325494    0.00412288   -0.00297443
     atom  186 type  1   force =     0.00325627    0.00412427   -0.00297489
     atom  187 type  1   force =     0.00325627    0.00412436   -0.00297496
     atom  188 type  1   force =     0.00325627    0.00412431   -0.00297494
     atom  189 type  1   force =     0.00325631    0.00412438   -0.00297498
     atom  190 type  1   force =     0.00325622    0.00412429   -0.00297487
     atom  191 type  1   force =     0.00325628    0.00412421   -0.00297488
     atom  192 type  1   force =     0.00325626    0.00412426   -0.00297489
     atom  193 type  1   force =    -0.01284407    0.00666509   -0.00256035
     atom  194 type  1   force =    -0.01284245    0.00666364   -0.00256027
     atom  195 type  1   force =    -0.01284253    0.00666371   -0.00256029
     atom  196 type  1   force =    -0.01284249    0.00666366   -0.00256028
     atom  197 type  1   force =    -0.01284247    0.00666368   -0.00256028
     atom  198 type  1   force =    -0.01284248    0.00666365   -0.00256023
     atom  199 type  1   force =    -0.01284244    0.00666362   -0.00256026
     atom  200 type  1   force =    -0.01284248    0.00666364   -0.00256027
     atom  201 type  2   force =     0.00172101    0.00232287    0.00022360
     atom  202 type  2   force =     0.00172105    0.00232279    0.00022357
     atom  203 type  2   force =     0.00172108    0.00232289    0.00022363
     atom  204 type  2   force =     0.00172106    0.00232289    0.00022360
     atom  205 type  2   force =     0.00172108    0.00232289    0.00022363
     atom  206 type  2   force =     0.00172119    0.00232308    0.00022361
     atom  207 type  2   force =     0.00172123    0.00232296    0.00022360
     atom  208 type  2   force =     0.00172109    0.00232286    0.00022359
     atom  209 type  3   force =     0.00000000    0.00000000    0.00000000
     atom  210 type  3   force =     0.00000000    0.00000000    0.00000000
     atom  211 type  3   force =     0.00000000    0.00000000    0.00000000
     atom  212 type  3   force =     0.00000000    0.00000000    0.00000000
     atom  213 type  3   force =     0.00000000    0.00000000    0.00000000
     atom  214 type  3   force =     0.00000000    0.00000000    0.00000000
     atom  215 type  3   force =     0.00000000    0.00000000    0.00000000
     atom  216 type  3   force =     0.00000000    0.00000000    0.00000000
     atom  217 type  1   force =     0.00403855   -0.01083133   -0.00097752
     atom  218 type  1   force =     0.00403856   -0.01083139   -0.00097754
     atom  219 type  1   force =     0.00403857   -0.01083132   -0.00097755
     atom  220 type  1   force =     0.00403849   -0.01083110   -0.00097749
     atom  221 type  1   force =     0.00403856   -0.01083130   -0.00097752
     atom  222 type  1   force =     0.00403856   -0.01083125   -0.00097751
     atom  223 type  1   force =     0.00403860   -0.01083119   -0.00097750
     atom  224 type  1   force =     0.00403857   -0.01083134   -0.00097752
     atom  225 type  2   force =     0.00226645    0.00380940   -0.00001475
     atom  226 type  2   force =     0.00229029    0.00380047   -0.00000105
     atom  227 type  2   force =     0.00229025    0.00380052   -0.00000110
     atom  228 type  2   force =     0.00229027    0.00380049   -0.00000106
     atom  229 type  2   force =     0.00229032    0.00380055   -0.00000109
     atom  230 type  2   force =     0.00229028    0.00380053   -0.00000106
     atom  231 type  2   force =     0.00229032    0.00380051   -0.00000105
     atom  232 type  2   force =     0.00229024    0.00380049   -0.00000105
     atom  233 type  3   force =     0.00000000    0.00000000    0.00000000
     atom  234 type  3   force =     0.00000000    0.00000000    0.00000000
     atom  235 type  3   force =     0.00000000    0.00000000    0.00000000
     atom  236 type  3   force =     0.00000000    0.00000000    0.00000000
     atom  237 type  3   force =     0.00000000    0.00000000    0.00000000
     atom  238 type  3   force =     0.00000000    0.00000000    0.00000000
     atom  239 type  3   force =     0.00000000    0.00000000    0.00000000
     atom  240 type  3   force =     0.00000000    0.00000000    0.00000000
     atom  241 type  1   force =     0.00438507    0.00311532   -0.00260955
     atom  242 type  1   force =     0.00438520    0.00311525   -0.00260960
     atom  243 type  1   force =     0.00438502    0.00311519   -0.00260952
     atom  244 type  1   force =     0.00438519    0.00311524   -0.00260959
     atom  245 type  1   force =     0.00438532    0.00311525   -0.00260969
     atom  246 type  1   force =     0.00438508    0.00311519   -0.00260954
     atom  247 type  1   force =     0.00438521    0.00311525   -0.00260960
     atom  248 type  1   force =     0.00438517    0.00311524   -0.00260958
     atom  249 type  1   force =     0.00481507   -0.01340061   -0.00489603
     atom  250 type  1   force =     0.00481508   -0.01340069   -0.00489606
     atom  251 type  1   force =     0.00481506   -0.01340070   -0.00489606
     atom  252 type  1   force =     0.00481509   -0.01340071   -0.00489607
     atom  253 type  1   force =     0.00481520   -0.01340078   -0.00489614
     atom  254 type  1   force =     0.00481511   -0.01340074   -0.00489609
     atom  255 type  1   force =     0.00481509   -0.01340069   -0.00489607
     atom  256 type  1   force =     0.00481509   -0.01340069   -0.00489607
     atom  257 type  2   force =     0.00179752    0.00643151   -0.00006812
     atom  258 type  2   force =     0.00179764    0.00643122   -0.00006803
     atom  259 type  2   force =     0.00179759    0.00643118   -0.00006802
     atom  260 type  2   force =     0.00179766    0.00643122   -0.00006802
     atom  261 type  2   force =     0.00179777    0.00643126   -0.00006806
     atom  262 type  2   force =     0.00179763    0.00643119   -0.00006803
     atom  263 type  2   force =     0.00179765    0.00643125   -0.00006806
     atom  264 type  2   force =     0.00179764    0.00643124   -0.00006801
     atom  265 type  2   force =    -0.00019474   -0.00302099   -0.00027348
     atom  266 type  2   force =    -0.00019474   -0.00302130   -0.00027358
     atom  267 type  2   force =    -0.00019481   -0.00302133   -0.00027355
     atom  268 type  2   force =    -0.00019477   -0.00302130   -0.00027355
     atom  269 type  2   force =    -0.00019460   -0.00302119   -0.00027367
     atom  270 type  2   force =    -0.00019479   -0.00302133   -0.00027353
     atom  271 type  2   force =    -0.00019475   -0.00302128   -0.00027355
     atom  272 type  2   force =    -0.00019474   -0.00302128   -0.00027355
     atom  273 type  2   force =     0.00277926    0.00233825   -0.00032853
     atom  274 type  2   force =     0.00277921    0.00233794   -0.00032855
     atom  275 type  2   force =     0.00277910    0.00233795   -0.00032854
     atom  276 type  2   force =     0.00277917    0.00233793   -0.00032852
     atom  277 type  2   force =     0.00277928    0.00233800   -0.00032841
     atom  278 type  2   force =     0.00277919    0.00233795   -0.00032853
     atom  279 type  2   force =     0.00277913    0.00233790   -0.00032852
     atom  280 type  2   force =     0.00277915    0.00233792   -0.00032852
     atom  281 type  3   force =     0.00000000    0.00000000    0.00000000
     atom  282 type  3   force =     0.00000000    0.00000000    0.00000000
     atom  283 type  3   force =     0.00000000    0.00000000    0.00000000
     atom  284 type  3   force =     0.00000000    0.00000000    0.00000000
     atom  285 type  3   force =     0.00000000    0.00000000    0.00000000
     atom  286 type  3   force =     0.00000000    0.00000000    0.00000000
     atom  287 type  3   force =     0.00000000    0.00000000    0.00000000
     atom  288 type  3   force =     0.00000000    0.00000000    0.00000000
     atom  289 type  2   force =    -0.00157248   -0.00087753   -0.00038556
     atom  290 type  2   force =    -0.00157218   -0.00087754   -0.00038511
     atom  291 type  2   force =    -0.00157222   -0.00087739   -0.00038511
     atom  292 type  2   force =    -0.00157216   -0.00087746   -0.00038510
     atom  293 type  2   force =    -0.00157216   -0.00087742   -0.00038508
     atom  294 type  2   force =    -0.00157218   -0.00087742   -0.00038510
     atom  295 type  2   force =    -0.00157216   -0.00087747   -0.00038511
     atom  296 type  2   force =    -0.00157221   -0.00087751   -0.00038511
     atom  297 type  3   force =     0.00000000    0.00000000    0.00000000
     atom  298 type  3   force =     0.00000000    0.00000000    0.00000000
     atom  299 type  3   force =     0.00000000    0.00000000    0.00000000
     atom  300 type  3   force =     0.00000000    0.00000000    0.00000000
     atom  301 type  3   force =     0.00000000    0.00000000    0.00000000
     atom  302 type  3   force =     0.00000000    0.00000000    0.00000000
     atom  303 type  3   force =     0.00000000    0.00000000    0.00000000
     atom  304 type  3   force =     0.00000000    0.00000000    0.00000000
     atom  305 type  1   force =    -0.00412417    0.00325634    0.00297485
     atom  306 type  1   force =    -0.00412430    0.00325627    0.00297493
     atom  307 type  1   force =    -0.00412434    0.00325626    0.00297496
     atom  308 type  1   force =    -0.00412427    0.00325625    0.00297490
     atom  309 type  1   force =    -0.00412380    0.00325607    0.00297460
     atom  310 type  1   force =    -0.00412427    0.00325622    0.00297491
     atom  311 type  1   force =    -0.00412428    0.00325627    0.00297490
     atom  312 type  1   force =    -0.00412428    0.00325627    0.00297492
     atom  313 type  1   force =    -0.00666362   -0.01284239    0.00256024
     atom  314 type  1   force =    -0.00666365   -0.01284246    0.00256027
     atom  315 type  1   force =    -0.00666371   -0.01284253    0.00256030
     atom  316 type  1   force =    -0.00666365   -0.01284249    0.00256027
     atom  317 type  1   force =    -0.00666363   -0.01284261    0.00256025
     atom  318 type  1   force =    -0.00666373   -0.01284256    0.00256032
     atom  319 type  1   force =    -0.00666364   -0.01284246    0.00256026
     atom  320 type  1   force =    -0.00666365   -0.01284247    0.00256026
     atom  321 type  2   force =    -0.00232302    0.00172124   -0.00022365
     atom  322 type  2   force =    -0.00232287    0.00172104   -0.00022360
     atom  323 type  2   force =    -0.00232315    0.00172131   -0.00022369
     atom  324 type  2   force =    -0.00232287    0.00172106   -0.00022360
     atom  325 type  2   force =    -0.00232278    0.00172110   -0.00022359
     atom  326 type  2   force =    -0.00232291    0.00172112   -0.00022361
     atom  327 type  2   force =    -0.00232283    0.00172106   -0.00022361
     atom  328 type  2   force =    -0.00232287    0.00172108   -0.00022364
     atom  329 type  3   force =     0.00000000    0.00000000    0.00000000
     atom  330 type  3   force =     0.00000000    0.00000000    0.00000000
     atom  331 type  3   force =     0.00000000    0.00000000    0.00000000
     atom  332 type  3   force =     0.00000000    0.00000000    0.00000000
     atom  333 type  3   force =     0.00000000    0.00000000    0.00000000
     atom  334 type  3   force =     0.00000000    0.00000000    0.00000000
     atom  335 type  3   force =     0.00000000    0.00000000    0.00000000
     atom  336 type  3   force =     0.00000000    0.00000000    0.00000000
     atom  337 type  1   force =     0.01083098    0.00403854    0.00097744
     atom  338 type  1   force =     0.01083133    0.00403855    0.00097752
     atom  339 type  1   force =     0.01083131    0.00403860    0.00097751
     atom  340 type  1   force =     0.01083133    0.00403856    0.00097752
     atom  341 type  1   force =     0.01083141    0.00403861    0.00097751
     atom  342 type  1   force =     0.01083131    0.00403856    0.00097751
     atom  343 type  1   force =     0.01083135    0.00403855    0.00097752
     atom  344 type  1   force =     0.01083130    0.00403855    0.00097752
     atom  345 type  2   force =    -0.00380024    0.00229009    0.00000101
     atom  346 type  2   force =    -0.00380048    0.00229011    0.00000109
     atom  347 type  2   force =    -0.00380052    0.00229031    0.00000108
     atom  348 type  2   force =    -0.00380054    0.00229030    0.00000106
     atom  349 type  2   force =    -0.00380056    0.00229034    0.00000111
     atom  350 type  2   force =    -0.00380050    0.00229038    0.00000107
     atom  351 type  2   force =    -0.00380053    0.00229022    0.00000107
     atom  352 type  2   force =    -0.00380048    0.00229029    0.00000107
     atom  353 type  3   force =     0.00000000    0.00000000    0.00000000
     atom  354 type  3   force =     0.00000000    0.00000000    0.00000000
     atom  355 type  3   force =     0.00000000    0.00000000    0.00000000
     atom  356 type  3   force =     0.00000000    0.00000000    0.00000000
     atom  357 type  3   force =     0.00000000    0.00000000    0.00000000
     atom  358 type  3   force =     0.00000000    0.00000000    0.00000000
     atom  359 type  3   force =     0.00000000    0.00000000    0.00000000
     atom  360 type  3   force =     0.00000000    0.00000000    0.00000000
     atom  361 type  1   force =    -0.00438526   -0.00311525   -0.00260961
     atom  362 type  1   force =    -0.00438519   -0.00311524   -0.00260960
     atom  363 type  1   force =    -0.00438564   -0.00311539   -0.00260985
     atom  364 type  1   force =    -0.00438515   -0.00311525   -0.00260957
     atom  365 type  1   force =    -0.00438512   -0.00311523   -0.00260957
     atom  366 type  1   force =    -0.00438513   -0.00311521   -0.00260952
     atom  367 type  1   force =    -0.00438514   -0.00311520   -0.00260956
     atom  368 type  1   force =    -0.00438517   -0.00311525   -0.00260957
     atom  369 type  1   force =    -0.00481545    0.01340093   -0.00489616
     atom  370 type  1   force =    -0.00481508    0.01340069   -0.00489606
     atom  371 type  1   force =    -0.00481513    0.01340074   -0.00489610
     atom  372 type  1   force =    -0.00481509    0.01340070   -0.00489607
     atom  373 type  1   force =    -0.00481509    0.01340071   -0.00489605
     atom  374 type  1   force =    -0.00481508    0.01340067   -0.00489606
     atom  375 type  1   force =    -0.00481508    0.01340070   -0.00489607
     atom  376 type  1   force =    -0.00481509    0.01340073   -0.00489608
     atom  377 type  2   force =    -0.00179774   -0.00643170   -0.00006799
     atom  378 type  2   force =    -0.00179762   -0.00643126   -0.00006800
     atom  379 type  2   force =    -0.00179764   -0.00643122   -0.00006802
     atom  380 type  2   force =    -0.00179765   -0.00643123   -0.00006800
     atom  381 type  2   force =    -0.00179764   -0.00643118   -0.00006800
     atom  382 type  2   force =    -0.00179764   -0.00643123   -0.00006800
     atom  383 type  2   force =    -0.00179762   -0.00643123   -0.00006803
     atom  384 type  2   force =    -0.00179766   -0.00643124   -0.00006799
     atom  385 type  2   force =     0.00019426    0.00302073   -0.00027355
     atom  386 type  2   force =     0.00019478    0.00302121   -0.00027356
     atom  387 type  2   force =     0.00019473    0.00302134   -0.00027357
     atom  388 type  2   force =     0.00019478    0.00302133   -0.00027353
     atom  389 type  2   force =     0.00019478    0.00302137   -0.00027354
     atom  390 type  2   force =     0.00019476    0.00302133   -0.00027357
     atom  391 type  2   force =     0.00019477    0.00302128   -0.00027353
     atom  392 type  2   force =     0.00019481    0.00302132   -0.00027357
     atom  393 type  2   force =    -0.00277912   -0.00233813   -0.00032844
     atom  394 type  2   force =    -0.00277911   -0.00233799   -0.00032853
     atom  395 type  2   force =    -0.00277919   -0.00233792   -0.00032854
     atom  396 type  2   force =    -0.00277915   -0.00233790   -0.00032857
     atom  397 type  2   force =    -0.00277908   -0.00233781   -0.00032858
     atom  398 type  2   force =    -0.00277916   -0.00233790   -0.00032854
     atom  399 type  2   force =    -0.00277914   -0.00233793   -0.00032852
     atom  400 type  2   force =    -0.00277915   -0.00233796   -0.00032850
     atom  401 type  3   force =     0.00000000    0.00000000    0.00000000
     atom  402 type  3   force =     0.00000000    0.00000000    0.00000000
     atom  403 type  3   force =     0.00000000    0.00000000    0.00000000
     atom  404 type  3   force =     0.00000000    0.00000000    0.00000000
     atom  405 type  3   force =     0.00000000    0.00000000    0.00000000
     atom  406 type  3   force =     0.00000000    0.00000000    0.00000000
     atom  407 type  3   force =     0.00000000    0.00000000    0.00000000
     atom  408 type  3   force =     0.00000000    0.00000000    0.00000000
     atom  409 type  2   force =     0.00157223    0.00087745   -0.00038510
     atom  410 type  2   force =     0.00157216    0.00087733   -0.00038515
     atom  411 type  2   force =     0.00157218    0.00087753   -0.00038513
     atom  412 type  2   force =     0.00157215    0.00087750   -0.00038512
     atom  413 type  2   force =     0.00157221    0.00087760   -0.00038513
     atom  414 type  2   force =     0.00157221    0.00087750   -0.00038512
     atom  415 type  2   force =     0.00157213    0.00087730   -0.00038513
     atom  416 type  2   force =     0.00157220    0.00087747   -0.00038510
     atom  417 type  3   force =     0.00000000    0.00000000    0.00000000
     atom  418 type  3   force =     0.00000000    0.00000000    0.00000000
     atom  419 type  3   force =     0.00000000    0.00000000    0.00000000
     atom  420 type  3   force =     0.00000000    0.00000000    0.00000000
     atom  421 type  3   force =     0.00000000    0.00000000    0.00000000
     atom  422 type  3   force =     0.00000000    0.00000000    0.00000000
     atom  423 type  3   force =     0.00000000    0.00000000    0.00000000
     atom  424 type  3   force =     0.00000000    0.00000000    0.00000000
     atom  425 type  1   force =     0.00412384   -0.00325604    0.00297371
     atom  426 type  1   force =     0.00412429   -0.00325628    0.00297492
     atom  427 type  1   force =     0.00412424   -0.00325623    0.00297486
     atom  428 type  1   force =     0.00412428   -0.00325626    0.00297491
     atom  429 type  1   force =     0.00412432   -0.00325624    0.00297491
     atom  430 type  1   force =     0.00412430   -0.00325628    0.00297493
     atom  431 type  1   force =     0.00412431   -0.00325628    0.00297494
     atom  432 type  1   force =     0.00412430   -0.00325627    0.00297492
     atom  433 type  1   force =     0.00666364    0.01284255    0.00256012
     atom  434 type  1   force =     0.00666366    0.01284247    0.00256027
     atom  435 type  1   force =     0.00666363    0.01284247    0.00256025
     atom  436 type  1   force =     0.00666365    0.01284249    0.00256027
     atom  437 type  1   force =     0.00666371    0.01284256    0.00256030
     atom  438 type  1   force =     0.00666366    0.01284247    0.00256027
     atom  439 type  1   force =     0.00666366    0.01284247    0.00256027
     atom  440 type  1   force =     0.00666367    0.01284249    0.00256027
     atom  441 type  2   force =     0.00232268   -0.00172114   -0.00022362
     atom  442 type  2   force =     0.00232292   -0.00172114   -0.00022361
     atom  443 type  2   force =     0.00232282   -0.00172102   -0.00022358
     atom  444 type  2   force =     0.00232287   -0.00172106   -0.00022356
     atom  445 type  2   force =     0.00232292   -0.00172103   -0.00022362
     atom  446 type  2   force =     0.00232289   -0.00172110   -0.00022360
     atom  447 type  2   force =     0.00232293   -0.00172115   -0.00022360
     atom  448 type  2   force =     0.00232286   -0.00172112   -0.00022355
     atom  449 type  3   force =     0.00000000    0.00000000    0.00000000
     atom  450 type  3   force =     0.00000000    0.00000000    0.00000000
     atom  451 type  3   force =     0.00000000    0.00000000    0.00000000
     atom  452 type  3   force =     0.00000000    0.00000000    0.00000000
     atom  453 type  3   force =     0.00000000    0.00000000    0.00000000
     atom  454 type  3   force =     0.00000000    0.00000000    0.00000000
     atom  455 type  3   force =     0.00000000    0.00000000    0.00000000
     atom  456 type  3   force =     0.00000000    0.00000000    0.00000000
     atom  457 type  1   force =    -0.01083134   -0.00403854    0.00097752
     atom  458 type  1   force =    -0.01083129   -0.00403854    0.00097751
     atom  459 type  1   force =    -0.01083146   -0.00403865    0.00097755
     atom  460 type  1   force =    -0.01083127   -0.00403857    0.00097752
     atom  461 type  1   force =    -0.01083131   -0.00403858    0.00097752
     atom  462 type  1   force =    -0.01083144   -0.00403863    0.00097756
     atom  463 type  1   force =    -0.01083129   -0.00403853    0.00097751
     atom  464 type  1   force =    -0.01083131   -0.00403854    0.00097752
     atom  465 type  2   force =     0.00380037   -0.00229034    0.00000107
     atom  466 type  2   force =     0.00380052   -0.00229034    0.00000109
     atom  467 type  2   force =     0.00380051   -0.00229029    0.00000108
     atom  468 type  2   force =     0.00380050   -0.00229028    0.00000103
     atom  469 type  2   force =     0.00380047   -0.00229016    0.00000106
     atom  470 type  2   force =     0.00380049   -0.00229028    0.00000106
     atom  471 type  2   force =     0.00380053   -0.00229028    0.00000106
     atom  472 type  2   force =     0.00380050   -0.00229030    0.00000108
     atom  473 type  3   force =     0.00000000    0.00000000    0.00000000
     atom  474 type  3   force =     0.00000000    0.00000000    0.00000000
     atom  475 type  3   force =     0.00000000    0.00000000    0.00000000
     atom  476 type  3   force =     0.00000000    0.00000000    0.00000000
     atom  477 type  3   force =     0.00000000    0.00000000    0.00000000
     atom  478 type  3   force =     0.00000000    0.00000000    0.00000000
     atom  479 type  3   force =     0.00000000    0.00000000    0.00000000
     atom  480 type  3   force =     0.00000000    0.00000000    0.00000000
     atom  481 type  4   force =     0.00000000    0.00000000    0.00000000
     atom  482 type  4   force =     0.00000000    0.00000000    0.00000000
     atom  483 type  4   force =     0.00000000    0.00000000    0.00000000
     atom  484 type  4   force =     0.00000000    0.00000000    0.00000000
     atom  485 type  4   force =     0.00000000    0.00000000    0.00000000
     atom  486 type  4   force =     0.00000000    0.00000000    0.00000000
     atom  487 type  4   force =     0.00000000    0.00000000    0.00000000
     atom  488 type  4   force =     0.00000000    0.00000000    0.00000000
     atom  489 type  4   force =     0.00000000    0.00000000    0.00000000
     atom  490 type  4   force =     0.00000000    0.00000000    0.00000000
     atom  491 type  4   force =     0.00000000    0.00000000    0.00000000
     atom  492 type  4   force =     0.00000000    0.00000000    0.00000000
     atom  493 type  4   force =     0.00000000    0.00000000    0.00000000
     atom  494 type  4   force =     0.00000000    0.00000000    0.00000000
     atom  495 type  4   force =     0.00000000    0.00000000    0.00000000
     atom  496 type  4   force =     0.00000000    0.00000000    0.00000000
     The Hubbard contrib.    to forces
     atom    1 type  1   force =     0.00000000    0.00000000    0.00000000
     atom    2 type  1   force =     0.00000000    0.00000000    0.00000000
     atom    3 type  1   force =     0.00000000    0.00000000    0.00000000
     atom    4 type  1   force =     0.00000000    0.00000000    0.00000000
     atom    5 type  1   force =     0.00000000    0.00000000    0.00000000
     atom    6 type  1   force =     0.00000000    0.00000000    0.00000000
     atom    7 type  1   force =     0.00000000    0.00000000    0.00000000
     atom    8 type  1   force =     0.00000000    0.00000000    0.00000000
     atom    9 type  1   force =     0.00000000    0.00000000    0.00000000
     atom   10 type  1   force =     0.00000000    0.00000000    0.00000000
     atom   11 type  1   force =     0.00000000    0.00000000    0.00000000
     atom   12 type  1   force =     0.00000000    0.00000000    0.00000000
     atom   13 type  1   force =     0.00000000    0.00000000    0.00000000
     atom   14 type  1   force =     0.00000000    0.00000000    0.00000000
     atom   15 type  1   force =     0.00000000    0.00000000    0.00000000
     atom   16 type  1   force =     0.00000000    0.00000000    0.00000000
     atom   17 type  2   force =     0.00000000    0.00000000    0.00000000
     atom   18 type  2   force =     0.00000000    0.00000000    0.00000000
     atom   19 type  2   force =     0.00000000    0.00000000    0.00000000
     atom   20 type  2   force =     0.00000000    0.00000000    0.00000000
     atom   21 type  2   force =     0.00000000    0.00000000    0.00000000
     atom   22 type  2   force =     0.00000000    0.00000000    0.00000000
     atom   23 type  2   force =     0.00000000    0.00000000    0.00000000
     atom   24 type  2   force =     0.00000000    0.00000000    0.00000000
     atom   25 type  2   force =     0.00000000    0.00000000    0.00000000
     atom   26 type  2   force =     0.00000000    0.00000000    0.00000000
     atom   27 type  2   force =     0.00000000    0.00000000    0.00000000
     atom   28 type  2   force =     0.00000000    0.00000000    0.00000000
     atom   29 type  2   force =     0.00000000    0.00000000    0.00000000
     atom   30 type  2   force =     0.00000000    0.00000000    0.00000000
     atom   31 type  2   force =     0.00000000    0.00000000    0.00000000
     atom   32 type  2   force =     0.00000000    0.00000000    0.00000000
     atom   33 type  2   force =     0.00000000    0.00000000    0.00000000
     atom   34 type  2   force =     0.00000000    0.00000000    0.00000000
     atom   35 type  2   force =     0.00000000    0.00000000    0.00000000
     atom   36 type  2   force =     0.00000000    0.00000000    0.00000000
     atom   37 type  2   force =     0.00000000    0.00000000    0.00000000
     atom   38 type  2   force =     0.00000000    0.00000000    0.00000000
     atom   39 type  2   force =     0.00000000    0.00000000    0.00000000
     atom   40 type  2   force =     0.00000000    0.00000000    0.00000000
     atom   41 type  3   force =     0.00000000    0.00000000    0.00000000
     atom   42 type  3   force =     0.00000000    0.00000000    0.00000000
     atom   43 type  3   force =     0.00000000    0.00000000    0.00000000
     atom   44 type  3   force =     0.00000000    0.00000000    0.00000000
     atom   45 type  3   force =     0.00000000    0.00000000    0.00000000
     atom   46 type  3   force =     0.00000000    0.00000000    0.00000000
     atom   47 type  3   force =     0.00000000    0.00000000    0.00000000
     atom   48 type  3   force =     0.00000000    0.00000000    0.00000000
     atom   49 type  2   force =     0.00000000    0.00000000    0.00000000
     atom   50 type  2   force =     0.00000000    0.00000000    0.00000000
     atom   51 type  2   force =     0.00000000    0.00000000    0.00000000
     atom   52 type  2   force =     0.00000000    0.00000000    0.00000000
     atom   53 type  2   force =     0.00000000    0.00000000    0.00000000
     atom   54 type  2   force =     0.00000000    0.00000000    0.00000000
     atom   55 type  2   force =     0.00000000    0.00000000    0.00000000
     atom   56 type  2   force =     0.00000000    0.00000000    0.00000000
     atom   57 type  3   force =     0.00000000    0.00000000    0.00000000
     atom   58 type  3   force =     0.00000000    0.00000000    0.00000000
     atom   59 type  3   force =     0.00000000    0.00000000    0.00000000
     atom   60 type  3   force =     0.00000000    0.00000000    0.00000000
     atom   61 type  3   force =     0.00000000    0.00000000    0.00000000
     atom   62 type  3   force =     0.00000000    0.00000000    0.00000000
     atom   63 type  3   force =     0.00000000    0.00000000    0.00000000
     atom   64 type  3   force =     0.00000000    0.00000000    0.00000000
     atom   65 type  1   force =     0.00000000    0.00000000    0.00000000
     atom   66 type  1   force =     0.00000000    0.00000000    0.00000000
     atom   67 type  1   force =     0.00000000    0.00000000    0.00000000
     atom   68 type  1   force =     0.00000000    0.00000000    0.00000000
     atom   69 type  1   force =     0.00000000    0.00000000    0.00000000
     atom   70 type  1   force =     0.00000000    0.00000000    0.00000000
     atom   71 type  1   force =     0.00000000    0.00000000    0.00000000
     atom   72 type  1   force =     0.00000000    0.00000000    0.00000000
     atom   73 type  1   force =     0.00000000    0.00000000    0.00000000
     atom   74 type  1   force =     0.00000000    0.00000000    0.00000000
     atom   75 type  1   force =     0.00000000    0.00000000    0.00000000
     atom   76 type  1   force =     0.00000000    0.00000000    0.00000000
     atom   77 type  1   force =     0.00000000    0.00000000    0.00000000
     atom   78 type  1   force =     0.00000000    0.00000000    0.00000000
     atom   79 type  1   force =     0.00000000    0.00000000    0.00000000
     atom   80 type  1   force =     0.00000000    0.00000000    0.00000000
     atom   81 type  2   force =     0.00000000    0.00000000    0.00000000
     atom   82 type  2   force =     0.00000000    0.00000000    0.00000000
     atom   83 type  2   force =     0.00000000    0.00000000    0.00000000
     atom   84 type  2   force =     0.00000000    0.00000000    0.00000000
     atom   85 type  2   force =     0.00000000    0.00000000    0.00000000
     atom   86 type  2   force =     0.00000000    0.00000000    0.00000000
     atom   87 type  2   force =     0.00000000    0.00000000    0.00000000
     atom   88 type  2   force =     0.00000000    0.00000000    0.00000000
     atom   89 type  3   force =     0.00000000    0.00000000    0.00000000
     atom   90 type  3   force =     0.00000000    0.00000000    0.00000000
     atom   91 type  3   force =     0.00000000    0.00000000    0.00000000
     atom   92 type  3   force =     0.00000000    0.00000000    0.00000000
     atom   93 type  3   force =     0.00000000    0.00000000    0.00000000
     atom   94 type  3   force =     0.00000000    0.00000000    0.00000000
     atom   95 type  3   force =     0.00000000    0.00000000    0.00000000
     atom   96 type  3   force =     0.00000000    0.00000000    0.00000000
     atom   97 type  1   force =     0.00000000    0.00000000    0.00000000
     atom   98 type  1   force =     0.00000000    0.00000000    0.00000000
     atom   99 type  1   force =     0.00000000    0.00000000    0.00000000
     atom  100 type  1   force =     0.00000000    0.00000000    0.00000000
     atom  101 type  1   force =     0.00000000    0.00000000    0.00000000
     atom  102 type  1   force =     0.00000000    0.00000000    0.00000000
     atom  103 type  1   force =     0.00000000    0.00000000    0.00000000
     atom  104 type  1   force =     0.00000000    0.00000000    0.00000000
     atom  105 type  2   force =     0.00000000    0.00000000    0.00000000
     atom  106 type  2   force =     0.00000000    0.00000000    0.00000000
     atom  107 type  2   force =     0.00000000    0.00000000    0.00000000
     atom  108 type  2   force =     0.00000000    0.00000000    0.00000000
     atom  109 type  2   force =     0.00000000    0.00000000    0.00000000
     atom  110 type  2   force =     0.00000000    0.00000000    0.00000000
     atom  111 type  2   force =     0.00000000    0.00000000    0.00000000
     atom  112 type  2   force =     0.00000000    0.00000000    0.00000000
     atom  113 type  3   force =     0.00000000    0.00000000    0.00000000
     atom  114 type  3   force =     0.00000000    0.00000000    0.00000000
     atom  115 type  3   force =     0.00000000    0.00000000    0.00000000
     atom  116 type  3   force =     0.00000000    0.00000000    0.00000000
     atom  117 type  3   force =     0.00000000    0.00000000    0.00000000
     atom  118 type  3   force =     0.00000000    0.00000000    0.00000000
     atom  119 type  3   force =     0.00000000    0.00000000    0.00000000
     atom  120 type  3   force =     0.00000000    0.00000000    0.00000000
     atom  121 type  1   force =     0.00000000    0.00000000    0.00000000
     atom  122 type  1   force =     0.00000000    0.00000000    0.00000000
     atom  123 type  1   force =     0.00000000    0.00000000    0.00000000
     atom  124 type  1   force =     0.00000000    0.00000000    0.00000000
     atom  125 type  1   force =     0.00000000    0.00000000    0.00000000
     atom  126 type  1   force =     0.00000000    0.00000000    0.00000000
     atom  127 type  1   force =     0.00000000    0.00000000    0.00000000
     atom  128 type  1   force =     0.00000000    0.00000000    0.00000000
     atom  129 type  1   force =     0.00000000    0.00000000    0.00000000
     atom  130 type  1   force =     0.00000000    0.00000000    0.00000000
     atom  131 type  1   force =     0.00000000    0.00000000    0.00000000
     atom  132 type  1   force =     0.00000000    0.00000000    0.00000000
     atom  133 type  1   force =     0.00000000    0.00000000    0.00000000
     atom  134 type  1   force =     0.00000000    0.00000000    0.00000000
     atom  135 type  1   force =     0.00000000    0.00000000    0.00000000
     atom  136 type  1   force =     0.00000000    0.00000000    0.00000000
     atom  137 type  2   force =     0.00000000    0.00000000    0.00000000
     atom  138 type  2   force =     0.00000000    0.00000000    0.00000000
     atom  139 type  2   force =     0.00000000    0.00000000    0.00000000
     atom  140 type  2   force =     0.00000000    0.00000000    0.00000000
     atom  141 type  2   force =     0.00000000    0.00000000    0.00000000
     atom  142 type  2   force =     0.00000000    0.00000000    0.00000000
     atom  143 type  2   force =     0.00000000    0.00000000    0.00000000
     atom  144 type  2   force =     0.00000000    0.00000000    0.00000000
     atom  145 type  2   force =     0.00000000    0.00000000    0.00000000
     atom  146 type  2   force =     0.00000000    0.00000000    0.00000000
     atom  147 type  2   force =     0.00000000    0.00000000    0.00000000
     atom  148 type  2   force =     0.00000000    0.00000000    0.00000000
     atom  149 type  2   force =     0.00000000    0.00000000    0.00000000
     atom  150 type  2   force =     0.00000000    0.00000000    0.00000000
     atom  151 type  2   force =     0.00000000    0.00000000    0.00000000
     atom  152 type  2   force =     0.00000000    0.00000000    0.00000000
     atom  153 type  2   force =     0.00000000    0.00000000    0.00000000
     atom  154 type  2   force =     0.00000000    0.00000000    0.00000000
     atom  155 type  2   force =     0.00000000    0.00000000    0.00000000
     atom  156 type  2   force =     0.00000000    0.00000000    0.00000000
     atom  157 type  2   force =     0.00000000    0.00000000    0.00000000
     atom  158 type  2   force =     0.00000000    0.00000000    0.00000000
     atom  159 type  2   force =     0.00000000    0.00000000    0.00000000
     atom  160 type  2   force =     0.00000000    0.00000000    0.00000000
     atom  161 type  3   force =     0.00000000    0.00000000    0.00000000
     atom  162 type  3   force =     0.00000000    0.00000000    0.00000000
     atom  163 type  3   force =     0.00000000    0.00000000    0.00000000
     atom  164 type  3   force =     0.00000000    0.00000000    0.00000000
     atom  165 type  3   force =     0.00000000    0.00000000    0.00000000
     atom  166 type  3   force =     0.00000000    0.00000000    0.00000000
     atom  167 type  3   force =     0.00000000    0.00000000    0.00000000
     atom  168 type  3   force =     0.00000000    0.00000000    0.00000000
     atom  169 type  2   force =     0.00000000    0.00000000    0.00000000
     atom  170 type  2   force =     0.00000000    0.00000000    0.00000000
     atom  171 type  2   force =     0.00000000    0.00000000    0.00000000
     atom  172 type  2   force =     0.00000000    0.00000000    0.00000000
     atom  173 type  2   force =     0.00000000    0.00000000    0.00000000
     atom  174 type  2   force =     0.00000000    0.00000000    0.00000000
     atom  175 type  2   force =     0.00000000    0.00000000    0.00000000
     atom  176 type  2   force =     0.00000000    0.00000000    0.00000000
     atom  177 type  3   force =     0.00000000    0.00000000    0.00000000
     atom  178 type  3   force =     0.00000000    0.00000000    0.00000000
     atom  179 type  3   force =     0.00000000    0.00000000    0.00000000
     atom  180 type  3   force =     0.00000000    0.00000000    0.00000000
     atom  181 type  3   force =     0.00000000    0.00000000    0.00000000
     atom  182 type  3   force =     0.00000000    0.00000000    0.00000000
     atom  183 type  3   force =     0.00000000    0.00000000    0.00000000
     atom  184 type  3   force =     0.00000000    0.00000000    0.00000000
     atom  185 type  1   force =     0.00000000    0.00000000    0.00000000
     atom  186 type  1   force =     0.00000000    0.00000000    0.00000000
     atom  187 type  1   force =     0.00000000    0.00000000    0.00000000
     atom  188 type  1   force =     0.00000000    0.00000000    0.00000000
     atom  189 type  1   force =     0.00000000    0.00000000    0.00000000
     atom  190 type  1   force =     0.00000000    0.00000000    0.00000000
     atom  191 type  1   force =     0.00000000    0.00000000    0.00000000
     atom  192 type  1   force =     0.00000000    0.00000000    0.00000000
     atom  193 type  1   force =     0.00000000    0.00000000    0.00000000
     atom  194 type  1   force =     0.00000000    0.00000000    0.00000000
     atom  195 type  1   force =     0.00000000    0.00000000    0.00000000
     atom  196 type  1   force =     0.00000000    0.00000000    0.00000000
     atom  197 type  1   force =     0.00000000    0.00000000    0.00000000
     atom  198 type  1   force =     0.00000000    0.00000000    0.00000000
     atom  199 type  1   force =     0.00000000    0.00000000    0.00000000
     atom  200 type  1   force =     0.00000000    0.00000000    0.00000000
     atom  201 type  2   force =     0.00000000    0.00000000    0.00000000
     atom  202 type  2   force =     0.00000000    0.00000000    0.00000000
     atom  203 type  2   force =     0.00000000    0.00000000    0.00000000
     atom  204 type  2   force =     0.00000000    0.00000000    0.00000000
     atom  205 type  2   force =     0.00000000    0.00000000    0.00000000
     atom  206 type  2   force =     0.00000000    0.00000000    0.00000000
     atom  207 type  2   force =     0.00000000    0.00000000    0.00000000
     atom  208 type  2   force =     0.00000000    0.00000000    0.00000000
     atom  209 type  3   force =     0.00000000    0.00000000    0.00000000
     atom  210 type  3   force =     0.00000000    0.00000000    0.00000000
     atom  211 type  3   force =     0.00000000    0.00000000    0.00000000
     atom  212 type  3   force =     0.00000000    0.00000000    0.00000000
     atom  213 type  3   force =     0.00000000    0.00000000    0.00000000
     atom  214 type  3   force =     0.00000000    0.00000000    0.00000000
     atom  215 type  3   force =     0.00000000    0.00000000    0.00000000
     atom  216 type  3   force =     0.00000000    0.00000000    0.00000000
     atom  217 type  1   force =     0.00000000    0.00000000    0.00000000
     atom  218 type  1   force =     0.00000000    0.00000000    0.00000000
     atom  219 type  1   force =     0.00000000    0.00000000    0.00000000
     atom  220 type  1   force =     0.00000000    0.00000000    0.00000000
     atom  221 type  1   force =     0.00000000    0.00000000    0.00000000
     atom  222 type  1   force =     0.00000000    0.00000000    0.00000000
     atom  223 type  1   force =     0.00000000    0.00000000    0.00000000
     atom  224 type  1   force =     0.00000000    0.00000000    0.00000000
     atom  225 type  2   force =     0.00000000    0.00000000    0.00000000
     atom  226 type  2   force =     0.00000000    0.00000000    0.00000000
     atom  227 type  2   force =     0.00000000    0.00000000    0.00000000
     atom  228 type  2   force =     0.00000000    0.00000000    0.00000000
     atom  229 type  2   force =     0.00000000    0.00000000    0.00000000
     atom  230 type  2   force =     0.00000000    0.00000000    0.00000000
     atom  231 type  2   force =     0.00000000    0.00000000    0.00000000
     atom  232 type  2   force =     0.00000000    0.00000000    0.00000000
     atom  233 type  3   force =     0.00000000    0.00000000    0.00000000
     atom  234 type  3   force =     0.00000000    0.00000000    0.00000000
     atom  235 type  3   force =     0.00000000    0.00000000    0.00000000
     atom  236 type  3   force =     0.00000000    0.00000000    0.00000000
     atom  237 type  3   force =     0.00000000    0.00000000    0.00000000
     atom  238 type  3   force =     0.00000000    0.00000000    0.00000000
     atom  239 type  3   force =     0.00000000    0.00000000    0.00000000
     atom  240 type  3   force =     0.00000000    0.00000000    0.00000000
     atom  241 type  1   force =     0.00000000    0.00000000    0.00000000
     atom  242 type  1   force =     0.00000000    0.00000000    0.00000000
     atom  243 type  1   force =     0.00000000    0.00000000    0.00000000
     atom  244 type  1   force =     0.00000000    0.00000000    0.00000000
     atom  245 type  1   force =     0.00000000    0.00000000    0.00000000
     atom  246 type  1   force =     0.00000000    0.00000000    0.00000000
     atom  247 type  1   force =     0.00000000    0.00000000    0.00000000
     atom  248 type  1   force =     0.00000000    0.00000000    0.00000000
     atom  249 type  1   force =     0.00000000    0.00000000    0.00000000
     atom  250 type  1   force =     0.00000000    0.00000000    0.00000000
     atom  251 type  1   force =     0.00000000    0.00000000    0.00000000
     atom  252 type  1   force =     0.00000000    0.00000000    0.00000000
     atom  253 type  1   force =     0.00000000    0.00000000    0.00000000
     atom  254 type  1   force =     0.00000000    0.00000000    0.00000000
     atom  255 type  1   force =     0.00000000    0.00000000    0.00000000
     atom  256 type  1   force =     0.00000000    0.00000000    0.00000000
     atom  257 type  2   force =     0.00000000    0.00000000    0.00000000
     atom  258 type  2   force =     0.00000000    0.00000000    0.00000000
     atom  259 type  2   force =     0.00000000    0.00000000    0.00000000
     atom  260 type  2   force =     0.00000000    0.00000000    0.00000000
     atom  261 type  2   force =     0.00000000    0.00000000    0.00000000
     atom  262 type  2   force =     0.00000000    0.00000000    0.00000000
     atom  263 type  2   force =     0.00000000    0.00000000    0.00000000
     atom  264 type  2   force =     0.00000000    0.00000000    0.00000000
     atom  265 type  2   force =     0.00000000    0.00000000    0.00000000
     atom  266 type  2   force =     0.00000000    0.00000000    0.00000000
     atom  267 type  2   force =     0.00000000    0.00000000    0.00000000
     atom  268 type  2   force =     0.00000000    0.00000000    0.00000000
     atom  269 type  2   force =     0.00000000    0.00000000    0.00000000
     atom  270 type  2   force =     0.00000000    0.00000000    0.00000000
     atom  271 type  2   force =     0.00000000    0.00000000    0.00000000
     atom  272 type  2   force =     0.00000000    0.00000000    0.00000000
     atom  273 type  2   force =     0.00000000    0.00000000    0.00000000
     atom  274 type  2   force =     0.00000000    0.00000000    0.00000000
     atom  275 type  2   force =     0.00000000    0.00000000    0.00000000
     atom  276 type  2   force =     0.00000000    0.00000000    0.00000000
     atom  277 type  2   force =     0.00000000    0.00000000    0.00000000
     atom  278 type  2   force =     0.00000000    0.00000000    0.00000000
     atom  279 type  2   force =     0.00000000    0.00000000    0.00000000
     atom  280 type  2   force =     0.00000000    0.00000000    0.00000000
     atom  281 type  3   force =     0.00000000    0.00000000    0.00000000
     atom  282 type  3   force =     0.00000000    0.00000000    0.00000000
     atom  283 type  3   force =     0.00000000    0.00000000    0.00000000
     atom  284 type  3   force =     0.00000000    0.00000000    0.00000000
     atom  285 type  3   force =     0.00000000    0.00000000    0.00000000
     atom  286 type  3   force =     0.00000000    0.00000000    0.00000000
     atom  287 type  3   force =     0.00000000    0.00000000    0.00000000
     atom  288 type  3   force =     0.00000000    0.00000000    0.00000000
     atom  289 type  2   force =     0.00000000    0.00000000    0.00000000
     atom  290 type  2   force =     0.00000000    0.00000000    0.00000000
     atom  291 type  2   force =     0.00000000    0.00000000    0.00000000
     atom  292 type  2   force =     0.00000000    0.00000000    0.00000000
     atom  293 type  2   force =     0.00000000    0.00000000    0.00000000
     atom  294 type  2   force =     0.00000000    0.00000000    0.00000000
     atom  295 type  2   force =     0.00000000    0.00000000    0.00000000
     atom  296 type  2   force =     0.00000000    0.00000000    0.00000000
     atom  297 type  3   force =     0.00000000    0.00000000    0.00000000
     atom  298 type  3   force =     0.00000000    0.00000000    0.00000000
     atom  299 type  3   force =     0.00000000    0.00000000    0.00000000
     atom  300 type  3   force =     0.00000000    0.00000000    0.00000000
     atom  301 type  3   force =     0.00000000    0.00000000    0.00000000
     atom  302 type  3   force =     0.00000000    0.00000000    0.00000000
     atom  303 type  3   force =     0.00000000    0.00000000    0.00000000
     atom  304 type  3   force =     0.00000000    0.00000000    0.00000000
     atom  305 type  1   force =     0.00000000    0.00000000    0.00000000
     atom  306 type  1   force =     0.00000000    0.00000000    0.00000000
     atom  307 type  1   force =     0.00000000    0.00000000    0.00000000
     atom  308 type  1   force =     0.00000000    0.00000000    0.00000000
     atom  309 type  1   force =     0.00000000    0.00000000    0.00000000
     atom  310 type  1   force =     0.00000000    0.00000000    0.00000000
     atom  311 type  1   force =     0.00000000    0.00000000    0.00000000
     atom  312 type  1   force =     0.00000000    0.00000000    0.00000000
     atom  313 type  1   force =     0.00000000    0.00000000    0.00000000
     atom  314 type  1   force =     0.00000000    0.00000000    0.00000000
     atom  315 type  1   force =     0.00000000    0.00000000    0.00000000
     atom  316 type  1   force =     0.00000000    0.00000000    0.00000000
     atom  317 type  1   force =     0.00000000    0.00000000    0.00000000
     atom  318 type  1   force =     0.00000000    0.00000000    0.00000000
     atom  319 type  1   force =     0.00000000    0.00000000    0.00000000
     atom  320 type  1   force =     0.00000000    0.00000000    0.00000000
     atom  321 type  2   force =     0.00000000    0.00000000    0.00000000
     atom  322 type  2   force =     0.00000000    0.00000000    0.00000000
     atom  323 type  2   force =     0.00000000    0.00000000    0.00000000
     atom  324 type  2   force =     0.00000000    0.00000000    0.00000000
     atom  325 type  2   force =     0.00000000    0.00000000    0.00000000
     atom  326 type  2   force =     0.00000000    0.00000000    0.00000000
     atom  327 type  2   force =     0.00000000    0.00000000    0.00000000
     atom  328 type  2   force =     0.00000000    0.00000000    0.00000000
     atom  329 type  3   force =     0.00000000    0.00000000    0.00000000
     atom  330 type  3   force =     0.00000000    0.00000000    0.00000000
     atom  331 type  3   force =     0.00000000    0.00000000    0.00000000
     atom  332 type  3   force =     0.00000000    0.00000000    0.00000000
     atom  333 type  3   force =     0.00000000    0.00000000    0.00000000
     atom  334 type  3   force =     0.00000000    0.00000000    0.00000000
     atom  335 type  3   force =     0.00000000    0.00000000    0.00000000
     atom  336 type  3   force =     0.00000000    0.00000000    0.00000000
     atom  337 type  1   force =     0.00000000    0.00000000    0.00000000
     atom  338 type  1   force =     0.00000000    0.00000000    0.00000000
     atom  339 type  1   force =     0.00000000    0.00000000    0.00000000
     atom  340 type  1   force =     0.00000000    0.00000000    0.00000000
     atom  341 type  1   force =     0.00000000    0.00000000    0.00000000
     atom  342 type  1   force =     0.00000000    0.00000000    0.00000000
     atom  343 type  1   force =     0.00000000    0.00000000    0.00000000
     atom  344 type  1   force =     0.00000000    0.00000000    0.00000000
     atom  345 type  2   force =     0.00000000    0.00000000    0.00000000
     atom  346 type  2   force =     0.00000000    0.00000000    0.00000000
     atom  347 type  2   force =     0.00000000    0.00000000    0.00000000
     atom  348 type  2   force =     0.00000000    0.00000000    0.00000000
     atom  349 type  2   force =     0.00000000    0.00000000    0.00000000
     atom  350 type  2   force =     0.00000000    0.00000000    0.00000000
     atom  351 type  2   force =     0.00000000    0.00000000    0.00000000
     atom  352 type  2   force =     0.00000000    0.00000000    0.00000000
     atom  353 type  3   force =     0.00000000    0.00000000    0.00000000
     atom  354 type  3   force =     0.00000000    0.00000000    0.00000000
     atom  355 type  3   force =     0.00000000    0.00000000    0.00000000
     atom  356 type  3   force =     0.00000000    0.00000000    0.00000000
     atom  357 type  3   force =     0.00000000    0.00000000    0.00000000
     atom  358 type  3   force =     0.00000000    0.00000000    0.00000000
     atom  359 type  3   force =     0.00000000    0.00000000    0.00000000
     atom  360 type  3   force =     0.00000000    0.00000000    0.00000000
     atom  361 type  1   force =     0.00000000    0.00000000    0.00000000
     atom  362 type  1   force =     0.00000000    0.00000000    0.00000000
     atom  363 type  1   force =     0.00000000    0.00000000    0.00000000
     atom  364 type  1   force =     0.00000000    0.00000000    0.00000000
     atom  365 type  1   force =     0.00000000    0.00000000    0.00000000
     atom  366 type  1   force =     0.00000000    0.00000000    0.00000000
     atom  367 type  1   force =     0.00000000    0.00000000    0.00000000
     atom  368 type  1   force =     0.00000000    0.00000000    0.00000000
     atom  369 type  1   force =     0.00000000    0.00000000    0.00000000
     atom  370 type  1   force =     0.00000000    0.00000000    0.00000000
     atom  371 type  1   force =     0.00000000    0.00000000    0.00000000
     atom  372 type  1   force =     0.00000000    0.00000000    0.00000000
     atom  373 type  1   force =     0.00000000    0.00000000    0.00000000
     atom  374 type  1   force =     0.00000000    0.00000000    0.00000000
     atom  375 type  1   force =     0.00000000    0.00000000    0.00000000
     atom  376 type  1   force =     0.00000000    0.00000000    0.00000000
     atom  377 type  2   force =     0.00000000    0.00000000    0.00000000
     atom  378 type  2   force =     0.00000000    0.00000000    0.00000000
     atom  379 type  2   force =     0.00000000    0.00000000    0.00000000
     atom  380 type  2   force =     0.00000000    0.00000000    0.00000000
     atom  381 type  2   force =     0.00000000    0.00000000    0.00000000
     atom  382 type  2   force =     0.00000000    0.00000000    0.00000000
     atom  383 type  2   force =     0.00000000    0.00000000    0.00000000
     atom  384 type  2   force =     0.00000000    0.00000000    0.00000000
     atom  385 type  2   force =     0.00000000    0.00000000    0.00000000
     atom  386 type  2   force =     0.00000000    0.00000000    0.00000000
     atom  387 type  2   force =     0.00000000    0.00000000    0.00000000
     atom  388 type  2   force =     0.00000000    0.00000000    0.00000000
     atom  389 type  2   force =     0.00000000    0.00000000    0.00000000
     atom  390 type  2   force =     0.00000000    0.00000000    0.00000000
     atom  391 type  2   force =     0.00000000    0.00000000    0.00000000
     atom  392 type  2   force =     0.00000000    0.00000000    0.00000000
     atom  393 type  2   force =     0.00000000    0.00000000    0.00000000
     atom  394 type  2   force =     0.00000000    0.00000000    0.00000000
     atom  395 type  2   force =     0.00000000    0.00000000    0.00000000
     atom  396 type  2   force =     0.00000000    0.00000000    0.00000000
     atom  397 type  2   force =     0.00000000    0.00000000    0.00000000
     atom  398 type  2   force =     0.00000000    0.00000000    0.00000000
     atom  399 type  2   force =     0.00000000    0.00000000    0.00000000
     atom  400 type  2   force =     0.00000000    0.00000000    0.00000000
     atom  401 type  3   force =     0.00000000    0.00000000    0.00000000
     atom  402 type  3   force =     0.00000000    0.00000000    0.00000000
     atom  403 type  3   force =     0.00000000    0.00000000    0.00000000
     atom  404 type  3   force =     0.00000000    0.00000000    0.00000000
     atom  405 type  3   force =     0.00000000    0.00000000    0.00000000
     atom  406 type  3   force =     0.00000000    0.00000000    0.00000000
     atom  407 type  3   force =     0.00000000    0.00000000    0.00000000
     atom  408 type  3   force =     0.00000000    0.00000000    0.00000000
     atom  409 type  2   force =     0.00000000    0.00000000    0.00000000
     atom  410 type  2   force =     0.00000000    0.00000000    0.00000000
     atom  411 type  2   force =     0.00000000    0.00000000    0.00000000
     atom  412 type  2   force =     0.00000000    0.00000000    0.00000000
     atom  413 type  2   force =     0.00000000    0.00000000    0.00000000
     atom  414 type  2   force =     0.00000000    0.00000000    0.00000000
     atom  415 type  2   force =     0.00000000    0.00000000    0.00000000
     atom  416 type  2   force =     0.00000000    0.00000000    0.00000000
     atom  417 type  3   force =     0.00000000    0.00000000    0.00000000
     atom  418 type  3   force =     0.00000000    0.00000000    0.00000000
     atom  419 type  3   force =     0.00000000    0.00000000    0.00000000
     atom  420 type  3   force =     0.00000000    0.00000000    0.00000000
     atom  421 type  3   force =     0.00000000    0.00000000    0.00000000
     atom  422 type  3   force =     0.00000000    0.00000000    0.00000000
     atom  423 type  3   force =     0.00000000    0.00000000    0.00000000
     atom  424 type  3   force =     0.00000000    0.00000000    0.00000000
     atom  425 type  1   force =     0.00000000    0.00000000    0.00000000
     atom  426 type  1   force =     0.00000000    0.00000000    0.00000000
     atom  427 type  1   force =     0.00000000    0.00000000    0.00000000
     atom  428 type  1   force =     0.00000000    0.00000000    0.00000000
     atom  429 type  1   force =     0.00000000    0.00000000    0.00000000
     atom  430 type  1   force =     0.00000000    0.00000000    0.00000000
     atom  431 type  1   force =     0.00000000    0.00000000    0.00000000
     atom  432 type  1   force =     0.00000000    0.00000000    0.00000000
     atom  433 type  1   force =     0.00000000    0.00000000    0.00000000
     atom  434 type  1   force =     0.00000000    0.00000000    0.00000000
     atom  435 type  1   force =     0.00000000    0.00000000    0.00000000
     atom  436 type  1   force =     0.00000000    0.00000000    0.00000000
     atom  437 type  1   force =     0.00000000    0.00000000    0.00000000
     atom  438 type  1   force =     0.00000000    0.00000000    0.00000000
     atom  439 type  1   force =     0.00000000    0.00000000    0.00000000
     atom  440 type  1   force =     0.00000000    0.00000000    0.00000000
     atom  441 type  2   force =     0.00000000    0.00000000    0.00000000
     atom  442 type  2   force =     0.00000000    0.00000000    0.00000000
     atom  443 type  2   force =     0.00000000    0.00000000    0.00000000
     atom  444 type  2   force =     0.00000000    0.00000000    0.00000000
     atom  445 type  2   force =     0.00000000    0.00000000    0.00000000
     atom  446 type  2   force =     0.00000000    0.00000000    0.00000000
     atom  447 type  2   force =     0.00000000    0.00000000    0.00000000
     atom  448 type  2   force =     0.00000000    0.00000000    0.00000000
     atom  449 type  3   force =     0.00000000    0.00000000    0.00000000
     atom  450 type  3   force =     0.00000000    0.00000000    0.00000000
     atom  451 type  3   force =     0.00000000    0.00000000    0.00000000
     atom  452 type  3   force =     0.00000000    0.00000000    0.00000000
     atom  453 type  3   force =     0.00000000    0.00000000    0.00000000
     atom  454 type  3   force =     0.00000000    0.00000000    0.00000000
     atom  455 type  3   force =     0.00000000    0.00000000    0.00000000
     atom  456 type  3   force =     0.00000000    0.00000000    0.00000000
     atom  457 type  1   force =     0.00000000    0.00000000    0.00000000
     atom  458 type  1   force =     0.00000000    0.00000000    0.00000000
     atom  459 type  1   force =     0.00000000    0.00000000    0.00000000
     atom  460 type  1   force =     0.00000000    0.00000000    0.00000000
     atom  461 type  1   force =     0.00000000    0.00000000    0.00000000
     atom  462 type  1   force =     0.00000000    0.00000000    0.00000000
     atom  463 type  1   force =     0.00000000    0.00000000    0.00000000
     atom  464 type  1   force =     0.00000000    0.00000000    0.00000000
     atom  465 type  2   force =     0.00000000    0.00000000    0.00000000
     atom  466 type  2   force =     0.00000000    0.00000000    0.00000000
     atom  467 type  2   force =     0.00000000    0.00000000    0.00000000
     atom  468 type  2   force =     0.00000000    0.00000000    0.00000000
     atom  469 type  2   force =     0.00000000    0.00000000    0.00000000
     atom  470 type  2   force =     0.00000000    0.00000000    0.00000000
     atom  471 type  2   force =     0.00000000    0.00000000    0.00000000
     atom  472 type  2   force =     0.00000000    0.00000000    0.00000000
     atom  473 type  3   force =     0.00000000    0.00000000    0.00000000
     atom  474 type  3   force =     0.00000000    0.00000000    0.00000000
     atom  475 type  3   force =     0.00000000    0.00000000    0.00000000
     atom  476 type  3   force =     0.00000000    0.00000000    0.00000000
     atom  477 type  3   force =     0.00000000    0.00000000    0.00000000
     atom  478 type  3   force =     0.00000000    0.00000000    0.00000000
     atom  479 type  3   force =     0.00000000    0.00000000    0.00000000
     atom  480 type  3   force =     0.00000000    0.00000000    0.00000000
     atom  481 type  4   force =     0.00000000    0.00000000    0.00000000
     atom  482 type  4   force =     0.00000000    0.00000000    0.00000000
     atom  483 type  4   force =     0.00000000    0.00000000    0.00000000
     atom  484 type  4   force =     0.00000000    0.00000000    0.00000000
     atom  485 type  4   force =     0.00000000    0.00000000    0.00000000
     atom  486 type  4   force =     0.00000000    0.00000000    0.00000000
     atom  487 type  4   force =     0.00000000    0.00000000    0.00000000
     atom  488 type  4   force =     0.00000000    0.00000000    0.00000000
     atom  489 type  4   force =     0.00000000    0.00000000    0.00000000
     atom  490 type  4   force =     0.00000000    0.00000000    0.00000000
     atom  491 type  4   force =     0.00000000    0.00000000    0.00000000
     atom  492 type  4   force =     0.00000000    0.00000000    0.00000000
     atom  493 type  4   force =     0.00000000    0.00000000    0.00000000
     atom  494 type  4   force =     0.00000000    0.00000000    0.00000000
     atom  495 type  4   force =     0.00000000    0.00000000    0.00000000
     atom  496 type  4   force =     0.00000000    0.00000000    0.00000000
     The SCF correction term to forces
     atom    1 type  1   force =     0.00000137   -0.00000437   -0.00000204
     atom    2 type  1   force =     0.00000083   -0.00000509   -0.00000229
     atom    3 type  1   force =     0.00000161   -0.00000451   -0.00000194
     atom    4 type  1   force =     0.00000119   -0.00000433   -0.00000195
     atom    5 type  1   force =     0.00000128   -0.00000501   -0.00000216
     atom    6 type  1   force =     0.00000177   -0.00000397   -0.00000179
     atom    7 type  1   force =     0.00000293   -0.00000403   -0.00000155
     atom    8 type  1   force =     0.00000138   -0.00000487   -0.00000200
     atom    9 type  1   force =     0.00000531   -0.00000018    0.00000085
     atom   10 type  1   force =     0.00000574    0.00000071    0.00000139
     atom   11 type  1   force =     0.00000567    0.00000064    0.00000137
     atom   12 type  1   force =     0.00000522    0.00000140    0.00000178
     atom   13 type  1   force =     0.00000543    0.00000127    0.00000146
     atom   14 type  1   force =     0.00000584   -0.00000044    0.00000073
     atom   15 type  1   force =     0.00000562    0.00000024    0.00000128
     atom   16 type  1   force =     0.00000587    0.00000161    0.00000204
     atom   17 type  2   force =     0.00000232    0.00000236    0.00000076
     atom   18 type  2   force =     0.00000191    0.00000350    0.00000075
     atom   19 type  2   force =     0.00000220    0.00000341    0.00000081
     atom   20 type  2   force =     0.00000207    0.00000279    0.00000092
     atom   21 type  2   force =     0.00000207    0.00000354    0.00000094
     atom   22 type  2   force =     0.00000244    0.00000262    0.00000085
     atom   23 type  2   force =     0.00000235    0.00000247    0.00000090
     atom   24 type  2   force =     0.00000177    0.00000365    0.00000100
     atom   25 type  2   force =    -0.00000272    0.00000202    0.00000139
     atom   26 type  2   force =    -0.00000250    0.00000322    0.00000181
     atom   27 type  2   force =    -0.00000237    0.00000304    0.00000181
     atom   28 type  2   force =    -0.00000256    0.00000269    0.00000182
     atom   29 type  2   force =    -0.00000218    0.00000352    0.00000207
     atom   30 type  2   force =    -0.00000232    0.00000196    0.00000140
     atom   31 type  2   force =    -0.00000246    0.00000220    0.00000158
     atom   32 type  2   force =    -0.00000190    0.00000367    0.00000233
     atom   33 type  2   force =    -0.00000295    0.00000126    0.00000129
     atom   34 type  2   force =    -0.00000211    0.00000074    0.00000116
     atom   35 type  2   force =    -0.00000207    0.00000080    0.00000117
     atom   36 type  2   force =    -0.00000312    0.00000112    0.00000137
     atom   37 type  2   force =    -0.00000184    0.00000083    0.00000107
     atom   38 type  2   force =    -0.00000261    0.00000125    0.00000117
     atom   39 type  2   force =    -0.00000257    0.00000122    0.00000118
     atom   40 type  2   force =    -0.00000217    0.00000093    0.00000121
     atom   41 type  3   force =    -0.00000033   -0.00000048    0.00000064
     atom   42 type  3   force =    -0.00000017   -0.00000047    0.00000056
     atom   43 type  3   force =    -0.00000021   -0.00000039    0.00000056
     atom   44 type  3   force =    -0.00000035   -0.00000050    0.00000066
     atom   45 type  3   force =    -0.00000021   -0.00000036    0.00000055
     atom   46 type  3   force =    -0.00000030   -0.00000044    0.00000060
     atom   47 type  3   force =    -0.00000026   -0.00000049    0.00000061
     atom   48 type  3   force =    -0.00000023   -0.00000038    0.00000059
     atom   49 type  2   force =     0.00000008    0.00000343   -0.00000114
     atom   50 type  2   force =     0.00000014    0.00000281   -0.00000121
     atom   51 type  2   force =     0.00000009    0.00000254   -0.00000112
     atom   52 type  2   force =     0.00000009    0.00000372   -0.00000116
     atom   53 type  2   force =    -0.00000003    0.00000230   -0.00000116
     atom   54 type  2   force =    -0.00000016    0.00000318   -0.00000119
     atom   55 type  2   force =    -0.00000001    0.00000342   -0.00000124
     atom   56 type  2   force =     0.00000005    0.00000276   -0.00000117
     atom   57 type  3   force =     0.00000078    0.00000040   -0.00000030
     atom   58 type  3   force =     0.00000062    0.00000034   -0.00000034
     atom   59 type  3   force =     0.00000062    0.00000028   -0.00000033
     atom   60 type  3   force =     0.00000077    0.00000045   -0.00000032
     atom   61 type  3   force =     0.00000061    0.00000026   -0.00000032
     atom   62 type  3   force =     0.00000076    0.00000039   -0.00000031
     atom   63 type  3   force =     0.00000079    0.00000043   -0.00000034
     atom   64 type  3   force =     0.00000066    0.00000029   -0.00000033
     atom   65 type  1   force =    -0.00000218    0.00000638    0.00000471
     atom   66 type  1   force =    -0.00000188    0.00000728    0.00000520
     atom   67 type  1   force =    -0.00000194    0.00000713    0.00000513
     atom   68 type  1   force =    -0.00000278    0.00000645    0.00000485
     atom   69 type  1   force =    -0.00000168    0.00000741    0.00000524
     atom   70 type  1   force =    -0.00000144    0.00000632    0.00000483
     atom   71 type  1   force =    -0.00000197    0.00000634    0.00000484
     atom   72 type  1   force =    -0.00000141    0.00000732    0.00000542
     atom   73 type  1   force =     0.00000624    0.00000613    0.00000528
     atom   74 type  1   force =     0.00000739    0.00000722    0.00000618
     atom   75 type  1   force =     0.00000721    0.00000699    0.00000603
     atom   76 type  1   force =     0.00000648    0.00000713    0.00000618
     atom   77 type  1   force =     0.00000731    0.00000771    0.00000630
     atom   78 type  1   force =     0.00000651    0.00000618    0.00000536
     atom   79 type  1   force =     0.00000653    0.00000640    0.00000571
     atom   80 type  1   force =     0.00000788    0.00000836    0.00000703
     atom   81 type  2   force =    -0.00000285    0.00000174   -0.00000078
     atom   82 type  2   force =    -0.00000356    0.00000253   -0.00000090
     atom   83 type  2   force =    -0.00000377    0.00000259   -0.00000087
     atom   84 type  2   force =    -0.00000335    0.00000224   -0.00000065
     atom   85 type  2   force =    -0.00000403    0.00000296   -0.00000074
     atom   86 type  2   force =    -0.00000338    0.00000235   -0.00000065
     atom   87 type  2   force =    -0.00000314    0.00000210   -0.00000063
     atom   88 type  2   force =    -0.00000438    0.00000324   -0.00000075
     atom   89 type  3   force =    -0.00000077    0.00000004   -0.00000024
     atom   90 type  3   force =    -0.00000063    0.00000000   -0.00000026
     atom   91 type  3   force =    -0.00000066    0.00000005   -0.00000022
     atom   92 type  3   force =    -0.00000074    0.00000008   -0.00000025
     atom   93 type  3   force =    -0.00000066    0.00000012   -0.00000023
     atom   94 type  3   force =    -0.00000071    0.00000020   -0.00000023
     atom   95 type  3   force =    -0.00000076    0.00000019   -0.00000023
     atom   96 type  3   force =    -0.00000062    0.00000008   -0.00000022
     atom   97 type  1   force =    -0.00000433    0.00000039   -0.00000130
     atom   98 type  1   force =    -0.00000343    0.00000019   -0.00000131
     atom   99 type  1   force =    -0.00000358    0.00000031   -0.00000123
     atom  100 type  1   force =    -0.00000474    0.00000056   -0.00000146
     atom  101 type  1   force =    -0.00000358    0.00000072   -0.00000135
     atom  102 type  1   force =    -0.00000465    0.00000090   -0.00000128
     atom  103 type  1   force =    -0.00000470    0.00000104   -0.00000132
     atom  104 type  1   force =    -0.00000354    0.00000047   -0.00000124
     atom  105 type  2   force =     0.00000339   -0.00000409   -0.00000037
     atom  106 type  2   force =     0.00000267   -0.00000296   -0.00000030
     atom  107 type  2   force =     0.00000293   -0.00000294   -0.00000035
     atom  108 type  2   force =     0.00000359   -0.00000400   -0.00000038
     atom  109 type  2   force =     0.00000302   -0.00000321   -0.00000040
     atom  110 type  2   force =     0.00000371   -0.00000382   -0.00000037
     atom  111 type  2   force =     0.00000389   -0.00000390   -0.00000043
     atom  112 type  2   force =     0.00000300   -0.00000309   -0.00000039
     atom  113 type  3   force =    -0.00000011    0.00000061   -0.00000004
     atom  114 type  3   force =    -0.00000005    0.00000049   -0.00000005
     atom  115 type  3   force =    -0.00000006    0.00000048   -0.00000005
     atom  116 type  3   force =    -0.00000012    0.00000061   -0.00000003
     atom  117 type  3   force =    -0.00000006    0.00000046   -0.00000006
     atom  118 type  3   force =    -0.00000012    0.00000057   -0.00000005
     atom  119 type  3   force =    -0.00000010    0.00000059   -0.00000005
     atom  120 type  3   force =    -0.00000010    0.00000051   -0.00000006
     atom  121 type  1   force =    -0.00000235    0.00000412   -0.00000189
     atom  122 type  1   force =    -0.00000116    0.00000508   -0.00000227
     atom  123 type  1   force =    -0.00000102    0.00000470   -0.00000215
     atom  124 type  1   force =    -0.00000162    0.00000438   -0.00000207
     atom  125 type  1   force =    -0.00000170    0.00000481   -0.00000213
     atom  126 type  1   force =    -0.00000235    0.00000412   -0.00000173
     atom  127 type  1   force =    -0.00000185    0.00000407   -0.00000177
     atom  128 type  1   force =    -0.00000119    0.00000481   -0.00000195
     atom  129 type  1   force =    -0.00000600   -0.00000140    0.00000180
     atom  130 type  1   force =    -0.00000565    0.00000050    0.00000073
     atom  131 type  1   force =    -0.00000546   -0.00000061    0.00000126
     atom  132 type  1   force =    -0.00000572   -0.00000107    0.00000151
     atom  133 type  1   force =    -0.00000570   -0.00000009    0.00000108
     atom  134 type  1   force =    -0.00000583   -0.00000078    0.00000145
     atom  135 type  1   force =    -0.00000569   -0.00000098    0.00000153
     atom  136 type  1   force =    -0.00000543   -0.00000016    0.00000131
     atom  137 type  2   force =    -0.00000188   -0.00000354    0.00000074
     atom  138 type  2   force =    -0.00000234   -0.00000231    0.00000082
     atom  139 type  2   force =    -0.00000228   -0.00000247    0.00000085
     atom  140 type  2   force =    -0.00000213   -0.00000322    0.00000088
     atom  141 type  2   force =    -0.00000218   -0.00000262    0.00000078
     atom  142 type  2   force =    -0.00000174   -0.00000351    0.00000090
     atom  143 type  2   force =    -0.00000166   -0.00000360    0.00000088
     atom  144 type  2   force =    -0.00000211   -0.00000261    0.00000089
     atom  145 type  2   force =     0.00000204   -0.00000335    0.00000196
     atom  146 type  2   force =     0.00000236   -0.00000194    0.00000137
     atom  147 type  2   force =     0.00000265   -0.00000230    0.00000151
     atom  148 type  2   force =     0.00000244   -0.00000329    0.00000198
     atom  149 type  2   force =     0.00000227   -0.00000218    0.00000150
     atom  150 type  2   force =     0.00000189   -0.00000335    0.00000203
     atom  151 type  2   force =     0.00000231   -0.00000334    0.00000194
     atom  152 type  2   force =     0.00000274   -0.00000227    0.00000163
     atom  153 type  2   force =     0.00000212   -0.00000066    0.00000111
     atom  154 type  2   force =     0.00000296   -0.00000113    0.00000129
     atom  155 type  2   force =     0.00000272   -0.00000137    0.00000126
     atom  156 type  2   force =     0.00000187   -0.00000103    0.00000121
     atom  157 type  2   force =     0.00000306   -0.00000112    0.00000115
     atom  158 type  2   force =     0.00000217   -0.00000063    0.00000114
     atom  159 type  2   force =     0.00000221   -0.00000093    0.00000114
     atom  160 type  2   force =     0.00000288   -0.00000114    0.00000128
     atom  161 type  3   force =     0.00000020    0.00000043    0.00000055
     atom  162 type  3   force =     0.00000031    0.00000049    0.00000063
     atom  163 type  3   force =     0.00000031    0.00000041    0.00000062
     atom  164 type  3   force =     0.00000023    0.00000029    0.00000059
     atom  165 type  3   force =     0.00000033    0.00000051    0.00000062
     atom  166 type  3   force =     0.00000021    0.00000043    0.00000056
     atom  167 type  3   force =     0.00000024    0.00000036    0.00000056
     atom  168 type  3   force =     0.00000035    0.00000045    0.00000064
     atom  169 type  2   force =     0.00000012   -0.00000306   -0.00000114
     atom  170 type  2   force =    -0.00000005   -0.00000251   -0.00000110
     atom  171 type  2   force =    -0.00000005   -0.00000285   -0.00000115
     atom  172 type  2   force =    -0.00000010   -0.00000343   -0.00000128
     atom  173 type  2   force =     0.00000003   -0.00000238   -0.00000122
     atom  174 type  2   force =     0.00000027   -0.00000323   -0.00000116
     atom  175 type  2   force =     0.00000008   -0.00000365   -0.00000126
     atom  176 type  2   force =     0.00000007   -0.00000242   -0.00000120
     atom  177 type  3   force =    -0.00000079   -0.00000038   -0.00000031
     atom  178 type  3   force =    -0.00000057   -0.00000029   -0.00000032
     atom  179 type  3   force =    -0.00000059   -0.00000035   -0.00000033
     atom  180 type  3   force =    -0.00000082   -0.00000042   -0.00000035
     atom  181 type  3   force =    -0.00000066   -0.00000025   -0.00000035
     atom  182 type  3   force =    -0.00000073   -0.00000039   -0.00000031
     atom  183 type  3   force =    -0.00000074   -0.00000045   -0.00000033
     atom  184 type  3   force =    -0.00000067   -0.00000026   -0.00000034
     atom  185 type  1   force =     0.00000176   -0.00000721    0.00000531
     atom  186 type  1   force =     0.00000159   -0.00000641    0.00000481
     atom  187 type  1   force =     0.00000246   -0.00000648    0.00000471
     atom  188 type  1   force =     0.00000207   -0.00000755    0.00000554
     atom  189 type  1   force =     0.00000160   -0.00000613    0.00000472
     atom  190 type  1   force =     0.00000097   -0.00000719    0.00000515
     atom  191 type  1   force =     0.00000157   -0.00000712    0.00000512
     atom  192 type  1   force =     0.00000204   -0.00000640    0.00000500
     atom  193 type  1   force =    -0.00000761   -0.00000783    0.00000660
     atom  194 type  1   force =    -0.00000642   -0.00000612    0.00000533
     atom  195 type  1   force =    -0.00000633   -0.00000651    0.00000557
     atom  196 type  1   force =    -0.00000744   -0.00000760    0.00000645
     atom  197 type  1   force =    -0.00000662   -0.00000637    0.00000564
     atom  198 type  1   force =    -0.00000771   -0.00000757    0.00000639
     atom  199 type  1   force =    -0.00000739   -0.00000742    0.00000629
     atom  200 type  1   force =    -0.00000642   -0.00000635    0.00000582
     atom  201 type  2   force =     0.00000431   -0.00000305   -0.00000094
     atom  202 type  2   force =     0.00000317   -0.00000211   -0.00000078
     atom  203 type  2   force =     0.00000311   -0.00000201   -0.00000074
     atom  204 type  2   force =     0.00000382   -0.00000263   -0.00000083
     atom  205 type  2   force =     0.00000336   -0.00000235   -0.00000068
     atom  206 type  2   force =     0.00000409   -0.00000294   -0.00000084
     atom  207 type  2   force =     0.00000346   -0.00000259   -0.00000080
     atom  208 type  2   force =     0.00000290   -0.00000198   -0.00000063
     atom  209 type  3   force =     0.00000077   -0.00000016   -0.00000027
     atom  210 type  3   force =     0.00000060   -0.00000010   -0.00000027
     atom  211 type  3   force =     0.00000060   -0.00000009   -0.00000023
     atom  212 type  3   force =     0.00000070   -0.00000014   -0.00000026
     atom  213 type  3   force =     0.00000068   -0.00000008   -0.00000023
     atom  214 type  3   force =     0.00000074   -0.00000014   -0.00000025
     atom  215 type  3   force =     0.00000075   -0.00000009   -0.00000021
     atom  216 type  3   force =     0.00000066   -0.00000002   -0.00000021
     atom  217 type  1   force =     0.00000490   -0.00000091   -0.00000142
     atom  218 type  1   force =     0.00000386   -0.00000019   -0.00000137
     atom  219 type  1   force =     0.00000382   -0.00000009   -0.00000136
     atom  220 type  1   force =     0.00000500   -0.00000057   -0.00000125
     atom  221 type  1   force =     0.00000346   -0.00000077   -0.00000124
     atom  222 type  1   force =     0.00000464   -0.00000061   -0.00000148
     atom  223 type  1   force =     0.00000427   -0.00000034   -0.00000126
     atom  224 type  1   force =     0.00000305   -0.00000057   -0.00000116
     atom  225 type  2   force =    -0.00000377    0.00000387   -0.00000031
     atom  226 type  2   force =    -0.00000307    0.00000301   -0.00000034
     atom  227 type  2   force =    -0.00000291    0.00000297   -0.00000031
     atom  228 type  2   force =    -0.00000380    0.00000389   -0.00000027
     atom  229 type  2   force =    -0.00000278    0.00000299   -0.00000039
     atom  230 type  2   force =    -0.00000345    0.00000398   -0.00000042
     atom  231 type  2   force =    -0.00000360    0.00000398   -0.00000039
     atom  232 type  2   force =    -0.00000306    0.00000330   -0.00000036
     atom  233 type  3   force =     0.00000010   -0.00000060   -0.00000003
     atom  234 type  3   force =     0.00000009   -0.00000046   -0.00000004
     atom  235 type  3   force =     0.00000006   -0.00000048   -0.00000005
     atom  236 type  3   force =     0.00000009   -0.00000060   -0.00000004
     atom  237 type  3   force =     0.00000007   -0.00000054   -0.00000007
     atom  238 type  3   force =     0.00000013   -0.00000060   -0.00000005
     atom  239 type  3   force =     0.00000014   -0.00000061   -0.00000006
     atom  240 type  3   force =     0.00000005   -0.00000049   -0.00000006
     atom  241 type  1   force =    -0.00000566   -0.00000135    0.00000230
     atom  242 type  1   force =    -0.00000415   -0.00000247    0.00000168
     atom  243 type  1   force =    -0.00000400   -0.00000265    0.00000153
     atom  244 type  1   force =    -0.00000534   -0.00000219    0.00000220
     atom  245 type  1   force =    -0.00000411   -0.00000278    0.00000161
     atom  246 type  1   force =    -0.00000510   -0.00000185    0.00000200
     atom  247 type  1   force =    -0.00000516   -0.00000205    0.00000218
     atom  248 type  1   force =    -0.00000410   -0.00000270    0.00000179
     atom  249 type  1   force =    -0.00000005   -0.00000615   -0.00000125
     atom  250 type  1   force =     0.00000077   -0.00000622   -0.00000151
     atom  251 type  1   force =     0.00000075   -0.00000593   -0.00000143
     atom  252 type  1   force =     0.00000016   -0.00000631   -0.00000121
     atom  253 type  1   force =     0.00000114   -0.00000624   -0.00000169
     atom  254 type  1   force =     0.00000042   -0.00000607   -0.00000133
     atom  255 type  1   force =    -0.00000002   -0.00000633   -0.00000091
     atom  256 type  1   force =     0.00000120   -0.00000629   -0.00000165
     atom  257 type  2   force =     0.00000231   -0.00000247   -0.00000075
     atom  258 type  2   force =     0.00000337   -0.00000162   -0.00000087
     atom  259 type  2   force =     0.00000320   -0.00000165   -0.00000095
     atom  260 type  2   force =     0.00000294   -0.00000231   -0.00000077
     atom  261 type  2   force =     0.00000322   -0.00000140   -0.00000107
     atom  262 type  2   force =     0.00000306   -0.00000238   -0.00000070
     atom  263 type  2   force =     0.00000296   -0.00000248   -0.00000076
     atom  264 type  2   force =     0.00000348   -0.00000172   -0.00000091
     atom  265 type  2   force =     0.00000171    0.00000268   -0.00000121
     atom  266 type  2   force =     0.00000311    0.00000191   -0.00000191
     atom  267 type  2   force =     0.00000330    0.00000176   -0.00000209
     atom  268 type  2   force =     0.00000214    0.00000209   -0.00000139
     atom  269 type  2   force =     0.00000349    0.00000205   -0.00000222
     atom  270 type  2   force =     0.00000225    0.00000267   -0.00000137
     atom  271 type  2   force =     0.00000204    0.00000235   -0.00000128
     atom  272 type  2   force =     0.00000353    0.00000197   -0.00000204
     atom  273 type  2   force =     0.00000065    0.00000199   -0.00000108
     atom  274 type  2   force =     0.00000086    0.00000298   -0.00000122
     atom  275 type  2   force =     0.00000086    0.00000299   -0.00000124
     atom  276 type  2   force =     0.00000058    0.00000272   -0.00000116
     atom  277 type  2   force =     0.00000098    0.00000328   -0.00000140
     atom  278 type  2   force =     0.00000095    0.00000214   -0.00000105
     atom  279 type  2   force =     0.00000084    0.00000236   -0.00000113
     atom  280 type  2   force =     0.00000097    0.00000338   -0.00000129
     atom  281 type  3   force =    -0.00000039    0.00000020   -0.00000053
     atom  282 type  3   force =    -0.00000053    0.00000034   -0.00000059
     atom  283 type  3   force =    -0.00000049    0.00000034   -0.00000059
     atom  284 type  3   force =    -0.00000057    0.00000024   -0.00000057
     atom  285 type  3   force =    -0.00000046    0.00000042   -0.00000064
     atom  286 type  3   force =    -0.00000050    0.00000017   -0.00000055
     atom  287 type  3   force =    -0.00000055    0.00000016   -0.00000056
     atom  288 type  3   force =    -0.00000052    0.00000040   -0.00000064
     atom  289 type  2   force =     0.00000277   -0.00000006    0.00000110
     atom  290 type  2   force =     0.00000339    0.00000024    0.00000109
     atom  291 type  2   force =     0.00000309    0.00000024    0.00000105
     atom  292 type  2   force =     0.00000334   -0.00000010    0.00000122
     atom  293 type  2   force =     0.00000305    0.00000037    0.00000102
     atom  294 type  2   force =     0.00000339   -0.00000036    0.00000114
     atom  295 type  2   force =     0.00000335   -0.00000034    0.00000111
     atom  296 type  2   force =     0.00000333    0.00000033    0.00000116
     atom  297 type  3   force =     0.00000036   -0.00000057    0.00000030
     atom  298 type  3   force =     0.00000041   -0.00000076    0.00000030
     atom  299 type  3   force =     0.00000036   -0.00000076    0.00000029
     atom  300 type  3   force =     0.00000039   -0.00000062    0.00000034
     atom  301 type  3   force =     0.00000036   -0.00000080    0.00000029
     atom  302 type  3   force =     0.00000042   -0.00000059    0.00000030
     atom  303 type  3   force =     0.00000039   -0.00000061    0.00000029
     atom  304 type  3   force =     0.00000037   -0.00000078    0.00000031
     atom  305 type  1   force =     0.00000658    0.00000240   -0.00000465
     atom  306 type  1   force =     0.00000694    0.00000109   -0.00000509
     atom  307 type  1   force =     0.00000704    0.00000074   -0.00000520
     atom  308 type  1   force =     0.00000670    0.00000158   -0.00000464
     atom  309 type  1   force =     0.00000738    0.00000122   -0.00000534
     atom  310 type  1   force =     0.00000644    0.00000211   -0.00000444
     atom  311 type  1   force =     0.00000649    0.00000158   -0.00000452
     atom  312 type  1   force =     0.00000755    0.00000126   -0.00000520
     atom  313 type  1   force =     0.00000652   -0.00000639   -0.00000558
     atom  314 type  1   force =     0.00000750   -0.00000777   -0.00000635
     atom  315 type  1   force =     0.00000761   -0.00000787   -0.00000640
     atom  316 type  1   force =     0.00000710   -0.00000692   -0.00000575
     atom  317 type  1   force =     0.00000832   -0.00000814   -0.00000683
     atom  318 type  1   force =     0.00000704   -0.00000671   -0.00000586
     atom  319 type  1   force =     0.00000697   -0.00000685   -0.00000567
     atom  320 type  1   force =     0.00000832   -0.00000811   -0.00000665
     atom  321 type  2   force =     0.00000203    0.00000331    0.00000073
     atom  322 type  2   force =     0.00000299    0.00000414    0.00000073
     atom  323 type  2   force =     0.00000296    0.00000387    0.00000063
     atom  324 type  2   force =     0.00000289    0.00000423    0.00000075
     atom  325 type  2   force =     0.00000282    0.00000406    0.00000065
     atom  326 type  2   force =     0.00000255    0.00000381    0.00000072
     atom  327 type  2   force =     0.00000278    0.00000400    0.00000065
     atom  328 type  2   force =     0.00000323    0.00000433    0.00000076
     atom  329 type  3   force =     0.00000001    0.00000070    0.00000027
     atom  330 type  3   force =     0.00000016    0.00000079    0.00000021
     atom  331 type  3   force =     0.00000022    0.00000071    0.00000018
     atom  332 type  3   force =     0.00000012    0.00000078    0.00000026
     atom  333 type  3   force =     0.00000019    0.00000073    0.00000021
     atom  334 type  3   force =     0.00000007    0.00000078    0.00000023
     atom  335 type  3   force =     0.00000015    0.00000074    0.00000023
     atom  336 type  3   force =     0.00000024    0.00000075    0.00000022
     atom  337 type  1   force =     0.00000060    0.00000385    0.00000124
     atom  338 type  1   force =     0.00000069    0.00000475    0.00000114
     atom  339 type  1   force =     0.00000064    0.00000475    0.00000105
     atom  340 type  1   force =     0.00000096    0.00000433    0.00000130
     atom  341 type  1   force =     0.00000036    0.00000515    0.00000107
     atom  342 type  1   force =     0.00000126    0.00000349    0.00000134
     atom  343 type  1   force =     0.00000124    0.00000384    0.00000122
     atom  344 type  1   force =     0.00000070    0.00000511    0.00000120
     atom  345 type  2   force =    -0.00000306   -0.00000329    0.00000036
     atom  346 type  2   force =    -0.00000410   -0.00000407    0.00000036
     atom  347 type  2   force =    -0.00000400   -0.00000404    0.00000031
     atom  348 type  2   force =    -0.00000311   -0.00000353    0.00000041
     atom  349 type  2   force =    -0.00000390   -0.00000371    0.00000038
     atom  350 type  2   force =    -0.00000320   -0.00000320    0.00000040
     atom  351 type  2   force =    -0.00000312   -0.00000336    0.00000039
     atom  352 type  2   force =    -0.00000382   -0.00000371    0.00000033
     atom  353 type  3   force =     0.00000047    0.00000005    0.00000007
     atom  354 type  3   force =     0.00000057    0.00000013    0.00000004
     atom  355 type  3   force =     0.00000059    0.00000010    0.00000004
     atom  356 type  3   force =     0.00000053    0.00000010    0.00000009
     atom  357 type  3   force =     0.00000062    0.00000011    0.00000003
     atom  358 type  3   force =     0.00000050    0.00000007    0.00000006
     atom  359 type  3   force =     0.00000055    0.00000007    0.00000007
     atom  360 type  3   force =     0.00000064    0.00000015    0.00000006
     atom  361 type  1   force =     0.00000553    0.00000103    0.00000244
     atom  362 type  1   force =     0.00000407    0.00000285    0.00000172
     atom  363 type  1   force =     0.00000388    0.00000309    0.00000147
     atom  364 type  1   force =     0.00000550    0.00000126    0.00000242
     atom  365 type  1   force =     0.00000428    0.00000170    0.00000180
     atom  366 type  1   force =     0.00000500    0.00000252    0.00000202
     atom  367 type  1   force =     0.00000531    0.00000168    0.00000215
     atom  368 type  1   force =     0.00000416    0.00000201    0.00000174
     atom  369 type  1   force =    -0.00000105    0.00000633   -0.00000172
     atom  370 type  1   force =     0.00000022    0.00000621   -0.00000102
     atom  371 type  1   force =     0.00000076    0.00000619   -0.00000065
     atom  372 type  1   force =    -0.00000086    0.00000660   -0.00000154
     atom  373 type  1   force =    -0.00000005    0.00000618   -0.00000114
     atom  374 type  1   force =    -0.00000035    0.00000581   -0.00000103
     atom  375 type  1   force =    -0.00000035    0.00000571   -0.00000113
     atom  376 type  1   force =    -0.00000007    0.00000639   -0.00000100
     atom  377 type  2   force =    -0.00000359    0.00000144   -0.00000103
     atom  378 type  2   force =    -0.00000258    0.00000260   -0.00000062
     atom  379 type  2   force =    -0.00000272    0.00000265   -0.00000069
     atom  380 type  2   force =    -0.00000361    0.00000146   -0.00000092
     atom  381 type  2   force =    -0.00000319    0.00000244   -0.00000076
     atom  382 type  2   force =    -0.00000331    0.00000180   -0.00000088
     atom  383 type  2   force =    -0.00000328    0.00000194   -0.00000093
     atom  384 type  2   force =    -0.00000323    0.00000209   -0.00000071
     atom  385 type  2   force =    -0.00000360   -0.00000162   -0.00000225
     atom  386 type  2   force =    -0.00000176   -0.00000266   -0.00000107
     atom  387 type  2   force =    -0.00000161   -0.00000249   -0.00000105
     atom  388 type  2   force =    -0.00000330   -0.00000186   -0.00000200
     atom  389 type  2   force =    -0.00000207   -0.00000245   -0.00000130
     atom  390 type  2   force =    -0.00000329   -0.00000198   -0.00000197
     atom  391 type  2   force =    -0.00000313   -0.00000192   -0.00000199
     atom  392 type  2   force =    -0.00000223   -0.00000202   -0.00000138
     atom  393 type  2   force =    -0.00000092   -0.00000347   -0.00000133
     atom  394 type  2   force =    -0.00000073   -0.00000219   -0.00000102
     atom  395 type  2   force =    -0.00000063   -0.00000242   -0.00000106
     atom  396 type  2   force =    -0.00000092   -0.00000342   -0.00000130
     atom  397 type  2   force =    -0.00000092   -0.00000207   -0.00000110
     atom  398 type  2   force =    -0.00000106   -0.00000297   -0.00000121
     atom  399 type  2   force =    -0.00000086   -0.00000298   -0.00000127
     atom  400 type  2   force =    -0.00000067   -0.00000245   -0.00000112
     atom  401 type  3   force =     0.00000053   -0.00000040   -0.00000064
     atom  402 type  3   force =     0.00000046   -0.00000019   -0.00000054
     atom  403 type  3   force =     0.00000056   -0.00000018   -0.00000055
     atom  404 type  3   force =     0.00000054   -0.00000040   -0.00000063
     atom  405 type  3   force =     0.00000049   -0.00000016   -0.00000056
     atom  406 type  3   force =     0.00000046   -0.00000035   -0.00000060
     atom  407 type  3   force =     0.00000052   -0.00000033   -0.00000062
     atom  408 type  3   force =     0.00000055   -0.00000022   -0.00000056
     atom  409 type  2   force =    -0.00000311    0.00000007    0.00000107
     atom  410 type  2   force =    -0.00000341   -0.00000029    0.00000114
     atom  411 type  2   force =    -0.00000354   -0.00000019    0.00000111
     atom  412 type  2   force =    -0.00000341    0.00000018    0.00000121
     atom  413 type  2   force =    -0.00000296   -0.00000028    0.00000110
     atom  414 type  2   force =    -0.00000347    0.00000045    0.00000121
     atom  415 type  2   force =    -0.00000351    0.00000044    0.00000119
     atom  416 type  2   force =    -0.00000337   -0.00000014    0.00000112
     atom  417 type  3   force =    -0.00000037    0.00000058    0.00000029
     atom  418 type  3   force =    -0.00000038    0.00000082    0.00000031
     atom  419 type  3   force =    -0.00000038    0.00000082    0.00000031
     atom  420 type  3   force =    -0.00000040    0.00000060    0.00000033
     atom  421 type  3   force =    -0.00000033    0.00000076    0.00000029
     atom  422 type  3   force =    -0.00000041    0.00000063    0.00000032
     atom  423 type  3   force =    -0.00000037    0.00000065    0.00000032
     atom  424 type  3   force =    -0.00000039    0.00000078    0.00000030
     atom  425 type  1   force =    -0.00000724   -0.00000062   -0.00000533
     atom  426 type  1   force =    -0.00000656   -0.00000225   -0.00000459
     atom  427 type  1   force =    -0.00000651   -0.00000183   -0.00000469
     atom  428 type  1   force =    -0.00000714   -0.00000088   -0.00000526
     atom  429 type  1   force =    -0.00000655   -0.00000178   -0.00000449
     atom  430 type  1   force =    -0.00000739   -0.00000077   -0.00000516
     atom  431 type  1   force =    -0.00000717   -0.00000103   -0.00000527
     atom  432 type  1   force =    -0.00000651   -0.00000108   -0.00000443
     atom  433 type  1   force =    -0.00000817    0.00000834   -0.00000685
     atom  434 type  1   force =    -0.00000640    0.00000652   -0.00000546
     atom  435 type  1   force =    -0.00000610    0.00000644   -0.00000521
     atom  436 type  1   force =    -0.00000797    0.00000815   -0.00000667
     atom  437 type  1   force =    -0.00000676    0.00000658   -0.00000556
     atom  438 type  1   force =    -0.00000746    0.00000777   -0.00000601
     atom  439 type  1   force =    -0.00000713    0.00000754   -0.00000597
     atom  440 type  1   force =    -0.00000716    0.00000704   -0.00000581
     atom  441 type  2   force =    -0.00000351   -0.00000442    0.00000067
     atom  442 type  2   force =    -0.00000247   -0.00000374    0.00000073
     atom  443 type  2   force =    -0.00000275   -0.00000419    0.00000075
     atom  444 type  2   force =    -0.00000342   -0.00000456    0.00000070
     atom  445 type  2   force =    -0.00000266   -0.00000382    0.00000071
     atom  446 type  2   force =    -0.00000270   -0.00000377    0.00000074
     atom  447 type  2   force =    -0.00000300   -0.00000412    0.00000071
     atom  448 type  2   force =    -0.00000304   -0.00000415    0.00000073
     atom  449 type  3   force =    -0.00000013   -0.00000077    0.00000026
     atom  450 type  3   force =    -0.00000023   -0.00000083    0.00000021
     atom  451 type  3   force =    -0.00000027   -0.00000077    0.00000019
     atom  452 type  3   force =    -0.00000010   -0.00000074    0.00000024
     atom  453 type  3   force =    -0.00000019   -0.00000075    0.00000020
     atom  454 type  3   force =    -0.00000012   -0.00000080    0.00000022
     atom  455 type  3   force =    -0.00000004   -0.00000080    0.00000024
     atom  456 type  3   force =    -0.00000016   -0.00000071    0.00000021
     atom  457 type  1   force =    -0.00000114   -0.00000423    0.00000127
     atom  458 type  1   force =    -0.00000080   -0.00000487    0.00000116
     atom  459 type  1   force =    -0.00000073   -0.00000501    0.00000114
     atom  460 type  1   force =    -0.00000097   -0.00000398    0.00000111
     atom  461 type  1   force =    -0.00000073   -0.00000481    0.00000119
     atom  462 type  1   force =    -0.00000118   -0.00000346    0.00000133
     atom  463 type  1   force =    -0.00000111   -0.00000332    0.00000142
     atom  464 type  1   force =    -0.00000038   -0.00000471    0.00000116
     atom  465 type  2   force =     0.00000292    0.00000282    0.00000036
     atom  466 type  2   force =     0.00000388    0.00000371    0.00000033
     atom  467 type  2   force =     0.00000379    0.00000361    0.00000033
     atom  468 type  2   force =     0.00000321    0.00000363    0.00000041
     atom  469 type  2   force =     0.00000396    0.00000372    0.00000025
     atom  470 type  2   force =     0.00000307    0.00000319    0.00000036
     atom  471 type  2   force =     0.00000313    0.00000344    0.00000032
     atom  472 type  2   force =     0.00000402    0.00000409    0.00000038
     atom  473 type  3   force =    -0.00000051   -0.00000010    0.00000007
     atom  474 type  3   force =    -0.00000064   -0.00000015    0.00000005
     atom  475 type  3   force =    -0.00000061   -0.00000016    0.00000004
     atom  476 type  3   force =    -0.00000053   -0.00000008    0.00000009
     atom  477 type  3   force =    -0.00000060   -0.00000013    0.00000004
     atom  478 type  3   force =    -0.00000049   -0.00000009    0.00000007
     atom  479 type  3   force =    -0.00000046   -0.00000011    0.00000007
     atom  480 type  3   force =    -0.00000058   -0.00000010    0.00000004
     atom  481 type  4   force =    -0.00000120   -0.00000074   -0.00000279
     atom  482 type  4   force =    -0.00000078   -0.00000058    0.00000043
     atom  483 type  4   force =    -0.00000023   -0.00000045    0.00000045
     atom  484 type  4   force =    -0.00000032   -0.00000075   -0.00000263
     atom  485 type  4   force =    -0.00000005   -0.00000012    0.00000092
     atom  486 type  4   force =    -0.00000100    0.00000022   -0.00000249
     atom  487 type  4   force =     0.00000080    0.00000003   -0.00000236
     atom  488 type  4   force =     0.00000080   -0.00000011    0.00000089
     atom  489 type  4   force =    -0.00000019    0.00000100    0.00000041
     atom  490 type  4   force =    -0.00000054    0.00000019    0.00000011
     atom  491 type  4   force =    -0.00000038    0.00000047    0.00000040
     atom  492 type  4   force =    -0.00000083   -0.00000026    0.00000075
     atom  493 type  4   force =     0.00000005    0.00000093    0.00000102
     atom  494 type  4   force =    -0.00000007    0.00000010    0.00000114
     atom  495 type  4   force =     0.00000001   -0.00000021    0.00000014
     atom  496 type  4   force =     0.00000017   -0.00000017    0.00000058

     Total force =     0.008650     Total SCF correction =     0.000114


     Computing stress (Cartesian axis) and pressure

          total   stress  (Ry/bohr**3)                   (kbar)     P=       -1.99
  -0.00001440  -0.00000002  -0.00000000           -2.12       -0.00       -0.00
  -0.00000002  -0.00001407  -0.00000003           -0.00       -2.07       -0.00
  -0.00000000  -0.00000003  -0.00001211           -0.00       -0.00       -1.78

     kinetic stress (kbar)  10030.36      0.02      0.00
                                0.02  10030.41     -0.01
                                0.00     -0.01  10716.57

     local   stress (kbar) -23379.12      0.12     -0.02
                                0.12 -23378.95     -0.33
                               -0.02     -0.33  -2297.25

     nonloc. stress (kbar)   2420.52     -0.00      0.00
                               -0.00   2420.52      0.00
                                0.00      0.00   2341.33

     hartree stress (kbar)  13178.62     -0.03      0.02
                               -0.03  13178.55      0.13
                                0.02      0.13   6149.29

     exc-cor stress (kbar)  -1776.02     -0.00     -0.00
                               -0.00  -1776.02      0.00
                               -0.00      0.00  -1797.58

     corecor stress (kbar)  -1052.43      0.00      0.00
                                0.00  -1052.43     -0.00
                                0.00     -0.00  -1036.21

     ewald   stress (kbar)    575.96     -0.11     -0.00
                               -0.11    575.85      0.21
                               -0.00      0.21 -14077.93

     hubbard stress (kbar)      0.00      0.00      0.00
                                0.00      0.00      0.00
                                0.00      0.00      0.00

     DFT-D   stress (kbar)      0.00      0.00      0.00
                                0.00      0.00      0.00
                                0.00      0.00      0.00

     XDM     stress (kbar)      0.00      0.00      0.00
                                0.00      0.00      0.00
                                0.00      0.00      0.00

     dft-nl  stress (kbar)      0.00      0.00      0.00
                                0.00      0.00      0.00
                                0.00      0.00      0.00

     TS-vdW  stress (kbar)      0.00      0.00      0.00
                                0.00      0.00      0.00
                                0.00      0.00      0.00

     MDB     stress (kbar)      0.00      0.00      0.00
                                0.00      0.00      0.00
                                0.00      0.00      0.00

     3D-RISM stress (kbar)      0.00      0.00      0.00
                                0.00      0.00      0.00
                                0.00      0.00      0.00


     init_run     :    148.01s CPU    152.87s WALL (       1 calls)
     electrons    :   6520.44s CPU   6683.55s WALL (       1 calls)
     forces       :     75.46s CPU     78.87s WALL (       1 calls)
     stress       :   1667.46s CPU   1686.86s WALL (       1 calls)

     Called by init_run:
     wfcinit      :    137.83s CPU    141.79s WALL (       1 calls)
     wfcinit:atom :      0.15s CPU      0.30s WALL (       1 calls)
     wfcinit:wfcr :    136.07s CPU    139.42s WALL (       1 calls)
     potinit      :      4.00s CPU      4.05s WALL (       1 calls)
     hinit0       :      3.24s CPU      3.32s WALL (       1 calls)

     Called by electrons:
     c_bands      :   5994.13s CPU   6119.43s WALL (      18 calls)
     sum_band     :    481.04s CPU    506.66s WALL (      18 calls)
     v_of_rho     :      5.92s CPU      6.11s WALL (      19 calls)
     v_h          :      0.40s CPU      0.43s WALL (      19 calls)
     v_xc         :      6.02s CPU      6.21s WALL (      21 calls)
     newd         :     26.03s CPU     38.52s WALL (      19 calls)
     PAW_pot      :     12.63s CPU     12.68s WALL (      19 calls)
     mix_rho      :      1.96s CPU      2.09s WALL (      18 calls)

     Called by c_bands:
     init_us_2    :     10.91s CPU     12.52s WALL (      37 calls)
     init_us_2:cp :     10.91s CPU     12.52s WALL (      37 calls)
     cegterg      :   5970.29s CPU   6093.59s WALL (      18 calls)

     Called by sum_band:
     sum_band:wei :      0.00s CPU      0.00s WALL (      18 calls)
     sum_band:loo :    457.05s CPU    468.74s WALL (      18 calls)
     sum_band:buf :      0.00s CPU      0.00s WALL (      18 calls)
     sum_band:ini :      5.16s CPU      6.02s WALL (      18 calls)
     sum_band:cal :    260.41s CPU    263.63s WALL (      18 calls)
     sum_band:bec :      0.86s CPU      0.86s WALL (      18 calls)
     addusdens    :     20.71s CPU     33.48s WALL (      18 calls)
                                        0.00s GPU  (      18 calls)
     addusd:skk   :      5.40s CPU     11.09s WALL (      72 calls)
                                        0.00s GPU  (      72 calls)

     Called by *egterg:
     cdiaghg      :    562.41s CPU    567.12s WALL (     104 calls)
     cegterg:over :    759.77s CPU    767.54s WALL (      86 calls)
     cegterg:upda :    371.51s CPU    377.89s WALL (      86 calls)
     cegterg:last :    868.44s CPU    881.03s WALL (      45 calls)
     cdiaghg:chol :     13.42s CPU     13.44s WALL (     104 calls)
     cdiaghg:inve :      2.30s CPU      2.31s WALL (     104 calls)
     cdiaghg:para :     47.18s CPU     49.34s WALL (     208 calls)
     h_psi        :   2649.05s CPU   2723.28s WALL (     105 calls)
     s_psi        :    650.12s CPU    658.92s WALL (     105 calls)
     g_psi        :      2.85s CPU      2.87s WALL (      86 calls)

     Called by h_psi:
     h_psi:calbec :    833.77s CPU    847.03s WALL (     105 calls)
     vloc_psi     :   1150.63s CPU   1201.57s WALL (     105 calls)
     add_vuspsi   :    661.60s CPU    669.08s WALL (     105 calls)

     General routines
     calbec       :   1164.98s CPU   1181.98s WALL (     128 calls)
     fft          :      8.36s CPU      8.70s WALL (     270 calls)
     ffts         :      0.75s CPU      0.81s WALL (      37 calls)
     fftw         :   1256.18s CPU   1313.12s WALL (  131750 calls)
     interpolate  :      0.78s CPU      0.81s WALL (      19 calls)

     Parallel routines

     PAW routines
     PAW_pot      :     12.63s CPU     12.68s WALL (      19 calls)

     PWSCF        :      2h20m CPU      2h23m WALL


   This run was terminated on:  22:37:27  19May2025            

=------------------------------------------------------------------------------=
   JOB DONE.
=------------------------------------------------------------------------------=
