
     Program PWSCF v.7.2 starts on 19May2025 at  2:54:38 

     This program is part of the open-source Quantum ESPRESSO suite
     for quantum simulation of materials; please cite
         "P. Giannozzi et al., J. Phys.:Condens. Matter 21 395502 (2009);
         "P. Giannozzi et al., J. Phys.:Condens. Matter 29 465901 (2017);
         "P. Giannozzi et al., J. Chem. Phys. 152 154105 (2020);
          URL http://www.quantum-espresso.org", 
     in publications or presentations arising from this work. More details at
     http://www.quantum-espresso.org/quote

     Parallel version (MPI), running on    12 processors

     MPI processes distributed on     1 nodes
     233447 MiB available memory on the printing compute node when the environment starts

     Waiting for input...
     Reading input from standard input

     Current dimensions of program PWSCF are:
     Max number of different atomic species (ntypx) = 10
     Max number of k-points (npk) =  40000
     Max angular momentum in pseudopotentials (lmaxx) =  4
     file C.pbesol-n-kjpaw_psl.1.0.0.UPF: wavefunction(s)  2S 2P renormalized

     R & G space division:  proc/nbgrp/npool/nimage =      12
     Subspace diagonalization in iterative solution of the eigenvalue problem:
     one sub-group per band group will be used
     custom distributed-memory algorithm (size of sub-group:  3*  3 procs)


     Parallelization info
     --------------------
     sticks:   dense  smooth     PW     G-vecs:    dense   smooth      PW
     Min        2345    2251    564               213651   200964   25130
     Max        2350    2252    565               213653   200966   25131
     Sum       28159   27021   6771              2563819  2411581  301561

     Using Slab Decomposition



     bravais-lattice index     =            0
     lattice parameter (alat)  =      37.6381  a.u.
     unit-cell volume          =   38409.3354 (a.u.)^3
     number of atoms/cell      =          496
     number of atomic types    =            4
     number of electrons       =      2016.00
     number of Kohn-Sham states=         1008
     kinetic-energy cutoff     =      60.0000  Ry
     charge density cutoff     =     250.0000  Ry
     scf convergence threshold =      1.2E-08
     mixing beta               =       0.4000
     number of iterations used =            8  plain     mixing
     Exchange-correlation= SLA  PW   PSX  PSC
                           (   1   4  10   8   0   0   0)

     celldm(1)=  37.638096  celldm(2)=   0.000000  celldm(3)=   0.000000
     celldm(4)=   0.000000  celldm(5)=   0.000000  celldm(6)=   0.000000

     crystal axes: (cart. coord. in units of alat)
               a(1) = (  -0.509774   0.509774   0.693009 )  
               a(2) = (   0.509774  -0.509774   0.693009 )  
               a(3) = (   0.509774   0.509774  -0.693009 )  

     reciprocal axes: (cart. coord. in units 2 pi/alat)
               b(1) = (  0.000000  0.980827  0.721491 )  
               b(2) = (  0.980827  0.000000  0.721491 )  
               b(3) = (  0.980827  0.980827  0.000000 )  


     PseudoPot. # 1 for N  read from file:
     ./pseudo/N.pbesol-theos.UPF
     MD5 check sum: 1b64827339d390a5a22afef3ff345c9d
     Pseudo is Ultrasoft + core correction, Zval =  5.0
     Generated using "atomic" code by A. Dal Corso  v.5.1
     Using radial grid of 1085 points,  4 beta functions with: 
                l(1) =   0
                l(2) =   0
                l(3) =   1
                l(4) =   1
     Q(r) pseudized with 0 coefficients 


     PseudoPot. # 2 for C  read from file:
     ./pseudo/C.pbesol-n-kjpaw_psl.1.0.0.UPF
     MD5 check sum: 5f3a56537b2bcef3348431d8311bb923
     Pseudo is Projector augmented-wave + core cor, Zval =  4.0
     Generated using "atomic" code by A. Dal Corso  v.6.0 svn rev. 13079
     Shape of augmentation charge: PSQ
     Using radial grid of 1073 points,  4 beta functions with: 
                l(1) =   0
                l(2) =   0
                l(3) =   1
                l(4) =   1
     Q(r) pseudized with 0 coefficients 


     PseudoPot. # 3 for H  read from file:
     ./pseudo/H.pbesol-rrkjus_psl.1.0.0.UPF
     MD5 check sum: 0324ed591cc0147dc3d88cad0d33f665
     Pseudo is Ultrasoft, Zval =  1.0
     Generated using "atomic" code by A. Dal Corso  v.6.0 svn rev. 13079
     Using radial grid of  929 points,  2 beta functions with: 
                l(1) =   0
                l(2) =   0
     Q(r) pseudized with 0 coefficients 


     PseudoPot. # 4 for Zn read from file:
     ./pseudo/zn_pbesol_v1.uspp.F.UPF
     MD5 check sum: 7d8615e52efe7c1e2b1899de8658bae2
     Pseudo is Ultrasoft, Zval = 20.0
     Generated by new atomic code, or converted to UPF format
     Using radial grid of  943 points,  6 beta functions with: 
                l(1) =   0
                l(2) =   0
                l(3) =   1
                l(4) =   1
                l(5) =   2
                l(6) =   2
     Q(r) pseudized with  8 coefficients,  rinner =    1.100   1.100   1.100
                                                       1.100   1.100

     atomic species   valence    mass     pseudopotential
        N              5.00    14.00670     N ( 1.00)
        C              4.00    12.01070     C ( 1.00)
        H              1.00     1.00794     H ( 1.00)
        Zn            20.00    65.38000     Zn( 1.00)

     No symmetry found


                                    s                        frac. trans.

      isym =  1     identity                                     

 cryst.   s( 1) = (     1          0          0      )
                  (     0          1          0      )
                  (     0          0          1      )

 cart.    s( 1) = (  1.0000000  0.0000000  0.0000000 )
                  (  0.0000000  1.0000000  0.0000000 )
                  (  0.0000000  0.0000000  1.0000000 )


   Cartesian axes

     site n.     atom                  positions (alat units)
         1           N   tau(   1) = (   0.2710468  -0.0829864   0.1173636  )
         2           N   tau(   2) = (   0.0161599   0.1719005   0.4638680  )
         3           N   tau(   3) = (   0.5259337  -0.3378733   0.4638680  )
         4           N   tau(   4) = (   0.2710468  -0.0829864   0.8103725  )
         5           N   tau(   5) = (   0.5259337   0.1719005  -0.2291408  )
         6           N   tau(   6) = (   0.2710468   0.4267874   0.1173636  )
         7           N   tau(   7) = (   0.7808206  -0.0829864   0.1173636  )
         8           N   tau(   8) = (   0.5259337   0.1719005   0.4638680  )
         9           N   tau(   9) = (   0.0792892   0.1480962   0.4576515  )
        10           N   tau(  10) = (  -0.1755977   0.4029831   0.8041559  )
        11           N   tau(  11) = (   0.3341761  -0.1067907   0.8041559  )
        12           N   tau(  12) = (   0.0792892   0.1480962   1.1506604  )
        13           N   tau(  13) = (   0.3341761   0.4029831   0.1111471  )
        14           N   tau(  14) = (   0.0792892   0.6578701   0.4576515  )
        15           N   tau(  15) = (   0.5890630   0.1480962   0.4576515  )
        16           N   tau(  16) = (   0.3341761   0.4029831   0.8041559  )
        17           C   tau(  17) = (  -0.0968335   0.1355948   0.4273593  )
        18           C   tau(  18) = (  -0.3517204   0.3904817   0.7738637  )
        19           C   tau(  19) = (   0.1580534  -0.1192921   0.7738637  )
        20           C   tau(  20) = (  -0.0968335   0.1355948   1.1203682  )
        21           C   tau(  21) = (   0.1580534   0.3904817   0.0808549  )
        22           C   tau(  22) = (  -0.0968335   0.6453687   0.4273593  )
        23           C   tau(  23) = (   0.4129403   0.1355948   0.4273593  )
        24           C   tau(  24) = (   0.1580534   0.3904817   0.7738637  )
        25           C   tau(  25) = (  -0.0247549   0.1281274   0.4322477  )
        26           C   tau(  26) = (  -0.2793710   0.3832852   0.7783839  )
        27           C   tau(  27) = (   0.2304029  -0.1264886   0.7783839  )
        28           C   tau(  28) = (  -0.0244840   0.1283983   1.1248883  )
        29           C   tau(  29) = (   0.2304029   0.3832852   0.0853750  )
        30           C   tau(  30) = (  -0.0244840   0.6381721   0.4318794  )
        31           C   tau(  31) = (   0.4852898   0.1283983   0.4318794  )
        32           C   tau(  32) = (   0.2304029   0.3832852   0.7783839  )
        33           C   tau(  33) = (   0.1135697   0.3364209   0.0858899  )
        34           C   tau(  34) = (  -0.1413172   0.5913078   0.4323944  )
        35           C   tau(  35) = (   0.3684566   0.0815340   0.4323944  )
        36           C   tau(  36) = (   0.1135697   0.3364209   0.7788988  )
        37           C   tau(  37) = (   0.3684566   0.5913078  -0.2606145  )
        38           C   tau(  38) = (   0.1135697   0.8461947   0.0858899  )
        39           C   tau(  39) = (   0.6233435   0.3364209   0.0858899  )
        40           C   tau(  40) = (   0.3684566   0.5913078   0.4323944  )
        41           H   tau(  41) = (   0.1320089   0.2848859   0.0919123  )
        42           H   tau(  42) = (  -0.1228780   0.5397728   0.4384168  )
        43           H   tau(  43) = (   0.3868958   0.0299990   0.4384168  )
        44           H   tau(  44) = (   0.1320089   0.2848859   0.7849212  )
        45           H   tau(  45) = (   0.3868958   0.5397728  -0.2545921  )
        46           H   tau(  46) = (   0.1320089   0.7946597   0.0919123  )
        47           H   tau(  47) = (   0.6417827   0.2848859   0.0919123  )
        48           H   tau(  48) = (   0.3868958   0.5397728   0.4384168  )
        49           C   tau(  49) = (   0.0234072   0.4166034   0.0803957  )
        50           C   tau(  50) = (  -0.2314797   0.6714904   0.4269002  )
        51           C   tau(  51) = (   0.2782941   0.1617165   0.4269002  )
        52           C   tau(  52) = (   0.0234072   0.4166034   0.7734046  )
        53           C   tau(  53) = (   0.2782941   0.6714904  -0.2661087  )
        54           C   tau(  54) = (   0.0234072   0.9263773   0.0803957  )
        55           C   tau(  55) = (   0.5331811   0.4166034   0.0803957  )
        56           C   tau(  56) = (   0.2782941   0.6714904   0.4269002  )
        57           H   tau(  57) = (  -0.0300067   0.4299903   0.0814174  )
        58           H   tau(  58) = (  -0.2848936   0.6848772   0.4279218  )
        59           H   tau(  59) = (   0.2248802   0.1751034   0.4279218  )
        60           H   tau(  60) = (  -0.0300067   0.4299903   0.7744263  )
        61           H   tau(  61) = (   0.2248802   0.6848772  -0.2650870  )
        62           H   tau(  62) = (  -0.0300067   0.9397641   0.0814174  )
        63           H   tau(  63) = (   0.4797671   0.4299903   0.0814174  )
        64           H   tau(  64) = (   0.2248802   0.6848772   0.4279218  )
        65           N   tau(  65) = (   0.0137429   0.0791523   0.4063605  )
        66           N   tau(  66) = (  -0.2411440   0.3340392   0.7528650  )
        67           N   tau(  67) = (   0.2686298  -0.1757347   0.7528650  )
        68           N   tau(  68) = (   0.0137429   0.0791523   1.0993694  )
        69           N   tau(  69) = (   0.2686298   0.3340392   0.0598561  )
        70           N   tau(  70) = (   0.0137429   0.5889261   0.4063605  )
        71           N   tau(  71) = (   0.5235167   0.0791523   0.4063605  )
        72           N   tau(  72) = (   0.2686298   0.3340392   0.7528650  )
        73           N   tau(  73) = (   0.0778636   0.0929680   0.4236992  )
        74           N   tau(  74) = (  -0.1770233   0.3478549   0.7702037  )
        75           N   tau(  75) = (   0.3327505  -0.1619189   0.7702037  )
        76           N   tau(  76) = (   0.0778636   0.0929680   1.1167081  )
        77           N   tau(  77) = (   0.3327505   0.3478549   0.0771948  )
        78           N   tau(  78) = (   0.0778636   0.6027418   0.4236992  )
        79           N   tau(  79) = (   0.5876374   0.0929680   0.4236992  )
        80           N   tau(  80) = (   0.3327505   0.3478549   0.7702037  )
        81           C   tau(  81) = (  -0.1238286   0.2001118   0.4205514  )
        82           C   tau(  82) = (  -0.3787155   0.4549987   0.7670558  )
        83           C   tau(  83) = (   0.1310583  -0.0547751   0.7670558  )
        84           C   tau(  84) = (  -0.1238286   0.2001118   1.1135603  )
        85           C   tau(  85) = (   0.1310583   0.4549987   0.0740469  )
        86           C   tau(  86) = (  -0.1238286   0.7098857   0.4205514  )
        87           C   tau(  87) = (   0.3859452   0.2001118   0.4205514  )
        88           C   tau(  88) = (   0.1310583   0.4549987   0.7670558  )
        89           H   tau(  89) = (   0.1645114  -0.0114933   0.0672613  )
        90           H   tau(  90) = (  -0.0903755   0.2433936   0.4137658  )
        91           H   tau(  91) = (   0.4193983  -0.2663802   0.4137658  )
        92           H   tau(  92) = (   0.1645114  -0.0114933   0.7602702  )
        93           H   tau(  93) = (   0.4193983   0.2433936  -0.2792431  )
        94           H   tau(  94) = (   0.1645114   0.4982805   0.0672613  )
        95           H   tau(  95) = (   0.6742852  -0.0114933   0.0672613  )
        96           H   tau(  96) = (   0.4193983   0.2433936   0.4137658  )
        97           N   tau(  97) = (   0.0658052  -0.0414701   0.0746064  )
        98           N   tau(  98) = (  -0.1890817   0.2134168   0.4211109  )
        99           N   tau(  99) = (   0.3206921  -0.2963571   0.4211109  )
       100           N   tau( 100) = (   0.0658052  -0.0414701   0.7676153  )
       101           N   tau( 101) = (   0.3206921   0.2134168  -0.2718980  )
       102           N   tau( 102) = (   0.0658052   0.4683037   0.0746064  )
       103           N   tau( 103) = (   0.5755790  -0.0414701   0.0746064  )
       104           N   tau( 104) = (   0.3206921   0.2134168   0.4211109  )
       105           C   tau( 105) = (  -0.0451994   0.1596322   0.0850839  )
       106           C   tau( 106) = (  -0.3000863   0.4145191   0.4315883  )
       107           C   tau( 107) = (   0.2096875  -0.0952547   0.4315883  )
       108           C   tau( 108) = (  -0.0451994   0.1596322   0.7780928  )
       109           C   tau( 109) = (   0.2096875   0.4145191  -0.2614205  )
       110           C   tau( 110) = (  -0.0451994   0.6694060   0.0850839  )
       111           C   tau( 111) = (   0.4645744   0.1596322   0.0850839  )
       112           C   tau( 112) = (   0.2096875   0.4145191   0.4315883  )
       113           H   tau( 113) = (   0.0082067   0.3098036   0.0895138  )
       114           H   tau( 114) = (  -0.2466802   0.5646905   0.4360182  )
       115           H   tau( 115) = (   0.2630936   0.0549167   0.4360182  )
       116           H   tau( 116) = (   0.0082067   0.3098036   0.7825226  )
       117           H   tau( 117) = (   0.2630936   0.5646905  -0.2569907  )
       118           H   tau( 118) = (   0.0082067   0.8195774   0.0895138  )
       119           H   tau( 119) = (   0.5179805   0.3098036   0.0895138  )
       120           H   tau( 120) = (   0.2630936   0.5646905   0.4360182  )
       121           N   tau( 121) = (   0.2387270   0.0829864   0.1173636  )
       122           N   tau( 122) = (  -0.0161599   0.3378733   0.4638680  )
       123           N   tau( 123) = (   0.4936139  -0.1719005   0.4638680  )
       124           N   tau( 124) = (   0.2387270   0.0829864   0.8103725  )
       125           N   tau( 125) = (   0.4936139   0.3378733  -0.2291408  )
       126           N   tau( 126) = (   0.2387270   0.5927603   0.1173636  )
       127           N   tau( 127) = (   0.7485008   0.0829864   0.1173636  )
       128           N   tau( 128) = (   0.4936139   0.3378733   0.4638680  )
       129           N   tau( 129) = (   0.1755977   0.1067907   0.1111471  )
       130           N   tau( 130) = (  -0.0792892   0.3616776   0.4576515  )
       131           N   tau( 131) = (   0.4304846  -0.1480962   0.4576515  )
       132           N   tau( 132) = (   0.1755977   0.1067907   0.8041559  )
       133           N   tau( 133) = (   0.4304846   0.3616776  -0.2353574  )
       134           N   tau( 134) = (   0.1755977   0.6165645   0.1111471  )
       135           N   tau( 135) = (   0.6853715   0.1067907   0.1111471  )
       136           N   tau( 136) = (   0.4304846   0.3616776   0.4576515  )
       137           C   tau( 137) = (   0.3517204   0.1192921   0.0808549  )
       138           C   tau( 138) = (   0.0968335   0.3741790   0.4273593  )
       139           C   tau( 139) = (   0.6066073  -0.1355948   0.4273593  )
       140           C   tau( 140) = (   0.3517204   0.1192921   0.7738637  )
       141           C   tau( 141) = (   0.6066073   0.3741790  -0.2656496  )
       142           C   tau( 142) = (   0.3517204   0.6290659   0.0808549  )
       143           C   tau( 143) = (   0.8614942   0.1192921   0.0808549  )
       144           C   tau( 144) = (   0.6066073   0.3741790   0.4273593  )
       145           C   tau( 145) = (   0.2793710   0.1264886   0.0853750  )
       146           C   tau( 146) = (   0.0244840   0.3813755   0.4318794  )
       147           C   tau( 147) = (   0.5342579  -0.1283983   0.4318794  )
       148           C   tau( 148) = (   0.2793710   0.1264886   0.7783839  )
       149           C   tau( 149) = (   0.5342579   0.3813755  -0.2611294  )
       150           C   tau( 150) = (   0.2793710   0.6362624   0.0853750  )
       151           C   tau( 151) = (   0.7891448   0.1264886   0.0853750  )
       152           C   tau( 152) = (   0.5342579   0.3813755   0.4318794  )
       153           C   tau( 153) = (   0.1413172  -0.0815340   0.4323944  )
       154           C   tau( 154) = (  -0.1135697   0.1733530   0.7788988  )
       155           C   tau( 155) = (   0.3962041  -0.3364209   0.7788988  )
       156           C   tau( 156) = (   0.1413172  -0.0815340   1.1254033  )
       157           C   tau( 157) = (   0.3962041   0.1733530   0.0858899  )
       158           C   tau( 158) = (   0.1413172   0.4282399   0.4323944  )
       159           C   tau( 159) = (   0.6510910  -0.0815340   0.4323944  )
       160           C   tau( 160) = (   0.3962041   0.1733530   0.7788988  )
       161           H   tau( 161) = (   0.1228780  -0.0299990   0.4384168  )
       162           H   tau( 162) = (  -0.1320089   0.2248879   0.7849212  )
       163           H   tau( 163) = (   0.3777649  -0.2848859   0.7849212  )
       164           H   tau( 164) = (   0.1228780  -0.0299990   1.1314256  )
       165           H   tau( 165) = (   0.3777649   0.2248879   0.0919123  )
       166           H   tau( 166) = (   0.1228780   0.4797748   0.4384168  )
       167           H   tau( 167) = (   0.6326518  -0.0299990   0.4384168  )
       168           H   tau( 168) = (   0.3777649   0.2248879   0.7849212  )
       169           C   tau( 169) = (  -0.0234072   0.0931704   0.0803957  )
       170           C   tau( 170) = (  -0.2782942   0.3480573   0.4269002  )
       171           C   tau( 171) = (   0.2314797  -0.1617165   0.4269002  )
       172           C   tau( 172) = (  -0.0234072   0.0931704   0.7734046  )
       173           C   tau( 173) = (   0.2314797   0.3480573  -0.2661087  )
       174           C   tau( 174) = (  -0.0234072   0.6029442   0.0803957  )
       175           C   tau( 175) = (   0.4863666   0.0931704   0.0803957  )
       176           C   tau( 176) = (   0.2314797   0.3480573   0.4269002  )
       177           H   tau( 177) = (   0.0300067   0.0797836   0.0814174  )
       178           H   tau( 178) = (  -0.2248802   0.3346705   0.4279218  )
       179           H   tau( 179) = (   0.2848936  -0.1751034   0.4279218  )
       180           H   tau( 180) = (   0.0300067   0.0797836   0.7744263  )
       181           H   tau( 181) = (   0.2848936   0.3346705  -0.2650870  )
       182           H   tau( 182) = (   0.0300067   0.5895574   0.0814174  )
       183           H   tau( 183) = (   0.5397805   0.0797836   0.0814174  )
       184           H   tau( 184) = (   0.2848936   0.3346705   0.4279218  )
       185           N   tau( 185) = (   0.2411440   0.1757347   0.0598561  )
       186           N   tau( 186) = (  -0.0137429   0.4306216   0.4063605  )
       187           N   tau( 187) = (   0.4960309  -0.0791523   0.4063605  )
       188           N   tau( 188) = (   0.2411440   0.1757347   0.7528650  )
       189           N   tau( 189) = (   0.4960309   0.4306216  -0.2866484  )
       190           N   tau( 190) = (   0.2411440   0.6855085   0.0598561  )
       191           N   tau( 191) = (   0.7509178   0.1757347   0.0598561  )
       192           N   tau( 192) = (   0.4960309   0.4306216   0.4063605  )
       193           N   tau( 193) = (   0.1770233   0.1619189   0.0771948  )
       194           N   tau( 194) = (  -0.0778636   0.4168059   0.4236992  )
       195           N   tau( 195) = (   0.4319102  -0.0929680   0.4236992  )
       196           N   tau( 196) = (   0.1770233   0.1619189   0.7702037  )
       197           N   tau( 197) = (   0.4319102   0.4168059  -0.2693096  )
       198           N   tau( 198) = (   0.1770233   0.6716928   0.0771948  )
       199           N   tau( 199) = (   0.6867971   0.1619189   0.0771948  )
       200           N   tau( 200) = (   0.4319102   0.4168059   0.4236992  )
       201           C   tau( 201) = (   0.3787155   0.0547751   0.0740469  )
       202           C   tau( 202) = (   0.1238286   0.3096620   0.4205514  )
       203           C   tau( 203) = (   0.6336024  -0.2001118   0.4205514  )
       204           C   tau( 204) = (   0.3787155   0.0547751   0.7670558  )
       205           C   tau( 205) = (   0.6336024   0.3096620  -0.2724575  )
       206           C   tau( 206) = (   0.3787155   0.5645489   0.0740469  )
       207           C   tau( 207) = (   0.8884893   0.0547751   0.0740469  )
       208           C   tau( 208) = (   0.6336024   0.3096620   0.4205514  )
       209           H   tau( 209) = (   0.3452624   0.0114933   0.0672613  )
       210           H   tau( 210) = (   0.0903755   0.2663802   0.4137658  )
       211           H   tau( 211) = (   0.6001493  -0.2433936   0.4137658  )
       212           H   tau( 212) = (   0.3452624   0.0114933   0.7602702  )
       213           H   tau( 213) = (   0.6001493   0.2663802  -0.2792431  )
       214           H   tau( 214) = (   0.3452624   0.5212672   0.0672613  )
       215           H   tau( 215) = (   0.8550362   0.0114933   0.0672613  )
       216           H   tau( 216) = (   0.6001493   0.2663802   0.4137658  )
       217           N   tau( 217) = (   0.4439686   0.0414701   0.0746064  )
       218           N   tau( 218) = (   0.1890817   0.2963571   0.4211109  )
       219           N   tau( 219) = (   0.6988555  -0.2134168   0.4211109  )
       220           N   tau( 220) = (   0.4439686   0.0414701   0.7676153  )
       221           N   tau( 221) = (   0.6988555   0.2963571  -0.2718980  )
       222           N   tau( 222) = (   0.4439686   0.5512440   0.0746064  )
       223           N   tau( 223) = (   0.9537424   0.0414701   0.0746064  )
       224           N   tau( 224) = (   0.6988555   0.2963571   0.4211109  )
       225           C   tau( 225) = (   0.0451994   0.3501416   0.0850839  )
       226           C   tau( 226) = (  -0.2096875   0.6050285   0.4315883  )
       227           C   tau( 227) = (   0.3000863   0.0952547   0.4315883  )
       228           C   tau( 228) = (   0.0451994   0.3501416   0.7780928  )
       229           C   tau( 229) = (   0.3000863   0.6050285  -0.2614205  )
       230           C   tau( 230) = (   0.0451994   0.8599154   0.0850839  )
       231           C   tau( 231) = (   0.5549732   0.3501416   0.0850839  )
       232           C   tau( 232) = (   0.3000863   0.6050285   0.4315883  )
       233           H   tau( 233) = (  -0.0082067   0.1999702   0.0895138  )
       234           H   tau( 234) = (  -0.2630936   0.4548571   0.4360182  )
       235           H   tau( 235) = (   0.2466802  -0.0549167   0.4360182  )
       236           H   tau( 236) = (  -0.0082067   0.1999702   0.7825226  )
       237           H   tau( 237) = (   0.2466802   0.4548571  -0.2569907  )
       238           H   tau( 238) = (  -0.0082067   0.7097440   0.0895138  )
       239           H   tau( 239) = (   0.5015671   0.1999702   0.0895138  )
       240           H   tau( 240) = (   0.2466802   0.4548571   0.4360182  )
       241           N   tau( 241) = (   0.1719005  -0.0161599   0.2291408  )
       242           N   tau( 242) = (  -0.0829864   0.2387270   0.5756453  )
       243           N   tau( 243) = (   0.4267874  -0.2710468   0.5756453  )
       244           N   tau( 244) = (   0.1719005  -0.0161599   0.9221497  )
       245           N   tau( 245) = (   0.4267874   0.2387270  -0.1173636  )
       246           N   tau( 246) = (   0.1719005   0.4936139   0.2291408  )
       247           N   tau( 247) = (   0.6816743  -0.0161599   0.2291408  )
       248           N   tau( 248) = (   0.4267874   0.2387270   0.5756453  )
       249           N   tau( 249) = (   0.1480962  -0.0792892   0.2353574  )
       250           N   tau( 250) = (  -0.1067907   0.1755977   0.5818618  )
       251           N   tau( 251) = (   0.4029831  -0.3341761   0.5818618  )
       252           N   tau( 252) = (   0.1480962  -0.0792892   0.9283662  )
       253           N   tau( 253) = (   0.4029831   0.1755977  -0.1111471  )
       254           N   tau( 254) = (   0.1480962   0.4304846   0.2353574  )
       255           N   tau( 255) = (   0.6578701  -0.0792892   0.2353574  )
       256           N   tau( 256) = (   0.4029831   0.1755977   0.5818618  )
       257           C   tau( 257) = (   0.1355948   0.0968335   0.2656496  )
       258           C   tau( 258) = (  -0.1192921   0.3517204   0.6121540  )
       259           C   tau( 259) = (   0.3904817  -0.1580534   0.6121540  )
       260           C   tau( 260) = (   0.1355948   0.0968335   0.9586584  )
       261           C   tau( 261) = (   0.3904817   0.3517204  -0.0808549  )
       262           C   tau( 262) = (   0.1355948   0.6066073   0.2656496  )
       263           C   tau( 263) = (   0.6453687   0.0968335   0.2656496  )
       264           C   tau( 264) = (   0.3904817   0.3517204   0.6121540  )
       265           C   tau( 265) = (   0.1283983   0.0244840   0.2611294  )
       266           C   tau( 266) = (  -0.1264886   0.2793710   0.6076339  )
       267           C   tau( 267) = (   0.3832852  -0.2304029   0.6076339  )
       268           C   tau( 268) = (   0.1283983   0.0244840   0.9541383  )
       269           C   tau( 269) = (   0.3832852   0.2793710  -0.0853750  )
       270           C   tau( 270) = (   0.1283983   0.5342579   0.2611294  )
       271           C   tau( 271) = (   0.6381721   0.0244840   0.2611294  )
       272           C   tau( 272) = (   0.3832852   0.2793710   0.6076339  )
       273           C   tau( 273) = (   0.0815340   0.1413172   0.2606145  )
       274           C   tau( 274) = (  -0.1733530   0.3962041   0.6071189  )
       275           C   tau( 275) = (   0.3364209  -0.1135697   0.6071189  )
       276           C   tau( 276) = (   0.0815340   0.1413172   0.9536234  )
       277           C   tau( 277) = (   0.3364209   0.3962041  -0.0858899  )
       278           C   tau( 278) = (   0.0815340   0.6510910   0.2606145  )
       279           C   tau( 279) = (   0.5913078   0.1413172   0.2606145  )
       280           C   tau( 280) = (   0.3364209   0.3962041   0.6071189  )
       281           H   tau( 281) = (   0.0299990   0.1228780   0.2545921  )
       282           H   tau( 282) = (  -0.2248879   0.3777649   0.6010965  )
       283           H   tau( 283) = (   0.2848859  -0.1320089   0.6010965  )
       284           H   tau( 284) = (   0.0299990   0.1228780   0.9476010  )
       285           H   tau( 285) = (   0.2848859   0.3777649  -0.0919123  )
       286           H   tau( 286) = (   0.0299990   0.6326518   0.2545921  )
       287           H   tau( 287) = (   0.5397728   0.1228780   0.2545921  )
       288           H   tau( 288) = (   0.2848859   0.3777649   0.6010965  )
       289           C   tau( 289) = (   0.1617165   0.2314797   0.2661087  )
       290           C   tau( 290) = (  -0.0931704   0.4863666   0.6126131  )
       291           C   tau( 291) = (   0.4166034  -0.0234072   0.6126131  )
       292           C   tau( 292) = (   0.1617165   0.2314797   0.9591176  )
       293           C   tau( 293) = (   0.4166034   0.4863666  -0.0803957  )
       294           C   tau( 294) = (   0.1617165   0.7412535   0.2661087  )
       295           C   tau( 295) = (   0.6714904   0.2314797   0.2661087  )
       296           C   tau( 296) = (   0.4166034   0.4863666   0.6126131  )
       297           H   tau( 297) = (   0.1751034   0.2848936   0.2650870  )
       298           H   tau( 298) = (  -0.0797836   0.5397805   0.6115915  )
       299           H   tau( 299) = (   0.4299903   0.0300067   0.6115915  )
       300           H   tau( 300) = (   0.1751034   0.2848936   0.9580959  )
       301           H   tau( 301) = (   0.4299903   0.5397805  -0.0814174  )
       302           H   tau( 302) = (   0.1751034   0.7946674   0.2650870  )
       303           H   tau( 303) = (   0.6848772   0.2848936   0.2650870  )
       304           H   tau( 304) = (   0.4299903   0.5397805   0.6115915  )
       305           N   tau( 305) = (   0.0791523  -0.0137429   0.2866484  )
       306           N   tau( 306) = (  -0.1757347   0.2411440   0.6331528  )
       307           N   tau( 307) = (   0.3340392  -0.2686298   0.6331528  )
       308           N   tau( 308) = (   0.0791523  -0.0137429   0.9796572  )
       309           N   tau( 309) = (   0.3340392   0.2411440  -0.0598561  )
       310           N   tau( 310) = (   0.0791523   0.4960309   0.2866484  )
       311           N   tau( 311) = (   0.5889261  -0.0137429   0.2866484  )
       312           N   tau( 312) = (   0.3340392   0.2411440   0.6331528  )
       313           N   tau( 313) = (   0.0929680  -0.0778636   0.2693096  )
       314           N   tau( 314) = (  -0.1619189   0.1770233   0.6158141  )
       315           N   tau( 315) = (   0.3478549  -0.3327505   0.6158141  )
       316           N   tau( 316) = (   0.0929680  -0.0778636   0.9623185  )
       317           N   tau( 317) = (   0.3478549   0.1770233  -0.0771948  )
       318           N   tau( 318) = (   0.0929680   0.4319102   0.2693096  )
       319           N   tau( 319) = (   0.6027418  -0.0778636   0.2693096  )
       320           N   tau( 320) = (   0.3478549   0.1770233   0.6158141  )
       321           C   tau( 321) = (   0.2001118   0.1238286   0.2724575  )
       322           C   tau( 322) = (  -0.0547751   0.3787155   0.6189619  )
       323           C   tau( 323) = (   0.4549987  -0.1310583   0.6189619  )
       324           C   tau( 324) = (   0.2001118   0.1238286   0.9654664  )
       325           C   tau( 325) = (   0.4549987   0.3787155  -0.0740469  )
       326           C   tau( 326) = (   0.2001118   0.6336024   0.2724575  )
       327           C   tau( 327) = (   0.7098857   0.1238286   0.2724575  )
       328           C   tau( 328) = (   0.4549987   0.3787155   0.6189619  )
       329           H   tau( 329) = (   0.2433936   0.0903755   0.2792431  )
       330           H   tau( 330) = (  -0.0114933   0.3452624   0.6257475  )
       331           H   tau( 331) = (   0.4982805  -0.1645114   0.6257475  )
       332           H   tau( 332) = (   0.2433936   0.0903755   0.9722520  )
       333           H   tau( 333) = (   0.4982805   0.3452624  -0.0672613  )
       334           H   tau( 334) = (   0.2433936   0.6001493   0.2792431  )
       335           H   tau( 335) = (   0.7531674   0.0903755   0.2792431  )
       336           H   tau( 336) = (   0.4982805   0.3452624   0.6257475  )
       337           N   tau( 337) = (   0.2134168   0.1890817   0.2718980  )
       338           N   tau( 338) = (  -0.0414701   0.4439686   0.6184024  )
       339           N   tau( 339) = (   0.4683037  -0.0658052   0.6184024  )
       340           N   tau( 340) = (   0.2134168   0.1890817   0.9649069  )
       341           N   tau( 341) = (   0.4683037   0.4439686  -0.0746064  )
       342           N   tau( 342) = (   0.2134168   0.6988555   0.2718980  )
       343           N   tau( 343) = (   0.7231906   0.1890817   0.2718980  )
       344           N   tau( 344) = (   0.4683037   0.4439686   0.6184024  )
       345           C   tau( 345) = (  -0.0952547   0.3000863   0.2614205  )
       346           C   tau( 346) = (  -0.3501416   0.5549732   0.6079250  )
       347           C   tau( 347) = (   0.1596322   0.0451994   0.6079250  )
       348           C   tau( 348) = (  -0.0952547   0.3000863   0.9544294  )
       349           C   tau( 349) = (   0.1596322   0.5549732  -0.0850839  )
       350           C   tau( 350) = (  -0.0952547   0.8098601   0.2614205  )
       351           C   tau( 351) = (   0.4145191   0.3000863   0.2614205  )
       352           C   tau( 352) = (   0.1596322   0.5549732   0.6079250  )
       353           H   tau( 353) = (   0.0549167   0.2466802   0.2569907  )
       354           H   tau( 354) = (  -0.1999702   0.5015671   0.6034951  )
       355           H   tau( 355) = (   0.3098036  -0.0082067   0.6034951  )
       356           H   tau( 356) = (   0.0549167   0.2466802   0.9499995  )
       357           H   tau( 357) = (   0.3098036   0.5015671  -0.0895138  )
       358           H   tau( 358) = (   0.0549167   0.7564540   0.2569907  )
       359           H   tau( 359) = (   0.5646905   0.2466802   0.2569907  )
       360           H   tau( 360) = (   0.3098036   0.5015671   0.6034951  )
       361           N   tau( 361) = (   0.3378733   0.0161599   0.2291408  )
       362           N   tau( 362) = (   0.0829864   0.2710468   0.5756453  )
       363           N   tau( 363) = (   0.5927603  -0.2387270   0.5756453  )
       364           N   tau( 364) = (   0.3378733   0.0161599   0.9221497  )
       365           N   tau( 365) = (   0.5927603   0.2710468  -0.1173636  )
       366           N   tau( 366) = (   0.3378733   0.5259337   0.2291408  )
       367           N   tau( 367) = (   0.8476472   0.0161599   0.2291408  )
       368           N   tau( 368) = (   0.5927603   0.2710468   0.5756453  )
       369           N   tau( 369) = (   0.1067907   0.3341761  -0.1111471  )
       370           N   tau( 370) = (  -0.1480962   0.5890630   0.2353574  )
       371           N   tau( 371) = (   0.3616776   0.0792892   0.2353574  )
       372           N   tau( 372) = (   0.1067907   0.3341761   0.5818618  )
       373           N   tau( 373) = (   0.3616776   0.5890630  -0.4576515  )
       374           N   tau( 374) = (   0.1067907   0.8439499  -0.1111471  )
       375           N   tau( 375) = (   0.6165645   0.3341761  -0.1111471  )
       376           N   tau( 376) = (   0.3616776   0.5890630   0.2353574  )
       377           C   tau( 377) = (   0.1192921   0.1580534  -0.0808549  )
       378           C   tau( 378) = (  -0.1355948   0.4129403   0.2656496  )
       379           C   tau( 379) = (   0.3741790  -0.0968335   0.2656496  )
       380           C   tau( 380) = (   0.1192921   0.1580534   0.6121540  )
       381           C   tau( 381) = (   0.3741790   0.4129403  -0.4273593  )
       382           C   tau( 382) = (   0.1192921   0.6678273  -0.0808549  )
       383           C   tau( 383) = (   0.6290659   0.1580534  -0.0808549  )
       384           C   tau( 384) = (   0.3741790   0.4129403   0.2656496  )
       385           C   tau( 385) = (   0.1264886   0.2304029  -0.0853750  )
       386           C   tau( 386) = (  -0.1283983   0.4852898   0.2611294  )
       387           C   tau( 387) = (   0.3813755  -0.0244840   0.2611294  )
       388           C   tau( 388) = (   0.1264886   0.2304029   0.6076339  )
       389           C   tau( 389) = (   0.3813755   0.4852898  -0.4318794  )
       390           C   tau( 390) = (   0.1264886   0.7401767  -0.0853750  )
       391           C   tau( 391) = (   0.6362624   0.2304029  -0.0853750  )
       392           C   tau( 392) = (   0.3813755   0.4852898   0.2611294  )
       393           C   tau( 393) = (   0.1733530   0.1135697  -0.0858899  )
       394           C   tau( 394) = (  -0.0815340   0.3684566   0.2606145  )
       395           C   tau( 395) = (   0.4282399  -0.1413172   0.2606145  )
       396           C   tau( 396) = (   0.1733530   0.1135697   0.6071189  )
       397           C   tau( 397) = (   0.4282399   0.3684566  -0.4323944  )
       398           C   tau( 398) = (   0.1733530   0.6233435  -0.0858899  )
       399           C   tau( 399) = (   0.6831268   0.1135697  -0.0858899  )
       400           C   tau( 400) = (   0.4282399   0.3684566   0.2606145  )
       401           H   tau( 401) = (   0.2248879   0.1320089  -0.0919123  )
       402           H   tau( 402) = (  -0.0299990   0.3868958   0.2545921  )
       403           H   tau( 403) = (   0.4797748  -0.1228780   0.2545921  )
       404           H   tau( 404) = (   0.2248879   0.1320089   0.6010965  )
       405           H   tau( 405) = (   0.4797748   0.3868958  -0.4384168  )
       406           H   tau( 406) = (   0.2248879   0.6417827  -0.0919123  )
       407           H   tau( 407) = (   0.7346617   0.1320089  -0.0919123  )
       408           H   tau( 408) = (   0.4797748   0.3868958   0.2545921  )
       409           C   tau( 409) = (  -0.1617165   0.2782942   0.2661087  )
       410           C   tau( 410) = (  -0.4166034   0.5331811   0.6126131  )
       411           C   tau( 411) = (   0.0931704   0.0234072   0.6126131  )
       412           C   tau( 412) = (  -0.1617165   0.2782942   0.9591176  )
       413           C   tau( 413) = (   0.0931704   0.5331811  -0.0803957  )
       414           C   tau( 414) = (  -0.1617165   0.7880680   0.2661087  )
       415           C   tau( 415) = (   0.3480573   0.2782942   0.2661087  )
       416           C   tau( 416) = (   0.0931704   0.5331811   0.6126131  )
       417           H   tau( 417) = (  -0.1751034   0.2248802   0.2650870  )
       418           H   tau( 418) = (  -0.4299903   0.4797671   0.6115915  )
       419           H   tau( 419) = (   0.0797836  -0.0300067   0.6115915  )
       420           H   tau( 420) = (  -0.1751034   0.2248802   0.9580959  )
       421           H   tau( 421) = (   0.0797836   0.4797671  -0.0814174  )
       422           H   tau( 422) = (  -0.1751034   0.7346540   0.2650870  )
       423           H   tau( 423) = (   0.3346705   0.2248802   0.2650870  )
       424           H   tau( 424) = (   0.0797836   0.4797671   0.6115915  )
       425           N   tau( 425) = (   0.1757347   0.2686298  -0.0598561  )
       426           N   tau( 426) = (  -0.0791523   0.5235167   0.2866484  )
       427           N   tau( 427) = (   0.4306216   0.0137429   0.2866484  )
       428           N   tau( 428) = (   0.1757347   0.2686298   0.6331528  )
       429           N   tau( 429) = (   0.4306216   0.5235167  -0.4063605  )
       430           N   tau( 430) = (   0.1757347   0.7784037  -0.0598561  )
       431           N   tau( 431) = (   0.6855085   0.2686298  -0.0598561  )
       432           N   tau( 432) = (   0.4306216   0.5235167   0.2866484  )
       433           N   tau( 433) = (   0.1619189   0.3327505  -0.0771948  )
       434           N   tau( 434) = (  -0.0929680   0.5876374   0.2693096  )
       435           N   tau( 435) = (   0.4168059   0.0778636   0.2693096  )
       436           N   tau( 436) = (   0.1619189   0.3327505   0.6158141  )
       437           N   tau( 437) = (   0.4168059   0.5876374  -0.4236992  )
       438           N   tau( 438) = (   0.1619189   0.8425243  -0.0771948  )
       439           N   tau( 439) = (   0.6716928   0.3327505  -0.0771948  )
       440           N   tau( 440) = (   0.4168059   0.5876374   0.2693096  )
       441           C   tau( 441) = (   0.0547751   0.1310583  -0.0740469  )
       442           C   tau( 442) = (  -0.2001118   0.3859452   0.2724575  )
       443           C   tau( 443) = (   0.3096620  -0.1238286   0.2724575  )
       444           C   tau( 444) = (   0.0547751   0.1310583   0.6189619  )
       445           C   tau( 445) = (   0.3096620   0.3859452  -0.4205514  )
       446           C   tau( 446) = (   0.0547751   0.6408321  -0.0740469  )
       447           C   tau( 447) = (   0.5645489   0.1310583  -0.0740469  )
       448           C   tau( 448) = (   0.3096620   0.3859452   0.2724575  )
       449           H   tau( 449) = (   0.2663802  -0.0903755   0.2792431  )
       450           H   tau( 450) = (   0.0114933   0.1645114   0.6257475  )
       451           H   tau( 451) = (   0.5212672  -0.3452624   0.6257475  )
       452           H   tau( 452) = (   0.2663802  -0.0903755   0.9722520  )
       453           H   tau( 453) = (   0.5212672   0.1645114  -0.0672613  )
       454           H   tau( 454) = (   0.2663802   0.4193983   0.2792431  )
       455           H   tau( 455) = (   0.7761541  -0.0903755   0.2792431  )
       456           H   tau( 456) = (   0.5212672   0.1645114   0.6257475  )
       457           N   tau( 457) = (   0.2963571  -0.1890817   0.2718980  )
       458           N   tau( 458) = (   0.0414701   0.0658052   0.6184024  )
       459           N   tau( 459) = (   0.5512440  -0.4439686   0.6184024  )
       460           N   tau( 460) = (   0.2963571  -0.1890817   0.9649069  )
       461           N   tau( 461) = (   0.5512440   0.0658052  -0.0746064  )
       462           N   tau( 462) = (   0.2963571   0.3206921   0.2718980  )
       463           N   tau( 463) = (   0.8061309  -0.1890817   0.2718980  )
       464           N   tau( 464) = (   0.5512440   0.0658052   0.6184024  )
       465           C   tau( 465) = (   0.0952547   0.2096875   0.2614205  )
       466           C   tau( 466) = (  -0.1596322   0.4645744   0.6079250  )
       467           C   tau( 467) = (   0.3501416  -0.0451994   0.6079250  )
       468           C   tau( 468) = (   0.0952547   0.2096875   0.9544294  )
       469           C   tau( 469) = (   0.3501416   0.4645744  -0.0850839  )
       470           C   tau( 470) = (   0.0952547   0.7194613   0.2614205  )
       471           C   tau( 471) = (   0.6050285   0.2096875   0.2614205  )
       472           C   tau( 472) = (   0.3501416   0.4645744   0.6079250  )
       473           H   tau( 473) = (  -0.0549167   0.2630936   0.2569907  )
       474           H   tau( 474) = (  -0.3098036   0.5179805   0.6034951  )
       475           H   tau( 475) = (   0.1999702   0.0082067   0.6034951  )
       476           H   tau( 476) = (  -0.0549167   0.2630936   0.9499995  )
       477           H   tau( 477) = (   0.1999702   0.5179805  -0.0895138  )
       478           H   tau( 478) = (  -0.0549167   0.7728675   0.2569907  )
       479           H   tau( 479) = (   0.4548571   0.2630936   0.2569907  )
       480           H   tau( 480) = (   0.1999702   0.5179805   0.6034951  )
       481           Zn  tau( 481) = (   0.2548869   0.0000000   0.1732522  )
       482           Zn  tau( 482) = (   0.0000000   0.2548869   0.5197567  )
       483           Zn  tau( 483) = (   0.5097738  -0.2548869   0.5197567  )
       484           Zn  tau( 484) = (   0.2548869   0.0000000   0.8662611  )
       485           Zn  tau( 485) = (   0.5097738   0.2548869  -0.1732522  )
       486           Zn  tau( 486) = (   0.2548869   0.5097738   0.1732522  )
       487           Zn  tau( 487) = (   0.7646607   0.0000000   0.1732522  )
       488           Zn  tau( 488) = (   0.5097738   0.2548869   0.5197567  )
       489           Zn  tau( 489) = (   0.0000000   0.0000000   0.3465044  )
       490           Zn  tau( 490) = (  -0.2548869   0.2548869   0.6930089  )
       491           Zn  tau( 491) = (   0.2548869  -0.2548869   0.6930089  )
       492           Zn  tau( 492) = (   0.0000000   0.0000000   1.0395133  )
       493           Zn  tau( 493) = (   0.2548869   0.2548869   0.0000000  )
       494           Zn  tau( 494) = (   0.0000000   0.5097738   0.3465044  )
       495           Zn  tau( 495) = (   0.5097738   0.0000000   0.3465044  )
       496           Zn  tau( 496) = (   0.2548869   0.2548869   0.6930089  )

   Crystallographic axes

     site n.     atom                  positions (cryst. coord.)
         1           N   tau(   1) = (  0.0032815  0.3505269  0.1844547  )
         2           N   tau(   2) = (  0.5032815  0.3505269  0.1844547  )
         3           N   tau(   3) = (  0.0032815  0.8505269  0.1844547  )
         4           N   tau(   4) = (  0.5032815  0.8505269  0.1844547  )
         5           N   tau(   5) = (  0.0032815  0.3505269  0.6844547  )
         6           N   tau(   6) = (  0.5032815  0.3505269  0.6844547  )
         7           N   tau(   7) = (  0.0032815  0.8505269  0.6844547  )
         8           N   tau(   8) = (  0.5032815  0.8505269  0.6844547  )
         9           N   tau(   9) = (  0.4754485  0.4079607  0.2230258  )
        10           N   tau(  10) = (  0.9754485  0.4079607  0.2230258  )
        11           N   tau(  11) = (  0.4754485  0.9079607  0.2230258  )
        12           N   tau(  12) = (  0.9754485  0.9079607  0.2230258  )
        13           N   tau(  13) = (  0.4754485  0.4079607  0.7230258  )
        14           N   tau(  14) = (  0.9754485  0.4079607  0.7230258  )
        15           N   tau(  15) = (  0.4754485  0.9079607  0.7230258  )
        16           N   tau(  16) = (  0.9754485  0.9079607  0.7230258  )
        17           C   tau(  17) = (  0.4413312  0.2133592  0.0380182  )
        18           C   tau(  18) = (  0.9413312  0.2133592  0.0380182  )
        19           C   tau(  19) = (  0.4413312  0.7133592  0.0380182  )
        20           C   tau(  20) = (  0.9413312  0.7133592  0.0380182  )
        21           C   tau(  21) = (  0.4413312  0.2133592  0.5380182  )
        22           C   tau(  22) = (  0.9413312  0.2133592  0.5380182  )
        23           C   tau(  23) = (  0.4413312  0.7133592  0.5380182  )
        24           C   tau(  24) = (  0.9413312  0.7133592  0.5380182  )
        25           C   tau(  25) = (  0.4375339  0.2875827  0.1013905  )
        26           C   tau(  26) = (  0.9375339  0.2875827  0.1019219  )
        27           C   tau(  27) = (  0.4375339  0.7875827  0.1019219  )
        28           C   tau(  28) = (  0.9375339  0.7875827  0.1019219  )
        29           C   tau(  29) = (  0.4375339  0.2875827  0.6019219  )
        30           C   tau(  30) = (  0.9375339  0.2875827  0.6019219  )
        31           C   tau(  31) = (  0.4375339  0.7875827  0.6019219  )
        32           C   tau(  32) = (  0.9375339  0.7875827  0.6019219  )
        33           C   tau(  33) = (  0.3919396  0.1733611  0.4413630  )
        34           C   tau(  34) = (  0.8919396  0.1733611  0.4413630  )
        35           C   tau(  35) = (  0.3919396  0.6733611  0.4413630  )
        36           C   tau(  36) = (  0.8919396  0.6733611  0.4413630  )
        37           C   tau(  37) = (  0.3919396  0.1733611  0.9413630  )
        38           C   tau(  38) = (  0.8919396  0.1733611  0.9413630  )
        39           C   tau(  39) = (  0.3919396  0.6733611  0.9413630  )
        40           C   tau(  40) = (  0.8919396  0.6733611  0.9413630  )
        41           H   tau(  41) = (  0.3457378  0.1957919  0.4089018  )
        42           H   tau(  42) = (  0.8457378  0.1957919  0.4089018  )
        43           H   tau(  43) = (  0.3457378  0.6957919  0.4089018  )
        44           H   tau(  44) = (  0.8457378  0.6957919  0.4089018  )
        45           H   tau(  45) = (  0.3457378  0.1957919  0.9089018  )
        46           H   tau(  46) = (  0.8457378  0.1957919  0.9089018  )
        47           H   tau(  47) = (  0.3457378  0.6957919  0.9089018  )
        48           H   tau(  48) = (  0.8457378  0.6957919  0.9089018  )
        49           C   tau(  49) = (  0.4666208  0.0809633  0.4315744  )
        50           C   tau(  50) = (  0.9666208  0.0809633  0.4315744  )
        51           C   tau(  51) = (  0.4666208  0.5809633  0.4315744  )
        52           C   tau(  52) = (  0.9666208  0.5809633  0.4315744  )
        53           C   tau(  53) = (  0.4666208  0.0809633  0.9315744  )
        54           C   tau(  54) = (  0.9666208  0.0809633  0.9315744  )
        55           C   tau(  55) = (  0.4666208  0.5809633  0.9315744  )
        56           C   tau(  56) = (  0.9666208  0.5809633  0.9315744  )
        57           H   tau(  57) = (  0.4804881  0.0293106  0.3923147  )
        58           H   tau(  58) = (  0.9804881  0.0293106  0.3923147  )
        59           H   tau(  59) = (  0.4804881  0.5293106  0.3923147  )
        60           H   tau(  60) = (  0.9804881  0.5293106  0.3923147  )
        61           H   tau(  61) = (  0.4804881  0.0293106  0.8923147  )
        62           H   tau(  62) = (  0.9804881  0.0293106  0.8923147  )
        63           H   tau(  63) = (  0.4804881  0.5293106  0.8923147  )
        64           H   tau(  64) = (  0.9804881  0.5293106  0.8923147  )
        65           N   tau(  65) = (  0.3708203  0.3066651  0.0911141  )
        66           N   tau(  66) = (  0.8708203  0.3066651  0.0911141  )
        67           N   tau(  67) = (  0.3708203  0.8066651  0.0911141  )
        68           N   tau(  68) = (  0.8708203  0.8066651  0.0911141  )
        69           N   tau(  69) = (  0.3708203  0.3066651  0.5911141  )
        70           N   tau(  70) = (  0.8708203  0.3066651  0.5911141  )
        71           N   tau(  71) = (  0.3708203  0.8066651  0.5911141  )
        72           N   tau(  72) = (  0.8708203  0.8066651  0.5911141  )
        73           N   tau(  73) = (  0.3968809  0.3820661  0.1675562  )
        74           N   tau(  74) = (  0.8968809  0.3820661  0.1675562  )
        75           N   tau(  75) = (  0.3968809  0.8820661  0.1675562  )
        76           N   tau(  76) = (  0.8968809  0.8820661  0.1675562  )
        77           N   tau(  77) = (  0.3968809  0.3820661  0.6675562  )
        78           N   tau(  78) = (  0.8968809  0.3820661  0.6675562  )
        79           N   tau(  79) = (  0.3968809  0.8820661  0.6675562  )
        80           N   tau(  80) = (  0.8968809  0.8820661  0.6675562  )
        81           C   tau(  81) = (  0.4996994  0.1819698  0.0748207  )
        82           C   tau(  82) = (  0.9996994  0.1819698  0.0748207  )
        83           C   tau(  83) = (  0.4996994  0.6819698  0.0748207  )
        84           C   tau(  84) = (  0.9996994  0.6819698  0.0748207  )
        85           C   tau(  85) = (  0.4996994  0.1819698  0.5748207  )
        86           C   tau(  86) = (  0.9996994  0.1819698  0.5748207  )
        87           C   tau(  87) = (  0.4996994  0.6819698  0.5748207  )
        88           C   tau(  88) = (  0.9996994  0.6819698  0.5748207  )
        89           H   tau(  89) = (  0.0372555  0.2098857  0.1500843  )
        90           H   tau(  90) = (  0.5372555  0.2098857  0.1500843  )
        91           H   tau(  91) = (  0.0372555  0.7098857  0.1500843  )
        92           H   tau(  92) = (  0.5372555  0.7098857  0.1500843  )
        93           H   tau(  93) = (  0.0372555  0.2098857  0.6500843  )
        94           H   tau(  94) = (  0.5372555  0.2098857  0.6500843  )
        95           H   tau(  95) = (  0.0372555  0.7098857  0.6500843  )
        96           H   tau(  96) = (  0.5372555  0.7098857  0.6500843  )
        97           N   tau(  97) = (  0.0131529  0.1183715  0.0238685  )
        98           N   tau(  98) = (  0.5131529  0.1183715  0.0238685  )
        99           N   tau(  99) = (  0.0131529  0.6183715  0.0238685  )
       100           N   tau( 100) = (  0.5131529  0.6183715  0.0238685  )
       101           N   tau( 101) = (  0.0131529  0.1183715  0.5238685  )
       102           N   tau( 102) = (  0.5131529  0.1183715  0.5238685  )
       103           N   tau( 103) = (  0.0131529  0.6183715  0.5238685  )
       104           N   tau( 104) = (  0.5131529  0.6183715  0.5238685  )
       105           C   tau( 105) = (  0.2179589  0.0170545  0.1122388  )
       106           C   tau( 106) = (  0.7179589  0.0170545  0.1122388  )
       107           C   tau( 107) = (  0.2179589  0.5170545  0.1122388  )
       108           C   tau( 108) = (  0.7179589  0.5170545  0.1122388  )
       109           C   tau( 109) = (  0.2179589  0.0170545  0.6122388  )
       110           C   tau( 110) = (  0.7179589  0.0170545  0.6122388  )
       111           C   tau( 111) = (  0.2179589  0.5170545  0.6122388  )
       112           C   tau( 112) = (  0.7179589  0.5170545  0.6122388  )
       113           H   tau( 113) = (  0.3684472  0.0726328  0.3119132  )
       114           H   tau( 114) = (  0.8684472  0.0726328  0.3119132  )
       115           H   tau( 115) = (  0.3684472  0.5726328  0.3119132  )
       116           H   tau( 116) = (  0.8684472  0.5726328  0.3119132  )
       117           H   tau( 117) = (  0.3684472  0.0726328  0.8119132  )
       118           H   tau( 118) = (  0.8684472  0.0726328  0.8119132  )
       119           H   tau( 119) = (  0.3684472  0.5726328  0.8119132  )
       120           H   tau( 120) = (  0.8684472  0.5726328  0.8119132  )
       121           N   tau( 121) = (  0.1660722  0.3188268  0.3155453  )
       122           N   tau( 122) = (  0.6660722  0.3188268  0.3155453  )
       123           N   tau( 123) = (  0.1660722  0.8188268  0.3155453  )
       124           N   tau( 124) = (  0.6660722  0.8188268  0.3155453  )
       125           N   tau( 125) = (  0.1660722  0.3188268  0.8155453  )
       126           N   tau( 126) = (  0.6660722  0.3188268  0.8155453  )
       127           N   tau( 127) = (  0.1660722  0.8188268  0.8155453  )
       128           N   tau( 128) = (  0.6660722  0.8188268  0.8155453  )
       129           N   tau( 129) = (  0.1849349  0.2524227  0.2769742  )
       130           N   tau( 130) = (  0.6849349  0.2524227  0.2769742  )
       131           N   tau( 131) = (  0.1849349  0.7524227  0.2769742  )
       132           N   tau( 132) = (  0.6849349  0.7524227  0.2769742  )
       133           N   tau( 133) = (  0.1849349  0.2524227  0.7769742  )
       134           N   tau( 134) = (  0.6849349  0.2524227  0.7769742  )
       135           N   tau( 135) = (  0.1849349  0.7524227  0.7769742  )
       136           N   tau( 136) = (  0.6849349  0.7524227  0.7769742  )
       137           C   tau( 137) = (  0.1753410  0.4033130  0.4619818  )
       138           C   tau( 138) = (  0.6753410  0.4033130  0.4619818  )
       139           C   tau( 139) = (  0.1753410  0.9033130  0.4619818  )
       140           C   tau( 140) = (  0.6753410  0.9033130  0.4619818  )
       141           C   tau( 141) = (  0.1753410  0.4033130  0.9619818  )
       142           C   tau( 142) = (  0.6753410  0.4033130  0.9619818  )
       143           C   tau( 143) = (  0.1753410  0.9033130  0.9619818  )
       144           C   tau( 144) = (  0.6753410  0.9033130  0.9619818  )
       145           C   tau( 145) = (  0.1856608  0.3356120  0.3980781  )
       146           C   tau( 146) = (  0.6856608  0.3356120  0.3980781  )
       147           C   tau( 147) = (  0.1856608  0.8356120  0.3980781  )
       148           C   tau( 148) = (  0.6856608  0.8356120  0.3980781  )
       149           C   tau( 149) = (  0.1856608  0.3356120  0.8980781  )
       150           C   tau( 150) = (  0.6856608  0.3356120  0.8980781  )
       151           C   tau( 151) = (  0.1856608  0.8356120  0.8980781  )
       152           C   tau( 152) = (  0.6856608  0.8356120  0.8980781  )
       153           C   tau( 153) = (  0.2319981  0.4505766  0.0586370  )
       154           C   tau( 154) = (  0.7319981  0.4505766  0.0586370  )
       155           C   tau( 155) = (  0.2319981  0.9505766  0.0586370  )
       156           C   tau( 156) = (  0.7319981  0.9505766  0.0586370  )
       157           C   tau( 157) = (  0.2319981  0.4505766  0.5586370  )
       158           C   tau( 158) = (  0.7319981  0.4505766  0.5586370  )
       159           C   tau( 159) = (  0.2319981  0.9505766  0.5586370  )
       160           C   tau( 160) = (  0.7319981  0.9505766  0.5586370  )
       161           H   tau( 161) = (  0.2868901  0.4368360  0.0910982  )
       162           H   tau( 162) = (  0.7868901  0.4368360  0.0910982  )
       163           H   tau( 163) = (  0.2868901  0.9368360  0.0910982  )
       164           H   tau( 164) = (  0.7868901  0.9368360  0.0910982  )
       165           H   tau( 165) = (  0.2868901  0.4368360  0.5910982  )
       166           H   tau( 166) = (  0.7868901  0.4368360  0.5910982  )
       167           H   tau( 167) = (  0.2868901  0.9368360  0.5910982  )
       168           H   tau( 168) = (  0.7868901  0.9368360  0.5910982  )
       169           C   tau( 169) = (  0.1493889  0.0350464  0.0684256  )
       170           C   tau( 170) = (  0.6493889  0.0350464  0.0684256  )
       171           C   tau( 171) = (  0.1493889  0.5350464  0.0684256  )
       172           C   tau( 172) = (  0.6493889  0.5350464  0.0684256  )
       173           C   tau( 173) = (  0.1493889  0.0350464  0.5684256  )
       174           C   tau( 174) = (  0.6493889  0.0350464  0.5684256  )
       175           C   tau( 175) = (  0.1493889  0.5350464  0.5684256  )
       176           C   tau( 176) = (  0.6493889  0.5350464  0.5684256  )
       177           H   tau( 177) = (  0.1369958  0.0881734  0.1076853  )
       178           H   tau( 178) = (  0.6369958  0.0881734  0.1076853  )
       179           H   tau( 179) = (  0.1369958  0.5881734  0.1076853  )
       180           H   tau( 180) = (  0.6369958  0.5881734  0.1076853  )
       181           H   tau( 181) = (  0.1369958  0.0881734  0.6076853  )
       182           H   tau( 182) = (  0.6369958  0.0881734  0.6076853  )
       183           H   tau( 183) = (  0.1369958  0.5881734  0.6076853  )
       184           H   tau( 184) = (  0.6369958  0.5881734  0.6076853  )
       185           N   tau( 185) = (  0.2155510  0.2797062  0.4088859  )
       186           N   tau( 186) = (  0.7155510  0.2797062  0.4088859  )
       187           N   tau( 187) = (  0.2155510  0.7797062  0.4088859  )
       188           N   tau( 188) = (  0.7155510  0.7797062  0.4088859  )
       189           N   tau( 189) = (  0.2155510  0.2797062  0.9088859  )
       190           N   tau( 190) = (  0.7155510  0.2797062  0.9088859  )
       191           N   tau( 191) = (  0.2155510  0.7797062  0.9088859  )
       192           N   tau( 192) = (  0.7155510  0.7797062  0.9088859  )
       193           N   tau( 193) = (  0.2145099  0.2293247  0.3324438  )
       194           N   tau( 194) = (  0.7145099  0.2293247  0.3324438  )
       195           N   tau( 195) = (  0.2145099  0.7293247  0.3324438  )
       196           N   tau( 196) = (  0.7145099  0.7293247  0.3324438  )
       197           N   tau( 197) = (  0.2145099  0.2293247  0.8324438  )
       198           N   tau( 198) = (  0.7145099  0.2293247  0.8324438  )
       199           N   tau( 199) = (  0.2145099  0.7293247  0.8324438  )
       200           N   tau( 200) = (  0.7145099  0.7293247  0.8324438  )
       201           C   tau( 201) = (  0.1071491  0.4248787  0.4251793  )
       202           C   tau( 202) = (  0.6071491  0.4248787  0.4251793  )
       203           C   tau( 203) = (  0.1071491  0.9248787  0.4251793  )
       204           C   tau( 204) = (  0.6071491  0.9248787  0.4251793  )
       205           C   tau( 205) = (  0.1071491  0.4248787  0.9251793  )
       206           C   tau( 206) = (  0.6071491  0.4248787  0.9251793  )
       207           C   tau( 207) = (  0.1071491  0.9248787  0.9251793  )
       208           C   tau( 208) = (  0.6071491  0.9248787  0.9251793  )
       209           H   tau( 209) = (  0.0598014  0.3871712  0.3499157  )
       210           H   tau( 210) = (  0.5598014  0.3871712  0.3499157  )
       211           H   tau( 211) = (  0.0598014  0.8871712  0.3499157  )
       212           H   tau( 212) = (  0.5598014  0.8871712  0.3499157  )
       213           H   tau( 213) = (  0.0598014  0.3871712  0.8499157  )
       214           H   tau( 214) = (  0.5598014  0.3871712  0.8499157  )
       215           H   tau( 215) = (  0.0598014  0.8871712  0.8499157  )
       216           H   tau( 216) = (  0.5598014  0.8871712  0.8499157  )
       217           N   tau( 217) = (  0.0945030  0.4892844  0.4761315  )
       218           N   tau( 218) = (  0.5945030  0.4892844  0.4761315  )
       219           N   tau( 219) = (  0.0945030  0.9892844  0.4761315  )
       220           N   tau( 220) = (  0.5945030  0.9892844  0.4761315  )
       221           N   tau( 221) = (  0.0945030  0.4892844  0.9761315  )
       222           N   tau( 222) = (  0.5945030  0.4892844  0.9761315  )
       223           N   tau( 223) = (  0.0945030  0.9892844  0.9761315  )
       224           N   tau( 224) = (  0.5945030  0.9892844  0.9761315  )
       225           C   tau( 225) = (  0.4048157  0.1057201  0.3877612  )
       226           C   tau( 226) = (  0.9048157  0.1057201  0.3877612  )
       227           C   tau( 227) = (  0.4048157  0.6057201  0.3877612  )
       228           C   tau( 228) = (  0.9048157  0.6057201  0.3877612  )
       229           C   tau( 229) = (  0.4048157  0.1057201  0.8877612  )
       230           C   tau( 230) = (  0.9048157  0.1057201  0.8877612  )
       231           C   tau( 231) = (  0.4048157  0.6057201  0.8877612  )
       232           C   tau( 232) = (  0.9048157  0.6057201  0.8877612  )
       233           H   tau( 233) = (  0.2607196  0.0565340  0.1880868  )
       234           H   tau( 234) = (  0.7607196  0.0565340  0.1880868  )
       235           H   tau( 235) = (  0.2607196  0.5565340  0.1880868  )
       236           H   tau( 236) = (  0.7607196  0.5565340  0.1880868  )
       237           H   tau( 237) = (  0.2607196  0.0565340  0.6880868  )
       238           H   tau( 238) = (  0.7607196  0.0565340  0.6880868  )
       239           H   tau( 239) = (  0.2607196  0.5565340  0.6880868  )
       240           H   tau( 240) = (  0.7607196  0.5565340  0.6880868  )
       241           N   tau( 241) = (  0.1494731  0.3339278  0.1527546  )
       242           N   tau( 242) = (  0.6494731  0.3339278  0.1527546  )
       243           N   tau( 243) = (  0.1494731  0.8339278  0.1527546  )
       244           N   tau( 244) = (  0.6494731  0.8339278  0.1527546  )
       245           N   tau( 245) = (  0.1494731  0.3339278  0.6527546  )
       246           N   tau( 246) = (  0.6494731  0.3339278  0.6527546  )
       247           N   tau( 247) = (  0.1494731  0.8339278  0.6527546  )
       248           N   tau( 248) = (  0.6494731  0.8339278  0.6527546  )
       249           N   tau( 249) = (  0.0920393  0.3150651  0.0674878  )
       250           N   tau( 250) = (  0.5920393  0.3150651  0.0674878  )
       251           N   tau( 251) = (  0.0920393  0.8150651  0.0674878  )
       252           N   tau( 252) = (  0.5920393  0.8150651  0.0674878  )
       253           N   tau( 253) = (  0.0920393  0.3150651  0.5674878  )
       254           N   tau( 254) = (  0.5920393  0.3150651  0.5674878  )
       255           N   tau( 255) = (  0.0920393  0.8150651  0.5674878  )
       256           N   tau( 256) = (  0.5920393  0.8150651  0.5674878  )
       257           C   tau( 257) = (  0.2866408  0.3246590  0.2279720  )
       258           C   tau( 258) = (  0.7866408  0.3246590  0.2279720  )
       259           C   tau( 259) = (  0.2866408  0.8246590  0.2279720  )
       260           C   tau( 260) = (  0.7866408  0.8246590  0.2279720  )
       261           C   tau( 261) = (  0.2866408  0.3246590  0.7279720  )
       262           C   tau( 262) = (  0.7866408  0.3246590  0.7279720  )
       263           C   tau( 263) = (  0.2866408  0.8246590  0.7279720  )
       264           C   tau( 264) = (  0.7866408  0.8246590  0.7279720  )
       265           C   tau( 265) = (  0.2124173  0.3143392  0.1499511  )
       266           C   tau( 266) = (  0.7124173  0.3143392  0.1499511  )
       267           C   tau( 267) = (  0.2124173  0.8143392  0.1499511  )
       268           C   tau( 268) = (  0.7124173  0.8143392  0.1499511  )
       269           C   tau( 269) = (  0.2124173  0.3143392  0.6499511  )
       270           C   tau( 270) = (  0.7124173  0.3143392  0.6499511  )
       271           C   tau( 271) = (  0.2124173  0.8143392  0.6499511  )
       272           C   tau( 272) = (  0.7124173  0.8143392  0.6499511  )
       273           C   tau( 273) = (  0.3266389  0.2680019  0.2185785  )
       274           C   tau( 274) = (  0.8266389  0.2680019  0.2185785  )
       275           C   tau( 275) = (  0.3266389  0.7680019  0.2185785  )
       276           C   tau( 276) = (  0.8266389  0.7680019  0.2185785  )
       277           C   tau( 277) = (  0.3266389  0.2680019  0.7185785  )
       278           C   tau( 278) = (  0.8266389  0.2680019  0.7185785  )
       279           C   tau( 279) = (  0.3266389  0.7680019  0.7185785  )
       280           C   tau( 280) = (  0.8266389  0.7680019  0.7185785  )
       281           H   tau( 281) = (  0.3042081  0.2131099  0.1499459  )
       282           H   tau( 282) = (  0.8042081  0.2131099  0.1499459  )
       283           H   tau( 283) = (  0.3042081  0.7131099  0.1499459  )
       284           H   tau( 284) = (  0.8042081  0.7131099  0.1499459  )
       285           H   tau( 285) = (  0.3042081  0.2131099  0.6499459  )
       286           H   tau( 286) = (  0.8042081  0.2131099  0.6499459  )
       287           H   tau( 287) = (  0.3042081  0.7131099  0.6499459  )
       288           H   tau( 288) = (  0.8042081  0.7131099  0.6499459  )
       289           C   tau( 289) = (  0.4190367  0.3506111  0.3856575  )
       290           C   tau( 290) = (  0.9190367  0.3506111  0.3856575  )
       291           C   tau( 291) = (  0.4190367  0.8506111  0.3856575  )
       292           C   tau( 292) = (  0.9190367  0.8506111  0.3856575  )
       293           C   tau( 293) = (  0.4190367  0.3506111  0.8856575  )
       294           C   tau( 294) = (  0.9190367  0.3506111  0.8856575  )
       295           C   tau( 295) = (  0.4190367  0.8506111  0.8856575  )
       296           C   tau( 296) = (  0.9190367  0.8506111  0.8856575  )
       297           H   tau( 297) = (  0.4706894  0.3630042  0.4511775  )
       298           H   tau( 298) = (  0.9706894  0.3630042  0.4511775  )
       299           H   tau( 299) = (  0.4706894  0.8630042  0.4511775  )
       300           H   tau( 300) = (  0.9706894  0.8630042  0.4511775  )
       301           H   tau( 301) = (  0.4706894  0.3630042  0.9511775  )
       302           H   tau( 302) = (  0.9706894  0.3630042  0.9511775  )
       303           H   tau( 303) = (  0.4706894  0.8630042  0.9511775  )
       304           H   tau( 304) = (  0.9706894  0.8630042  0.9511775  )
       305           N   tau( 305) = (  0.1933349  0.2844490  0.0641553  )
       306           N   tau( 306) = (  0.6933349  0.2844490  0.0641553  )
       307           N   tau( 307) = (  0.1933349  0.7844490  0.0641553  )
       308           N   tau( 308) = (  0.6933349  0.7844490  0.0641553  )
       309           N   tau( 309) = (  0.1933349  0.2844490  0.5641553  )
       310           N   tau( 310) = (  0.6933349  0.2844490  0.5641553  )
       311           N   tau( 311) = (  0.1933349  0.7844490  0.5641553  )
       312           N   tau( 312) = (  0.6933349  0.7844490  0.5641553  )
       313           N   tau( 313) = (  0.1179339  0.2854901  0.0148148  )
       314           N   tau( 314) = (  0.6179339  0.2854901  0.0148148  )
       315           N   tau( 315) = (  0.1179339  0.7854901  0.0148148  )
       316           N   tau( 316) = (  0.6179339  0.7854901  0.0148148  )
       317           N   tau( 317) = (  0.1179339  0.2854901  0.5148148  )
       318           N   tau( 318) = (  0.6179339  0.2854901  0.5148148  )
       319           N   tau( 319) = (  0.1179339  0.7854901  0.5148148  )
       320           N   tau( 320) = (  0.6179339  0.7854901  0.5148148  )
       321           C   tau( 321) = (  0.3180302  0.3928509  0.3177296  )
       322           C   tau( 322) = (  0.8180302  0.3928509  0.3177296  )
       323           C   tau( 323) = (  0.3180302  0.8928509  0.3177296  )
       324           C   tau( 324) = (  0.8180302  0.8928509  0.3177296  )
       325           C   tau( 325) = (  0.3180302  0.3928509  0.8177296  )
       326           C   tau( 326) = (  0.8180302  0.3928509  0.8177296  )
       327           C   tau( 327) = (  0.3180302  0.8928509  0.8177296  )
       328           C   tau( 328) = (  0.8180302  0.8928509  0.8177296  )
       329           H   tau( 329) = (  0.2901143  0.4401986  0.3273698  )
       330           H   tau( 330) = (  0.7901143  0.4401986  0.3273698  )
       331           H   tau( 331) = (  0.2901143  0.9401986  0.3273698  )
       332           H   tau( 332) = (  0.7901143  0.9401986  0.3273698  )
       333           H   tau( 333) = (  0.2901143  0.4401986  0.8273698  )
       334           H   tau( 334) = (  0.7901143  0.4401986  0.8273698  )
       335           H   tau( 335) = (  0.2901143  0.9401986  0.8273698  )
       336           H   tau( 336) = (  0.7901143  0.9401986  0.8273698  )
       337           N   tau( 337) = (  0.3816285  0.4054970  0.3947814  )
       338           N   tau( 338) = (  0.8816285  0.4054970  0.3947814  )
       339           N   tau( 339) = (  0.3816285  0.9054970  0.3947814  )
       340           N   tau( 340) = (  0.8816285  0.9054970  0.3947814  )
       341           N   tau( 341) = (  0.3816285  0.4054970  0.8947814  )
       342           N   tau( 342) = (  0.8816285  0.4054970  0.8947814  )
       343           N   tau( 343) = (  0.3816285  0.9054970  0.8947814  )
       344           N   tau( 344) = (  0.8816285  0.9054970  0.8947814  )
       345           C   tau( 345) = (  0.4829455  0.0951843  0.2009044  )
       346           C   tau( 346) = (  0.9829455  0.0951843  0.2009044  )
       347           C   tau( 347) = (  0.4829455  0.5951843  0.2009044  )
       348           C   tau( 348) = (  0.9829455  0.5951843  0.2009044  )
       349           C   tau( 349) = (  0.4829455  0.0951843  0.7009044  )
       350           C   tau( 350) = (  0.9829455  0.0951843  0.7009044  )
       351           C   tau( 351) = (  0.4829455  0.5951843  0.7009044  )
       352           C   tau( 352) = (  0.9829455  0.5951843  0.7009044  )
       353           H   tau( 353) = (  0.4273672  0.2392804  0.2958144  )
       354           H   tau( 354) = (  0.9273672  0.2392804  0.2958144  )
       355           H   tau( 355) = (  0.4273672  0.7392804  0.2958144  )
       356           H   tau( 356) = (  0.9273672  0.7392804  0.2958144  )
       357           H   tau( 357) = (  0.4273672  0.2392804  0.7958144  )
       358           H   tau( 358) = (  0.9273672  0.2392804  0.7958144  )
       359           H   tau( 359) = (  0.4273672  0.7392804  0.7958144  )
       360           H   tau( 360) = (  0.9273672  0.7392804  0.7958144  )
       361           N   tau( 361) = (  0.1811732  0.4967185  0.3472454  )
       362           N   tau( 362) = (  0.6811732  0.4967185  0.3472454  )
       363           N   tau( 363) = (  0.1811732  0.9967185  0.3472454  )
       364           N   tau( 364) = (  0.6811732  0.9967185  0.3472454  )
       365           N   tau( 365) = (  0.1811732  0.4967185  0.8472454  )
       366           N   tau( 366) = (  0.6811732  0.4967185  0.8472454  )
       367           N   tau( 367) = (  0.1811732  0.9967185  0.8472454  )
       368           N   tau( 368) = (  0.6811732  0.9967185  0.8472454  )
       369           N   tau( 369) = (  0.2475773  0.0245515  0.4325122  )
       370           N   tau( 370) = (  0.7475773  0.0245515  0.4325122  )
       371           N   tau( 371) = (  0.2475773  0.5245515  0.4325122  )
       372           N   tau( 372) = (  0.7475773  0.5245515  0.4325122  )
       373           N   tau( 373) = (  0.2475773  0.0245515  0.9325122  )
       374           N   tau( 374) = (  0.7475773  0.0245515  0.9325122  )
       375           N   tau( 375) = (  0.2475773  0.5245515  0.9325122  )
       376           N   tau( 376) = (  0.7475773  0.5245515  0.9325122  )
       377           C   tau( 377) = (  0.0966870  0.0586688  0.2720280  )
       378           C   tau( 378) = (  0.5966870  0.0586688  0.2720280  )
       379           C   tau( 379) = (  0.0966870  0.5586688  0.2720280  )
       380           C   tau( 380) = (  0.5966870  0.5586688  0.2720280  )
       381           C   tau( 381) = (  0.0966870  0.0586688  0.7720280  )
       382           C   tau( 382) = (  0.5966870  0.0586688  0.7720280  )
       383           C   tau( 383) = (  0.0966870  0.5586688  0.7720280  )
       384           C   tau( 384) = (  0.5966870  0.5586688  0.7720280  )
       385           C   tau( 385) = (  0.1643880  0.0624661  0.3500489  )
       386           C   tau( 386) = (  0.6643880  0.0624661  0.3500489  )
       387           C   tau( 387) = (  0.1643880  0.5624661  0.3500489  )
       388           C   tau( 388) = (  0.6643880  0.5624661  0.3500489  )
       389           C   tau( 389) = (  0.1643880  0.0624661  0.8500489  )
       390           C   tau( 390) = (  0.6643880  0.0624661  0.8500489  )
       391           C   tau( 391) = (  0.1643880  0.5624661  0.8500489  )
       392           C   tau( 392) = (  0.6643880  0.5624661  0.8500489  )
       393           C   tau( 393) = (  0.0494234  0.1080604  0.2814215  )
       394           C   tau( 394) = (  0.5494234  0.1080604  0.2814215  )
       395           C   tau( 395) = (  0.0494234  0.6080604  0.2814215  )
       396           C   tau( 396) = (  0.5494234  0.6080604  0.2814215  )
       397           C   tau( 397) = (  0.0494234  0.1080604  0.7814215  )
       398           C   tau( 398) = (  0.5494234  0.1080604  0.7814215  )
       399           C   tau( 399) = (  0.0494234  0.6080604  0.7814215  )
       400           C   tau( 400) = (  0.5494234  0.6080604  0.7814215  )
       401           H   tau( 401) = (  0.0631640  0.1542622  0.3500541  )
       402           H   tau( 402) = (  0.5631640  0.1542622  0.3500541  )
       403           H   tau( 403) = (  0.0631640  0.6542622  0.3500541  )
       404           H   tau( 404) = (  0.5631640  0.6542622  0.3500541  )
       405           H   tau( 405) = (  0.0631640  0.1542622  0.8500541  )
       406           H   tau( 406) = (  0.5631640  0.1542622  0.8500541  )
       407           H   tau( 407) = (  0.0631640  0.6542622  0.8500541  )
       408           H   tau( 408) = (  0.5631640  0.6542622  0.8500541  )
       409           C   tau( 409) = (  0.4649536  0.0333792  0.1143425  )
       410           C   tau( 410) = (  0.9649536  0.0333792  0.1143425  )
       411           C   tau( 411) = (  0.4649536  0.5333792  0.1143425  )
       412           C   tau( 412) = (  0.9649536  0.5333792  0.1143425  )
       413           C   tau( 413) = (  0.4649536  0.0333792  0.6143425  )
       414           C   tau( 414) = (  0.9649536  0.0333792  0.6143425  )
       415           C   tau( 415) = (  0.4649536  0.5333792  0.6143425  )
       416           C   tau( 416) = (  0.9649536  0.5333792  0.6143425  )
       417           H   tau( 417) = (  0.4118266  0.0195119  0.0488225  )
       418           H   tau( 418) = (  0.9118266  0.0195119  0.0488225  )
       419           H   tau( 419) = (  0.4118266  0.5195119  0.0488225  )
       420           H   tau( 420) = (  0.9118266  0.5195119  0.0488225  )
       421           H   tau( 421) = (  0.4118266  0.0195119  0.5488225  )
       422           H   tau( 422) = (  0.9118266  0.0195119  0.5488225  )
       423           H   tau( 423) = (  0.4118266  0.5195119  0.5488225  )
       424           H   tau( 424) = (  0.9118266  0.5195119  0.5488225  )
       425           N   tau( 425) = (  0.2202938  0.1291797  0.4358447  )
       426           N   tau( 426) = (  0.7202938  0.1291797  0.4358447  )
       427           N   tau( 427) = (  0.2202938  0.6291797  0.4358447  )
       428           N   tau( 428) = (  0.7202938  0.6291797  0.4358447  )
       429           N   tau( 429) = (  0.2202938  0.1291797  0.9358447  )
       430           N   tau( 430) = (  0.7202938  0.1291797  0.9358447  )
       431           N   tau( 431) = (  0.2202938  0.6291797  0.9358447  )
       432           N   tau( 432) = (  0.7202938  0.6291797  0.9358447  )
       433           N   tau( 433) = (  0.2706753  0.1031191  0.4851852  )
       434           N   tau( 434) = (  0.7706753  0.1031191  0.4851852  )
       435           N   tau( 435) = (  0.2706753  0.6031191  0.4851852  )
       436           N   tau( 436) = (  0.7706753  0.6031191  0.4851852  )
       437           N   tau( 437) = (  0.2706753  0.1031191  0.9851852  )
       438           N   tau( 438) = (  0.7706753  0.1031191  0.9851852  )
       439           N   tau( 439) = (  0.2706753  0.6031191  0.9851852  )
       440           N   tau( 440) = (  0.7706753  0.6031191  0.9851852  )
       441           C   tau( 441) = (  0.0751213  0.0003006  0.1822704  )
       442           C   tau( 442) = (  0.5751213  0.0003006  0.1822704  )
       443           C   tau( 443) = (  0.0751213  0.5003006  0.1822704  )
       444           C   tau( 444) = (  0.5751213  0.5003006  0.1822704  )
       445           C   tau( 445) = (  0.0751213  0.0003006  0.6822704  )
       446           C   tau( 446) = (  0.5751213  0.0003006  0.6822704  )
       447           C   tau( 447) = (  0.0751213  0.5003006  0.6822704  )
       448           C   tau( 448) = (  0.5751213  0.5003006  0.6822704  )
       449           H   tau( 449) = (  0.1128288  0.4627445  0.1726302  )
       450           H   tau( 450) = (  0.6128288  0.4627445  0.1726302  )
       451           H   tau( 451) = (  0.1128288  0.9627445  0.1726302  )
       452           H   tau( 452) = (  0.6128288  0.9627445  0.1726302  )
       453           H   tau( 453) = (  0.1128288  0.4627445  0.6726302  )
       454           H   tau( 454) = (  0.6128288  0.4627445  0.6726302  )
       455           H   tau( 455) = (  0.1128288  0.9627445  0.6726302  )
       456           H   tau( 456) = (  0.6128288  0.9627445  0.6726302  )
       457           N   tau( 457) = (  0.0107156  0.4868471  0.1052186  )
       458           N   tau( 458) = (  0.5107156  0.4868471  0.1052186  )
       459           N   tau( 459) = (  0.0107156  0.9868471  0.1052186  )
       460           N   tau( 460) = (  0.5107156  0.9868471  0.1052186  )
       461           N   tau( 461) = (  0.0107156  0.4868471  0.6052186  )
       462           N   tau( 462) = (  0.5107156  0.4868471  0.6052186  )
       463           N   tau( 463) = (  0.0107156  0.9868471  0.6052186  )
       464           N   tau( 464) = (  0.5107156  0.9868471  0.6052186  )
       465           C   tau( 465) = (  0.3942799  0.2820411  0.2990956  )
       466           C   tau( 466) = (  0.8942799  0.2820411  0.2990956  )
       467           C   tau( 467) = (  0.3942799  0.7820411  0.2990956  )
       468           C   tau( 468) = (  0.8942799  0.7820411  0.2990956  )
       469           C   tau( 469) = (  0.3942799  0.2820411  0.7990956  )
       470           C   tau( 470) = (  0.8942799  0.2820411  0.7990956  )
       471           C   tau( 471) = (  0.3942799  0.7820411  0.7990956  )
       472           C   tau( 472) = (  0.8942799  0.7820411  0.7990956  )
       473           H   tau( 473) = (  0.4434660  0.1315528  0.2041856  )
       474           H   tau( 474) = (  0.9434660  0.1315528  0.2041856  )
       475           H   tau( 475) = (  0.4434660  0.6315528  0.2041856  )
       476           H   tau( 476) = (  0.9434660  0.6315528  0.2041856  )
       477           H   tau( 477) = (  0.4434660  0.1315528  0.7041856  )
       478           H   tau( 478) = (  0.9434660  0.1315528  0.7041856  )
       479           H   tau( 479) = (  0.4434660  0.6315528  0.7041856  )
       480           H   tau( 480) = (  0.9434660  0.6315528  0.7041856  )
       481           Zn  tau( 481) = (  0.1250000  0.3750000  0.2500000  )
       482           Zn  tau( 482) = (  0.6250000  0.3750000  0.2500000  )
       483           Zn  tau( 483) = (  0.1250000  0.8750000  0.2500000  )
       484           Zn  tau( 484) = (  0.6250000  0.8750000  0.2500000  )
       485           Zn  tau( 485) = (  0.1250000  0.3750000  0.7500000  )
       486           Zn  tau( 486) = (  0.6250000  0.3750000  0.7500000  )
       487           Zn  tau( 487) = (  0.1250000  0.8750000  0.7500000  )
       488           Zn  tau( 488) = (  0.6250000  0.8750000  0.7500000  )
       489           Zn  tau( 489) = (  0.2500000  0.2500000  0.0000000  )
       490           Zn  tau( 490) = (  0.7500000  0.2500000  0.0000000  )
       491           Zn  tau( 491) = (  0.2500000  0.7500000  0.0000000  )
       492           Zn  tau( 492) = (  0.7500000  0.7500000  0.0000000  )
       493           Zn  tau( 493) = (  0.2500000  0.2500000  0.5000000  )
       494           Zn  tau( 494) = (  0.7500000  0.2500000  0.5000000  )
       495           Zn  tau( 495) = (  0.2500000  0.7500000  0.5000000  )
       496           Zn  tau( 496) = (  0.7500000  0.7500000  0.5000000  )

     number of k points=     1
                       cart. coord. in units 2pi/alat
        k(    1) = (   0.0000000   0.0000000   0.0000000), wk =   2.0000000

                       cryst. coord.
        k(    1) = (   0.0000000   0.0000000   0.0000000), wk =   2.0000000

     Dense  grid:  2563819 G-vectors     FFT dimensions: ( 192, 192, 192)

     Smooth grid:  2411581 G-vectors     FFT dimensions: ( 192, 192, 192)

     Dynamical RAM for                 wfc:     386.37 MB

     Dynamical RAM for     wfc (w. buffer):     386.37 MB

     Dynamical RAM for           str. fact:      13.04 MB

     Dynamical RAM for           local pot:       0.00 MB

     Dynamical RAM for          nlocal pot:    1287.89 MB

     Dynamical RAM for                qrad:       5.08 MB

     Dynamical RAM for          rho,v,vnew:      23.28 MB

     Dynamical RAM for               rhoin:       7.76 MB

     Dynamical RAM for            rho*nmix:      52.16 MB

     Dynamical RAM for           G-vectors:      13.76 MB

     Dynamical RAM for          h,s,v(r/c):      20.67 MB

     Dynamical RAM for          <psi|beta>:      51.68 MB

     Dynamical RAM for                 psi:     772.73 MB

     Dynamical RAM for                hpsi:     772.73 MB

     Dynamical RAM for                spsi:     772.73 MB

     Dynamical RAM for      wfcinit/wfcrot:    1406.58 MB

     Dynamical RAM for           addusdens:    1232.30 MB

     Dynamical RAM for          addusforce:    2480.02 MB

     Dynamical RAM for         addusstress:     655.27 MB

     Estimated static dynamical RAM per process >       1.73 GB

     Estimated max dynamical RAM per process >       4.21 GB

     Estimated total dynamical RAM >      50.49 GB

     Check: negative core charge=   -0.000014

     Initial potential from superposition of free atoms

     starting charge    2015.9874, renormalised to    2016.0000
     Starting wfcs are 1744 randomized atomic wfcs
     Checking if some PAW data can be deallocated... 

     total cpu time spent up to now is      391.1 secs

     Self-consistent Calculation

     iteration #  1     ecut=    60.00 Ry     beta= 0.40
     Davidson diagonalization with overlap

---- Real-time Memory Report at c_bands before calling an iterative solver
          3267 MiB given to the printing process from OS
             0 MiB allocation reported by mallinfo(arena+hblkhd)
        204385 MiB available memory on the node where the printing process lives
------------------
     ethr =  1.00E-02,  avg # of iterations =  3.0

     total cpu time spent up to now is     1214.7 secs

     total energy              =  -14223.11608658 Ry
     estimated scf accuracy    <      42.07401680 Ry

     iteration #  2     ecut=    60.00 Ry     beta= 0.40
     Davidson diagonalization with overlap

---- Real-time Memory Report at c_bands before calling an iterative solver
          4327 MiB given to the printing process from OS
             0 MiB allocation reported by mallinfo(arena+hblkhd)
        205339 MiB available memory on the node where the printing process lives
------------------
     ethr =  2.09E-03,  avg # of iterations =  2.0

     total cpu time spent up to now is     1890.5 secs

     total energy              =  -14223.74681359 Ry
     estimated scf accuracy    <       7.72398188 Ry

     iteration #  3     ecut=    60.00 Ry     beta= 0.40
     Davidson diagonalization with overlap

---- Real-time Memory Report at c_bands before calling an iterative solver
          4327 MiB given to the printing process from OS
             0 MiB allocation reported by mallinfo(arena+hblkhd)
        262913 MiB available memory on the node where the printing process lives
------------------
     ethr =  3.83E-04,  avg # of iterations =  4.0

     total cpu time spent up to now is     2701.8 secs

     total energy              =  -14225.17516545 Ry
     estimated scf accuracy    <       0.84801545 Ry

     iteration #  4     ecut=    60.00 Ry     beta= 0.40
     Davidson diagonalization with overlap

---- Real-time Memory Report at c_bands before calling an iterative solver
          4347 MiB given to the printing process from OS
             0 MiB allocation reported by mallinfo(arena+hblkhd)
        243972 MiB available memory on the node where the printing process lives
------------------
     ethr =  4.21E-05,  avg # of iterations =  4.0

     total cpu time spent up to now is     3443.3 secs

     total energy              =  -14225.24830324 Ry
     estimated scf accuracy    <       0.17085602 Ry

     iteration #  5     ecut=    60.00 Ry     beta= 0.40
     Davidson diagonalization with overlap

---- Real-time Memory Report at c_bands before calling an iterative solver
          4347 MiB given to the printing process from OS
             0 MiB allocation reported by mallinfo(arena+hblkhd)
        241677 MiB available memory on the node where the printing process lives
------------------
     ethr =  8.48E-06,  avg # of iterations =  5.0

     total cpu time spent up to now is     4291.1 secs

     total energy              =  -14225.27727456 Ry
     estimated scf accuracy    <       0.03098162 Ry

     iteration #  6     ecut=    60.00 Ry     beta= 0.40
     Davidson diagonalization with overlap

---- Real-time Memory Report at c_bands before calling an iterative solver
          4403 MiB given to the printing process from OS
             0 MiB allocation reported by mallinfo(arena+hblkhd)
        245034 MiB available memory on the node where the printing process lives
------------------
     ethr =  1.54E-06,  avg # of iterations =  5.0

     total cpu time spent up to now is     5209.1 secs

     total energy              =  -14225.28432746 Ry
     estimated scf accuracy    <       0.00893495 Ry

     iteration #  7     ecut=    60.00 Ry     beta= 0.40
     Davidson diagonalization with overlap

---- Real-time Memory Report at c_bands before calling an iterative solver
          4410 MiB given to the printing process from OS
             0 MiB allocation reported by mallinfo(arena+hblkhd)
        259518 MiB available memory on the node where the printing process lives
------------------
     ethr =  4.43E-07,  avg # of iterations =  5.0

     total cpu time spent up to now is     6117.1 secs

     total energy              =  -14225.28687653 Ry
     estimated scf accuracy    <       0.00187217 Ry

     iteration #  8     ecut=    60.00 Ry     beta= 0.40
     Davidson diagonalization with overlap

---- Real-time Memory Report at c_bands before calling an iterative solver
          4418 MiB given to the printing process from OS
             0 MiB allocation reported by mallinfo(arena+hblkhd)
        237174 MiB available memory on the node where the printing process lives
------------------
     ethr =  9.29E-08,  avg # of iterations =  5.0

     total cpu time spent up to now is     6918.1 secs

     total energy              =  -14225.28730876 Ry
     estimated scf accuracy    <       0.00013790 Ry

     iteration #  9     ecut=    60.00 Ry     beta= 0.40
     Davidson diagonalization with overlap

---- Real-time Memory Report at c_bands before calling an iterative solver
          4423 MiB given to the printing process from OS
             0 MiB allocation reported by mallinfo(arena+hblkhd)
        240650 MiB available memory on the node where the printing process lives
------------------
     ethr =  6.84E-09,  avg # of iterations =  6.0

     total cpu time spent up to now is     7958.5 secs

     total energy              =  -14225.28737820 Ry
     estimated scf accuracy    <       0.00005397 Ry

     iteration # 10     ecut=    60.00 Ry     beta= 0.40
     Davidson diagonalization with overlap

---- Real-time Memory Report at c_bands before calling an iterative solver
          4433 MiB given to the printing process from OS
             0 MiB allocation reported by mallinfo(arena+hblkhd)
        254749 MiB available memory on the node where the printing process lives
------------------
     ethr =  2.68E-09,  avg # of iterations =  4.0

     total cpu time spent up to now is     8578.1 secs

     total energy              =  -14225.28737551 Ry
     estimated scf accuracy    <       0.00001503 Ry

     iteration # 11     ecut=    60.00 Ry     beta= 0.40
     Davidson diagonalization with overlap

---- Real-time Memory Report at c_bands before calling an iterative solver
          4433 MiB given to the printing process from OS
             0 MiB allocation reported by mallinfo(arena+hblkhd)
        200168 MiB available memory on the node where the printing process lives
------------------
     ethr =  7.46E-10,  avg # of iterations =  6.0

     total cpu time spent up to now is     9709.9 secs

     total energy              =  -14225.28738368 Ry
     estimated scf accuracy    <       0.00001724 Ry

     iteration # 12     ecut=    60.00 Ry     beta= 0.40
     Davidson diagonalization with overlap

---- Real-time Memory Report at c_bands before calling an iterative solver
          4440 MiB given to the printing process from OS
             0 MiB allocation reported by mallinfo(arena+hblkhd)
        196339 MiB available memory on the node where the printing process lives
------------------
     ethr =  7.46E-10,  avg # of iterations =  2.0

     total cpu time spent up to now is    10301.2 secs

     total energy              =  -14225.28738090 Ry
     estimated scf accuracy    <       0.00000649 Ry

     iteration # 13     ecut=    60.00 Ry     beta= 0.40
     Davidson diagonalization with overlap

---- Real-time Memory Report at c_bands before calling an iterative solver
          4440 MiB given to the printing process from OS
             0 MiB allocation reported by mallinfo(arena+hblkhd)
        245714 MiB available memory on the node where the printing process lives
------------------
     ethr =  3.22E-10,  avg # of iterations =  6.0

     total cpu time spent up to now is    11279.5 secs

     total energy              =  -14225.28738362 Ry
     estimated scf accuracy    <       0.00000382 Ry

     iteration # 14     ecut=    60.00 Ry     beta= 0.40
     Davidson diagonalization with overlap

---- Real-time Memory Report at c_bands before calling an iterative solver
          4440 MiB given to the printing process from OS
             0 MiB allocation reported by mallinfo(arena+hblkhd)
        236291 MiB available memory on the node where the printing process lives
------------------
     ethr =  1.90E-10,  avg # of iterations =  5.0

     total cpu time spent up to now is    11936.9 secs

     total energy              =  -14225.28738409 Ry
     estimated scf accuracy    <       0.00000020 Ry

     iteration # 15     ecut=    60.00 Ry     beta= 0.40
     Davidson diagonalization with overlap

---- Real-time Memory Report at c_bands before calling an iterative solver
          4440 MiB given to the printing process from OS
             0 MiB allocation reported by mallinfo(arena+hblkhd)
        222354 MiB available memory on the node where the printing process lives
------------------
     ethr =  1.02E-11,  avg # of iterations =  6.0

     total cpu time spent up to now is    12929.5 secs

     total energy              =  -14225.28738422 Ry
     estimated scf accuracy    <       0.00000003 Ry

     iteration # 16     ecut=    60.00 Ry     beta= 0.40
     Davidson diagonalization with overlap

---- Real-time Memory Report at c_bands before calling an iterative solver
          4440 MiB given to the printing process from OS
             0 MiB allocation reported by mallinfo(arena+hblkhd)
        223402 MiB available memory on the node where the printing process lives
------------------
     ethr =  1.33E-12,  avg # of iterations =  6.0

     total cpu time spent up to now is    13962.3 secs

     total energy              =  -14225.28738420 Ry
     estimated scf accuracy    <       0.00000011 Ry

     iteration # 17     ecut=    60.00 Ry     beta= 0.40
     Davidson diagonalization with overlap

---- Real-time Memory Report at c_bands before calling an iterative solver
          4440 MiB given to the printing process from OS
             0 MiB allocation reported by mallinfo(arena+hblkhd)
        239982 MiB available memory on the node where the printing process lives
------------------
     ethr =  1.33E-12,  avg # of iterations =  6.0

     total cpu time spent up to now is    14953.2 secs

     End of self-consistent calculation

          k = 0.0000 0.0000 0.0000 (301561 PWs)   bands (ev):

  -122.8789-122.8787-122.8787-122.8787-122.8786-122.8786-122.8784-122.8758
  -122.8413-122.8412-122.8412-122.8411-122.8411-122.8410-122.8409-122.8390
   -77.2238 -77.2236 -77.2236 -77.2236 -77.2235 -77.2235 -77.2233 -77.2207
   -77.2190 -77.2190 -77.2189 -77.2189 -77.2189 -77.2189 -77.2189 -77.2189
   -77.2188 -77.2188 -77.2187 -77.2187 -77.2186 -77.2186 -77.2161 -77.2158
   -77.1924 -77.1924 -77.1923 -77.1923 -77.1923 -77.1923 -77.1922 -77.1922
   -77.1922 -77.1922 -77.1921 -77.1921 -77.1920 -77.1920 -77.1902 -77.1901
   -77.1650 -77.1649 -77.1649 -77.1648 -77.1647 -77.1646 -77.1645 -77.1626
   -21.8267 -21.8201 -21.8200 -21.8199 -21.8189 -21.8142 -21.8138 -21.8135
   -21.8128 -21.8114 -21.8093 -21.8059 -21.8058 -21.8058 -21.8048 -21.8008
   -21.8006 -21.8006 -21.8006 -21.8006 -21.8006 -21.8005 -21.7993 -21.7989
   -21.7977 -21.7964 -21.7963 -21.7962 -21.7962 -21.7960 -21.7947 -21.7849
   -16.7497 -16.7482 -16.7476 -16.7469 -16.7465 -16.7465 -16.7463 -16.7422
   -16.7144 -16.7079 -16.7071 -16.7070 -16.7069 -16.7008 -16.6997 -16.6995
   -16.6926 -16.6922 -16.6860 -16.6852 -16.6852 -16.6851 -16.6824 -16.6821
   -16.6807 -16.6803 -16.6790 -16.6786 -16.6784 -16.6784 -16.6784 -16.6782
   -16.5785 -16.5401 -16.5400 -16.5399 -16.5384 -16.5180 -16.5171 -16.5057
   -16.4942 -16.4936 -16.4914 -16.4681 -16.4681 -16.4680 -16.4664 -16.4373
   -16.4372 -16.4363 -16.4363 -16.4363 -16.4355 -16.4347 -16.4340 -16.4334
   -16.4311 -16.4247 -16.4247 -16.4245 -16.4237 -16.4230 -16.4209 -16.4168
   -15.4994 -15.4986 -15.4968 -15.4937 -15.4937 -15.4936 -15.4931 -15.4915
   -15.4877 -15.4877 -15.4876 -15.4875 -15.4873 -15.4871 -15.4869 -15.4863
   -15.4810 -15.4808 -15.4801 -15.4800 -15.4800 -15.4799 -15.4799 -15.4793
   -15.4787 -15.4787 -15.4786 -15.4778 -15.4762 -15.4758 -15.4747 -15.4739
   -13.2309 -13.2200 -13.2138 -13.2122 -13.2121 -13.2120 -13.2100 -13.2096
   -13.2076 -13.2052 -13.2042 -13.2037 -13.2034 -13.2034 -13.2032 -13.1952
   -13.1927 -13.1916 -13.1910 -13.1907 -13.1907 -13.1906 -13.1808 -13.1794
   -13.1794 -13.1794 -13.1784 -13.1781 -13.1779 -13.1778 -13.1777 -13.1776
   -12.1910 -12.1896 -12.1896 -12.1895 -12.1883 -12.1881 -12.1841 -12.1804
   -12.1799 -12.1722 -12.1697 -12.1690 -12.1689 -12.1689 -12.1535 -12.1524
   -12.1522 -12.1520 -12.1506 -12.1501 -12.1500 -12.1500 -12.1497 -12.1496
   -12.1337 -12.1257 -12.1253 -12.1212 -12.1184 -12.1178 -12.1177 -12.1176
    -9.9202  -9.9016  -9.8905  -9.8871  -9.8862  -9.8861  -9.8860  -9.8772
    -9.8618  -9.8609  -9.8609  -9.8608  -9.8577  -9.8573  -9.8500  -9.8497
    -9.8276  -9.8265  -9.8265  -9.8264  -9.8246  -9.8244  -9.8070  -9.8062
    -9.8056  -9.8053  -9.7983  -9.7973  -9.7972  -9.7972  -9.7959  -9.7956
    -9.6799  -9.6658  -9.6656  -9.6643  -9.6643  -9.6642  -9.6628  -9.6484
    -9.6480  -9.6469  -9.6469  -9.6468  -9.6460  -9.6447  -9.6434  -9.6385
    -9.6375  -9.6152  -9.6151  -9.6151  -9.6137  -9.6020  -9.6012  -9.5856
    -9.5822  -9.5596  -9.5590  -9.5456  -9.5455  -9.5454  -9.5440  -9.5254
    -8.5892  -8.5636  -8.5510  -8.5509  -8.5480  -8.5386  -8.5384  -8.5384
    -8.5383  -8.5298  -8.5296  -8.5295  -8.5295  -8.5119  -8.5117  -8.5114
    -8.4957  -8.4956  -8.4955  -8.4955  -8.4929  -8.4928  -8.4628  -8.4628
    -8.4624  -8.4623  -8.4622  -8.4620  -8.4500  -8.4496  -8.4495  -8.4495
    -8.4233  -8.4173  -8.4172  -8.4121  -8.4121  -8.4120  -8.4115  -8.3746
    -8.3697  -8.3697  -8.3697  -8.3694  -8.3631  -8.3629  -8.3624  -8.3624
    -8.3611  -8.3594  -8.3592  -8.3571  -8.3569  -8.3316  -8.3316  -8.3316
    -8.3314  -8.3226  -8.3222  -8.3221  -8.3221  -8.3219  -8.3124  -8.3123
    -7.0583  -6.9054  -6.8984  -6.8980  -6.8980  -6.8978  -6.8978  -6.7919
    -6.7919  -6.7583  -6.7582  -6.7140  -6.7137  -6.7137  -6.7137  -6.6758
    -6.6020  -6.6017  -6.5985  -6.5982  -6.5982  -6.5981  -6.5709  -6.5708
    -6.5613  -6.5609  -6.5609  -6.5608  -6.4882  -6.4880  -6.4860  -6.4858
    -5.8775  -5.8310  -5.8310  -5.8309  -5.8304  -5.8287  -5.7983  -5.7981
    -5.7834  -5.7831  -5.7759  -5.7759  -5.7757  -5.7748  -5.7634  -5.7629
    -5.7372  -5.7372  -5.7371  -5.7368  -5.7300  -5.7296  -5.7275  -5.7242
    -5.6855  -5.6854  -5.6854  -5.6846  -5.6451  -5.6449  -5.6348  -5.6322
    -5.6318  -5.6091  -5.6045  -5.6040  -5.5957  -5.5957  -5.5957  -5.5947
    -5.5808  -5.5600  -5.5452  -5.5452  -5.5422  -5.5420  -5.5420  -5.5419
    -5.5374  -5.5373  -5.5364  -5.5360  -5.5122  -5.5120  -5.5029  -5.5027
    -5.5011  -5.5010  -5.5010  -5.5005  -5.4825  -5.4824  -5.4824  -5.4820
    -5.0624  -5.0613  -5.0490  -5.0474  -5.0474  -5.0473  -5.0447  -5.0442
    -5.0321  -5.0302  -5.0301  -5.0297  -5.0297  -5.0296  -5.0262  -5.0184
    -5.0179  -5.0036  -4.9995  -4.9957  -4.9948  -4.9947  -4.9946  -4.9791
    -4.9785  -4.9667  -4.9660  -4.9659  -4.9659  -4.9571  -4.9535  -4.9534
    -4.9459  -4.8946  -4.8916  -4.8914  -4.8683  -4.8679  -4.8678  -4.8677
    -4.8624  -4.8523  -4.8518  -4.8449  -4.8440  -4.8440  -4.8439  -4.8341
    -4.8339  -4.8302  -4.8298  -4.8297  -4.8296  -4.8271  -4.8260  -4.8258
    -4.8038  -4.8035  -4.7993  -4.7989  -4.7929  -4.7924  -4.7924  -4.7921
    -4.7802  -4.7798  -4.7580  -4.7579  -4.7577  -4.7572  -4.7432  -4.7427
    -4.7408  -4.7404  -4.7219  -4.7215  -4.7214  -4.7208  -4.7133  -4.7129
    -4.7116  -4.7114  -4.7113  -4.7103  -4.6863  -4.6858  -4.6689  -4.6683
    -4.6474  -4.6132  -4.6127  -4.5879  -4.5878  -4.5878  -4.5865  -4.5009
    -4.3227  -4.2809  -4.2809  -4.2806  -4.2801  -4.2184  -4.2124  -4.2077
    -4.2071  -4.1875  -4.1870  -4.1411  -4.1411  -4.1410  -4.1408  -4.1407
    -4.1398  -4.1359  -4.1135  -4.1077  -4.1075  -4.1075  -4.1069  -4.1031
    -4.0975  -4.0970  -4.0853  -4.0851  -4.0850  -4.0848  -4.0650  -4.0568
    -3.9875  -3.9555  -3.9555  -3.8259  -3.8257  -3.8257  -3.8256  -3.7663
    -3.7662  -3.7661  -3.7661  -3.7310  -3.7105  -3.7100  -3.7100  -3.7100
    -3.6718  -3.6561  -3.6557  -3.6269  -3.5756  -3.5755  -3.5732  -3.5731
    -3.5595  -3.5595  -3.5041  -3.5039  -3.4258  -3.4254  -3.4254  -3.4253
    -3.4239  -3.4238  -3.3752  -3.3750  -3.3655  -3.3648  -3.3645  -3.3645
    -3.3643  -3.2784  -3.2779  -3.2778  -3.2777  -3.2413  -3.2412  -3.2410
    -3.2409  -3.2345  -3.2311  -3.2308  -3.2306  -3.2292  -3.2287  -3.2100
    -3.2098  -3.1859  -3.1766  -3.1762  -3.1761  -3.1760  -3.1715  -3.0961
    -3.0956  -3.0951  -3.0947  -3.0902  -3.0898  -3.0872  -3.0868  -3.0868
    -3.0867  -3.0455  -3.0454  -3.0452  -3.0452  -3.0179  -3.0056  -3.0054
    -2.9782  -2.9745  -2.9740  -2.9739  -2.9739  -2.9689  -2.9381  -2.9380
    -2.9353  -2.9350  -2.9349  -2.9348  -2.9293  -2.9292  -2.8985  -2.8836
    -2.8834  -2.7760  -2.7758  -2.7613  -2.7611  -2.7610  -2.7610  -2.7264
    -2.7262  -2.7176  -2.7174  -2.7030  -2.7027  -2.7011  -2.7008  -2.7008
    -2.7007  -2.6121  -2.6119  -2.6118  -2.6115  -2.5568  -2.4829  -2.4415
    -2.4411  -2.3678  -2.3677  -2.2683  -2.2681  -2.2680  -2.2676  -2.1964
    -2.1962  -2.1603  -2.0958  -2.0766  -2.0611  -2.0609  -2.0608  -2.0605
    -2.0137  -2.0133  -2.0133  -2.0133  -2.0063  -2.0059  -2.0052  -1.9945
    -1.9943  -1.9540  -1.9538  -1.9537  -1.9536  -1.9484  -1.9482  -1.9179
    -1.9178  -1.8921  -1.8919  -1.8711  -1.8708  -1.8707  -1.8695  -1.7603
    -1.7595  -1.6297  -1.6296  -1.6295  -1.6290  -1.5897  -1.5896  -1.5189
    -1.4441  -1.4437  -1.4437  -1.4436  -1.4244  -1.4242  -1.4185  -1.4182
    -1.4154  -1.4090  -1.4086  -1.3814  -1.3746  -1.3745  -1.3744  -1.3744
    -1.3635  -1.3635  -1.3634  -1.3633  -1.3624  -1.3620  -1.3483  -1.3481
    -1.3470  -1.3469  -1.3469  -1.3456  -1.3403  -1.3400  -1.3372  -1.3328
    -1.2995  -1.2988  -1.2970  -1.2815  -1.2812  -1.2812  -1.2801  -1.2538
    -1.2534  -1.2419  -1.2416  -1.2415  -1.2414  -1.2336  -1.2300  -1.2299
    -1.2201  -1.2195  -1.2100  -1.2097  -1.2091  -1.2090  -1.2089  -1.2083
    -1.1527  -1.1526  -1.1524  -1.1520  -1.1477  -1.1469  -1.0925  -1.0681
    -1.0404  -0.9022  -0.9019  -0.9018  -0.9013  -0.9011  -0.9008  -0.8035
    -0.8024  -0.8018  -0.7826  -0.7825  -0.7824  -0.7822  -0.7795  -0.7792
    -0.7690  -0.7624  -0.7624  -0.7284  -0.7284  -0.7283  -0.7270  -0.7177
    -0.7177  -0.7141  -0.7123  -0.7123  -0.7122  -0.7117  -0.6635  -0.6627
    -0.6293  -0.6291  -0.5995  -0.5994  -0.5992  -0.5989  -0.5720  -0.5719
    -0.4877  -0.4241  -0.4240  -0.4239  -0.4236  -0.4158  -0.4155  -0.4005
    -0.3838  -0.3835  -0.3633  -0.3632  -0.3632  -0.3629  -0.3471  -0.3406
    -0.3405  -0.3361  -0.3361  -0.3360  -0.3357  -0.3312  -0.3311  -0.3287
    -0.3285  -0.3266  -0.2970  -0.2967  -0.2847  -0.2845  -0.2845  -0.2843
    -0.2801  -0.2801  -0.2762  -0.2760  -0.2759  -0.2758  -0.2727  -0.2434
    -0.2431  -0.2430  -0.2429  -0.2400  -0.2400  -0.2398  -0.2216  -0.2214
    -0.2210  -0.2209  -0.2207  -0.2206  -0.2184  -0.2082  -0.2080  -0.2075
    -0.2037  -0.2035  -0.1912  -0.1908  -0.1908  -0.1907  -0.1906  -0.1904
     0.3865   0.4185   0.4185   0.4186   0.4187   0.4350   0.4351   0.4860
     0.4862   0.4867   0.4948   0.4948   0.4949   0.4949   0.5127   0.5128
     0.5145   0.5146   0.5241   0.5272   0.5272   0.5273   0.5275   0.5738
     0.5738   0.5762   0.5763   0.6100   0.6101   0.6101   0.6102   0.6263
     1.0978   1.0983   1.1042   1.1046   1.1152   1.1159   1.1159   1.1160
     1.1367   1.1374   1.1374   1.1374   1.1545   1.1613   1.1618   1.1632
     1.1636   1.1643   1.1728   1.1737   1.1737   1.1738   1.1843   1.1846
     1.2167   1.2204   1.2409   1.2421   1.2421   1.2422   1.2427   1.2427

     occupation numbers 
     1.0000   1.0000   1.0000   1.0000   1.0000   1.0000   1.0000   1.0000
     1.0000   1.0000   1.0000   1.0000   1.0000   1.0000   1.0000   1.0000
     1.0000   1.0000   1.0000   1.0000   1.0000   1.0000   1.0000   1.0000
     1.0000   1.0000   1.0000   1.0000   1.0000   1.0000   1.0000   1.0000
     1.0000   1.0000   1.0000   1.0000   1.0000   1.0000   1.0000   1.0000
     1.0000   1.0000   1.0000   1.0000   1.0000   1.0000   1.0000   1.0000
     1.0000   1.0000   1.0000   1.0000   1.0000   1.0000   1.0000   1.0000
     1.0000   1.0000   1.0000   1.0000   1.0000   1.0000   1.0000   1.0000
     1.0000   1.0000   1.0000   1.0000   1.0000   1.0000   1.0000   1.0000
     1.0000   1.0000   1.0000   1.0000   1.0000   1.0000   1.0000   1.0000
     1.0000   1.0000   1.0000   1.0000   1.0000   1.0000   1.0000   1.0000
     1.0000   1.0000   1.0000   1.0000   1.0000   1.0000   1.0000   1.0000
     1.0000   1.0000   1.0000   1.0000   1.0000   1.0000   1.0000   1.0000
     1.0000   1.0000   1.0000   1.0000   1.0000   1.0000   1.0000   1.0000
     1.0000   1.0000   1.0000   1.0000   1.0000   1.0000   1.0000   1.0000
     1.0000   1.0000   1.0000   1.0000   1.0000   1.0000   1.0000   1.0000
     1.0000   1.0000   1.0000   1.0000   1.0000   1.0000   1.0000   1.0000
     1.0000   1.0000   1.0000   1.0000   1.0000   1.0000   1.0000   1.0000
     1.0000   1.0000   1.0000   1.0000   1.0000   1.0000   1.0000   1.0000
     1.0000   1.0000   1.0000   1.0000   1.0000   1.0000   1.0000   1.0000
     1.0000   1.0000   1.0000   1.0000   1.0000   1.0000   1.0000   1.0000
     1.0000   1.0000   1.0000   1.0000   1.0000   1.0000   1.0000   1.0000
     1.0000   1.0000   1.0000   1.0000   1.0000   1.0000   1.0000   1.0000
     1.0000   1.0000   1.0000   1.0000   1.0000   1.0000   1.0000   1.0000
     1.0000   1.0000   1.0000   1.0000   1.0000   1.0000   1.0000   1.0000
     1.0000   1.0000   1.0000   1.0000   1.0000   1.0000   1.0000   1.0000
     1.0000   1.0000   1.0000   1.0000   1.0000   1.0000   1.0000   1.0000
     1.0000   1.0000   1.0000   1.0000   1.0000   1.0000   1.0000   1.0000
     1.0000   1.0000   1.0000   1.0000   1.0000   1.0000   1.0000   1.0000
     1.0000   1.0000   1.0000   1.0000   1.0000   1.0000   1.0000   1.0000
     1.0000   1.0000   1.0000   1.0000   1.0000   1.0000   1.0000   1.0000
     1.0000   1.0000   1.0000   1.0000   1.0000   1.0000   1.0000   1.0000
     1.0000   1.0000   1.0000   1.0000   1.0000   1.0000   1.0000   1.0000
     1.0000   1.0000   1.0000   1.0000   1.0000   1.0000   1.0000   1.0000
     1.0000   1.0000   1.0000   1.0000   1.0000   1.0000   1.0000   1.0000
     1.0000   1.0000   1.0000   1.0000   1.0000   1.0000   1.0000   1.0000
     1.0000   1.0000   1.0000   1.0000   1.0000   1.0000   1.0000   1.0000
     1.0000   1.0000   1.0000   1.0000   1.0000   1.0000   1.0000   1.0000
     1.0000   1.0000   1.0000   1.0000   1.0000   1.0000   1.0000   1.0000
     1.0000   1.0000   1.0000   1.0000   1.0000   1.0000   1.0000   1.0000
     1.0000   1.0000   1.0000   1.0000   1.0000   1.0000   1.0000   1.0000
     1.0000   1.0000   1.0000   1.0000   1.0000   1.0000   1.0000   1.0000
     1.0000   1.0000   1.0000   1.0000   1.0000   1.0000   1.0000   1.0000
     1.0000   1.0000   1.0000   1.0000   1.0000   1.0000   1.0000   1.0000
     1.0000   1.0000   1.0000   1.0000   1.0000   1.0000   1.0000   1.0000
     1.0000   1.0000   1.0000   1.0000   1.0000   1.0000   1.0000   1.0000
     1.0000   1.0000   1.0000   1.0000   1.0000   1.0000   1.0000   1.0000
     1.0000   1.0000   1.0000   1.0000   1.0000   1.0000   1.0000   1.0000
     1.0000   1.0000   1.0000   1.0000   1.0000   1.0000   1.0000   1.0000
     1.0000   1.0000   1.0000   1.0000   1.0000   1.0000   1.0000   1.0000
     1.0000   1.0000   1.0000   1.0000   1.0000   1.0000   1.0000   1.0000
     1.0000   1.0000   1.0000   1.0000   1.0000   1.0000   1.0000   1.0000
     1.0000   1.0000   1.0000   1.0000   1.0000   1.0000   1.0000   1.0000
     1.0000   1.0000   1.0000   1.0000   1.0000   1.0000   1.0000   1.0000
     1.0000   1.0000   1.0000   1.0000   1.0000   1.0000   1.0000   1.0000
     1.0000   1.0000   1.0000   1.0000   1.0000   1.0000   1.0000   1.0000
     1.0000   1.0000   1.0000   1.0000   1.0000   1.0000   1.0000   1.0000
     1.0000   1.0000   1.0000   1.0000   1.0000   1.0000   1.0000   1.0000
     1.0000   1.0000   1.0000   1.0000   1.0000   1.0000   1.0000   1.0000
     1.0000   1.0000   1.0000   1.0000   1.0000   1.0000   1.0000   1.0000
     1.0000   1.0000   1.0000   1.0000   1.0000   1.0000   1.0000   1.0000
     1.0000   1.0000   1.0000   1.0000   1.0000   1.0000   1.0000   1.0000
     1.0000   1.0000   1.0000   1.0000   1.0000   1.0000   1.0000   1.0000
     1.0000   1.0000   1.0000   1.0000   1.0000   1.0000   1.0000   1.0000
     1.0000   1.0000   1.0000   1.0000   1.0000   1.0000   1.0000   1.0000
     1.0000   1.0000   1.0000   1.0000   1.0000   1.0000   1.0000   1.0000
     1.0000   1.0000   1.0000   1.0000   1.0000   1.0000   1.0000   1.0000
     1.0000   1.0000   1.0000   1.0000   1.0000   1.0000   1.0000   1.0000
     1.0000   1.0000   1.0000   1.0000   1.0000   1.0000   1.0000   1.0000
     1.0000   1.0000   1.0000   1.0000   1.0000   1.0000   1.0000   1.0000
     1.0000   1.0000   1.0000   1.0000   1.0000   1.0000   1.0000   1.0000
     1.0000   1.0000   1.0000   1.0000   1.0000   1.0000   1.0000   1.0000
     1.0000   1.0000   1.0000   1.0000   1.0000   1.0000   1.0000   1.0000
     1.0000   1.0000   1.0000   1.0000   1.0000   1.0000   1.0000   1.0000
     1.0000   1.0000   1.0000   1.0000   1.0000   1.0000   1.0000   1.0000
     1.0000   1.0000   1.0000   1.0000   1.0000   1.0000   1.0000   1.0000
     1.0000   1.0000   1.0000   1.0000   1.0000   1.0000   1.0000   1.0000
     1.0000   1.0000   1.0000   1.0000   1.0000   1.0000   1.0000   1.0000
     1.0000   1.0000   1.0000   1.0000   1.0000   1.0000   1.0000   1.0000
     1.0000   1.0000   1.0000   1.0000   1.0000   1.0000   1.0000   1.0000
     1.0000   1.0000   1.0000   1.0000   1.0000   1.0000   1.0000   1.0000
     1.0000   1.0000   1.0000   1.0000   1.0000   1.0000   1.0000   1.0000
     1.0000   1.0000   1.0000   1.0000   1.0000   1.0000   1.0000   1.0000
     1.0000   1.0000   1.0000   1.0000   1.0000   1.0000   1.0000   1.0000
     1.0000   1.0000   1.0000   1.0000   1.0000   1.0000   1.0000   1.0000
     1.0000   1.0000   1.0000   1.0000   1.0000   1.0000   1.0000   1.0000
     1.0000   1.0000   1.0000   1.0000   1.0000   1.0000   1.0000   1.0000
     1.0000   1.0000   1.0000   1.0000   1.0000   1.0000   1.0000   1.0000
     1.0000   1.0000   1.0000   1.0000   1.0000   1.0000   1.0000   1.0000
     1.0000   1.0000   1.0000   1.0000   1.0000   1.0000   1.0000   1.0000
     1.0000   1.0000   1.0000   1.0000   1.0000   1.0000   1.0000   1.0000
     1.0000   1.0000   1.0000   1.0000   1.0000   1.0000   1.0000   1.0000
     1.0000   1.0000   1.0000   1.0000   1.0000   1.0000   1.0000   1.0000
     1.0000   1.0000   1.0000   1.0000   1.0000   1.0000   1.0000   1.0000
     1.0000   1.0000   1.0000   1.0000   1.0000   1.0000   1.0000   1.0000
     1.0000   1.0000   1.0000   1.0000   1.0000   1.0000   1.0000   1.0000
     1.0000   1.0000   1.0000   1.0000   1.0000   1.0000   1.0000   1.0000
     1.0000   1.0000   1.0000   1.0000   1.0000   1.0000   1.0000   1.0000
     1.0000   1.0000   1.0000   1.0000   1.0000   1.0000   1.0000   1.0000
     1.0000   1.0000   1.0000   1.0000   1.0000   1.0000   1.0000   1.0000
     1.0000   1.0000   1.0000   1.0000   1.0000   1.0000   1.0000   1.0000
     1.0000   1.0000   1.0000   1.0000   1.0000   1.0000   1.0000   1.0000
     1.0000   1.0000   1.0000   1.0000   1.0000   1.0000   1.0000   1.0000
     1.0000   1.0000   1.0000   1.0000   1.0000   1.0000   1.0000   1.0000
     1.0000   1.0000   1.0000   1.0000   1.0000   1.0000   1.0000   1.0000
     1.0000   1.0000   1.0000   1.0000   1.0000   1.0000   1.0000   1.0000
     1.0000   1.0000   1.0000   1.0000   1.0000   1.0000   1.0000   1.0000
     1.0000   1.0000   1.0000   1.0000   1.0000   1.0000   1.0000   1.0000
     1.0000   1.0000   1.0000   1.0000   1.0000   1.0000   1.0000   1.0000
     1.0000   1.0000   1.0000   1.0000   1.0000   1.0000   1.0000   1.0000
     1.0000   1.0000   1.0000   1.0000   1.0000   1.0000   1.0000   1.0000
     1.0000   1.0000   1.0000   1.0000   1.0000   1.0000   1.0000   1.0000
     1.0000   1.0000   1.0000   1.0000   1.0000   1.0000   1.0000   1.0000
     1.0000   1.0000   1.0000   1.0000   1.0000   1.0000   1.0000   1.0000
     1.0000   1.0000   1.0000   1.0000   1.0000   1.0000   1.0000   1.0000
     1.0000   1.0000   1.0000   1.0000   1.0000   1.0000   1.0000   1.0000
     1.0000   1.0000   1.0000   1.0000   1.0000   1.0000   1.0000   1.0000
     1.0000   1.0000   1.0000   1.0000   1.0000   1.0000   1.0000   1.0000
     1.0000   1.0000   1.0000   1.0000   1.0000   1.0000   1.0000   1.0000
     1.0000   1.0000   1.0000   1.0000   1.0000   1.0000   1.0000   1.0000
     1.0000   1.0000   1.0000   1.0000   1.0000   1.0000   1.0000   1.0000
     1.0000   1.0000   1.0000   1.0000   1.0000   1.0000   1.0000   1.0000
     1.0000   1.0000   1.0000   1.0000   1.0000   1.0000   1.0000   1.0000
     1.0000   1.0000   1.0000   1.0000   1.0000   1.0000   1.0000   1.0000
     1.0000   1.0000   1.0000   1.0000   1.0000   1.0000   1.0000   1.0000
     1.0000   1.0000   1.0000   1.0000   1.0000   1.0000   1.0000   1.0000

     highest occupied level (ev):     1.2427

!    total energy              =  -14225.28738421 Ry
     estimated scf accuracy    <          6.2E-09 Ry

     The total energy is the sum of the following terms:
     one-electron contribution =  -15719.90015938 Ry
     hartree contribution      =    8487.40651180 Ry
     xc contribution           =   -2486.47626432 Ry
     ewald contribution        =   -3375.11816828 Ry
     one-center paw contrib.   =   -1131.19930402 Ry
      -> PAW hartree energy AE =     226.95540821 Ry
      -> PAW hartree energy PS =    -226.74574136 Ry
      -> PAW xc energy AE      =    -248.55013743 Ry
      -> PAW xc energy PS      =     106.94822370 Ry
      -> total E_H with PAW    =    8487.61617864 Ry
      -> total E_XC with PAW   =   -2628.07817806 Ry

     convergence has been achieved in  17 iterations

     Forces acting on atoms (cartesian axes, Ry/au):

     atom    1 type  1   force =    -0.00000158   -0.00024054   -0.00013724
     atom    2 type  1   force =    -0.00312577   -0.00333142    0.00084455
     atom    3 type  1   force =    -0.00000202   -0.00023921   -0.00013601
     atom    4 type  1   force =    -0.00000271   -0.00023915   -0.00013503
     atom    5 type  1   force =    -0.00000339   -0.00023915   -0.00013489
     atom    6 type  1   force =    -0.00000189   -0.00023876   -0.00013596
     atom    7 type  1   force =    -0.00000253   -0.00023820   -0.00013481
     atom    8 type  1   force =     0.00000087   -0.00023746   -0.00013473
     atom    9 type  1   force =    -0.00197947    0.00050646   -0.00082031
     atom   10 type  1   force =    -0.00019879   -0.00013100   -0.00017435
     atom   11 type  1   force =    -0.00019753   -0.00013065   -0.00017325
     atom   12 type  1   force =    -0.00019703   -0.00013017   -0.00017366
     atom   13 type  1   force =    -0.00019781   -0.00012992   -0.00017363
     atom   14 type  1   force =    -0.00019844   -0.00013043   -0.00017302
     atom   15 type  1   force =    -0.00019743   -0.00012826   -0.00017503
     atom   16 type  1   force =    -0.00019633   -0.00012952   -0.00017299
     atom   17 type  2   force =    -0.00438050   -0.00145251    0.00132959
     atom   18 type  2   force =    -0.00001404    0.00000383    0.00001182
     atom   19 type  2   force =    -0.00001453    0.00000364    0.00001154
     atom   20 type  2   force =    -0.00001383    0.00000370    0.00001178
     atom   21 type  2   force =    -0.00001506    0.00000405    0.00001179
     atom   22 type  2   force =    -0.00001485    0.00000380    0.00001169
     atom   23 type  2   force =    -0.00001369    0.00000364    0.00001174
     atom   24 type  2   force =    -0.00001474    0.00000397    0.00001140
     atom   25 type  2   force =     0.01402941    0.00414708   -0.00317266
     atom   26 type  2   force =     0.00019661   -0.00004290    0.00002868
     atom   27 type  2   force =     0.00019769   -0.00004465    0.00002689
     atom   28 type  2   force =     0.00019582   -0.00004468    0.00002722
     atom   29 type  2   force =     0.00019815   -0.00004474    0.00002792
     atom   30 type  2   force =     0.00020020   -0.00004454    0.00002782
     atom   31 type  2   force =     0.00019494   -0.00004467    0.00002747
     atom   32 type  2   force =     0.00019777   -0.00004601    0.00002608
     atom   33 type  2   force =    -0.00008526    0.00015277    0.00008208
     atom   34 type  2   force =    -0.00008489    0.00015319    0.00008271
     atom   35 type  2   force =    -0.00008596    0.00015215    0.00008302
     atom   36 type  2   force =    -0.00008566    0.00015308    0.00008313
     atom   37 type  2   force =    -0.00127010    0.00021190   -0.00003947
     atom   38 type  2   force =    -0.00008521    0.00015403    0.00008212
     atom   39 type  2   force =    -0.00008534    0.00015367    0.00008292
     atom   40 type  2   force =    -0.00008543    0.00015358    0.00008246
     atom   41 type  3   force =     0.00002339    0.00004519   -0.00005346
     atom   42 type  3   force =     0.00002417    0.00004474   -0.00005426
     atom   43 type  3   force =     0.00002337    0.00004504   -0.00005418
     atom   44 type  3   force =     0.00002350    0.00004552   -0.00005493
     atom   45 type  3   force =     0.00004973    0.00008650    0.00005225
     atom   46 type  3   force =     0.00002358    0.00004529   -0.00005375
     atom   47 type  3   force =     0.00002357    0.00004512   -0.00005474
     atom   48 type  3   force =     0.00002328    0.00004536   -0.00005412
     atom   49 type  2   force =     0.00014389   -0.00000584   -0.00000135
     atom   50 type  2   force =     0.00014323   -0.00000595   -0.00000112
     atom   51 type  2   force =     0.00014292   -0.00000540   -0.00000109
     atom   52 type  2   force =     0.00014347   -0.00000585   -0.00000133
     atom   53 type  2   force =     0.00006269   -0.00006866    0.00003706
     atom   54 type  2   force =     0.00014414   -0.00000518   -0.00000102
     atom   55 type  2   force =     0.00014393   -0.00000540   -0.00000158
     atom   56 type  2   force =     0.00014368   -0.00000565   -0.00000118
     atom   57 type  3   force =     0.00003721   -0.00007010   -0.00004857
     atom   58 type  3   force =     0.00003721   -0.00007062   -0.00004848
     atom   59 type  3   force =     0.00003743   -0.00006718   -0.00005065
     atom   60 type  3   force =     0.00003717   -0.00007018   -0.00004846
     atom   61 type  3   force =     0.00004127   -0.00005543    0.00001421
     atom   62 type  3   force =     0.00003717   -0.00007031   -0.00004838
     atom   63 type  3   force =     0.00003705   -0.00007033   -0.00004819
     atom   64 type  3   force =     0.00003714   -0.00006986   -0.00004849
     atom   65 type  1   force =    -0.00257995   -0.00050990    0.00269595
     atom   66 type  1   force =     0.00005319    0.00020384    0.00017647
     atom   67 type  1   force =     0.00005374    0.00020570    0.00017879
     atom   68 type  1   force =     0.00005389    0.00020493    0.00017850
     atom   69 type  1   force =     0.00005341    0.00020585    0.00017778
     atom   70 type  1   force =     0.00005325    0.00020668    0.00017818
     atom   71 type  1   force =     0.00005828    0.00020556    0.00017885
     atom   72 type  1   force =     0.00005440    0.00020581    0.00017977
     atom   73 type  1   force =    -0.00143270    0.00063026   -0.00061785
     atom   74 type  1   force =    -0.00015584    0.00025152    0.00011325
     atom   75 type  1   force =    -0.00015778    0.00025262    0.00011356
     atom   76 type  1   force =    -0.00015739    0.00025227    0.00011408
     atom   77 type  1   force =    -0.00015787    0.00025305    0.00011332
     atom   78 type  1   force =    -0.00015865    0.00025343    0.00011298
     atom   79 type  1   force =    -0.00015879    0.00025095    0.00011222
     atom   80 type  1   force =    -0.00015897    0.00025369    0.00011425
     atom   81 type  2   force =     0.00009626    0.00042280   -0.00000772
     atom   82 type  2   force =    -0.00010009   -0.00007532   -0.00003221
     atom   83 type  2   force =    -0.00009924   -0.00007539   -0.00003196
     atom   84 type  2   force =    -0.00010014   -0.00007611   -0.00003201
     atom   85 type  2   force =    -0.00009996   -0.00007610   -0.00003243
     atom   86 type  2   force =    -0.00009847   -0.00007548   -0.00003268
     atom   87 type  2   force =    -0.00010175   -0.00007593   -0.00003175
     atom   88 type  2   force =    -0.00009957   -0.00007614   -0.00003260
     atom   89 type  3   force =    -0.00000466   -0.00001998    0.00001439
     atom   90 type  3   force =     0.00002312   -0.00005532    0.00005023
     atom   91 type  3   force =    -0.00000444   -0.00002000    0.00001371
     atom   92 type  3   force =    -0.00000471   -0.00001993    0.00001359
     atom   93 type  3   force =    -0.00000461   -0.00001985    0.00001421
     atom   94 type  3   force =    -0.00000435   -0.00001990    0.00001420
     atom   95 type  3   force =    -0.00000443   -0.00002009    0.00001357
     atom   96 type  3   force =    -0.00000445   -0.00001961    0.00001353
     atom   97 type  1   force =     0.00013036   -0.00020397    0.00002033
     atom   98 type  1   force =     0.00039268   -0.00037449   -0.00018742
     atom   99 type  1   force =     0.00013109   -0.00020357    0.00002134
     atom  100 type  1   force =     0.00012985   -0.00020393    0.00002220
     atom  101 type  1   force =     0.00012873   -0.00020350    0.00002176
     atom  102 type  1   force =     0.00013032   -0.00020290    0.00002085
     atom  103 type  1   force =     0.00013010   -0.00020306    0.00002218
     atom  104 type  1   force =     0.00013207   -0.00020462    0.00002174
     atom  105 type  2   force =    -0.00006455   -0.00004386    0.00007335
     atom  106 type  2   force =    -0.00005666   -0.00004576    0.00007343
     atom  107 type  2   force =    -0.00006389   -0.00004859    0.00007384
     atom  108 type  2   force =    -0.00006383   -0.00004388    0.00007359
     atom  109 type  2   force =    -0.00006718   -0.00004697    0.00007275
     atom  110 type  2   force =    -0.00006339   -0.00004500    0.00007293
     atom  111 type  2   force =    -0.00006373   -0.00004542    0.00007342
     atom  112 type  2   force =    -0.00006171   -0.00004503    0.00007252
     atom  113 type  3   force =    -0.00006606   -0.00002159   -0.00002916
     atom  114 type  3   force =    -0.00006668   -0.00002118   -0.00002924
     atom  115 type  3   force =    -0.00006529   -0.00002208   -0.00003014
     atom  116 type  3   force =    -0.00006633   -0.00002142   -0.00002962
     atom  117 type  3   force =    -0.00009213   -0.00000303   -0.00004807
     atom  118 type  3   force =    -0.00006651   -0.00002149   -0.00002922
     atom  119 type  3   force =    -0.00006649   -0.00002154   -0.00002947
     atom  120 type  3   force =    -0.00006627   -0.00002164   -0.00002945
     atom  121 type  1   force =     0.00000289    0.00024014   -0.00013782
     atom  122 type  1   force =    -0.00000191    0.00025232   -0.00012780
     atom  123 type  1   force =     0.00000341    0.00023922   -0.00013607
     atom  124 type  1   force =     0.00000309    0.00023707   -0.00013465
     atom  125 type  1   force =    -0.00001002    0.00023314   -0.00012877
     atom  126 type  1   force =     0.00000260    0.00024022   -0.00013649
     atom  127 type  1   force =     0.00000230    0.00023893   -0.00013449
     atom  128 type  1   force =     0.00000483    0.00023943   -0.00013690
     atom  129 type  1   force =     0.00019830    0.00012978   -0.00017499
     atom  130 type  1   force =     0.00021168    0.00012415   -0.00017605
     atom  131 type  1   force =     0.00019843    0.00013079   -0.00017352
     atom  132 type  1   force =     0.00019756    0.00013013   -0.00017296
     atom  133 type  1   force =     0.00019323    0.00011387   -0.00015620
     atom  134 type  1   force =     0.00019823    0.00013083   -0.00017419
     atom  135 type  1   force =     0.00019729    0.00013089   -0.00017279
     atom  136 type  1   force =     0.00019963    0.00013074   -0.00017313
     atom  137 type  2   force =     0.00001461   -0.00000371    0.00001178
     atom  138 type  2   force =     0.00002091    0.00000067    0.00001255
     atom  139 type  2   force =     0.00001432   -0.00000345    0.00001206
     atom  140 type  2   force =     0.00001460   -0.00000395    0.00001189
     atom  141 type  2   force =     0.00001523   -0.00000415    0.00001093
     atom  142 type  2   force =     0.00001396   -0.00000404    0.00001162
     atom  143 type  2   force =     0.00001379   -0.00000399    0.00001154
     atom  144 type  2   force =     0.00001888   -0.00000550    0.00001059
     atom  145 type  2   force =    -0.00020022    0.00004413    0.00002824
     atom  146 type  2   force =    -0.00020298    0.00003459    0.00003365
     atom  147 type  2   force =    -0.00020020    0.00004428    0.00002804
     atom  148 type  2   force =    -0.00019977    0.00004535    0.00002701
     atom  149 type  2   force =    -0.00021044    0.00005600    0.00001979
     atom  150 type  2   force =    -0.00019754    0.00004378    0.00002816
     atom  151 type  2   force =    -0.00019608    0.00004438    0.00002657
     atom  152 type  2   force =    -0.00020601    0.00004497    0.00002731
     atom  153 type  2   force =     0.00008667   -0.00014772    0.00008505
     atom  154 type  2   force =     0.00008581   -0.00015316    0.00008313
     atom  155 type  2   force =     0.00008609   -0.00015364    0.00008280
     atom  156 type  2   force =     0.00008535   -0.00015626    0.00008276
     atom  157 type  2   force =     0.00008552   -0.00015340    0.00008260
     atom  158 type  2   force =     0.00008219   -0.00015350    0.00008272
     atom  159 type  2   force =     0.00008553   -0.00015308    0.00008288
     atom  160 type  2   force =     0.00008554   -0.00015308    0.00008270
     atom  161 type  3   force =    -0.00002879   -0.00005120   -0.00005918
     atom  162 type  3   force =    -0.00002353   -0.00004496   -0.00005384
     atom  163 type  3   force =    -0.00002347   -0.00004519   -0.00005444
     atom  164 type  3   force =    -0.00002292   -0.00004497   -0.00005446
     atom  165 type  3   force =    -0.00002365   -0.00004543   -0.00005410
     atom  166 type  3   force =    -0.00002293   -0.00004498   -0.00005393
     atom  167 type  3   force =    -0.00002471   -0.00004569   -0.00005421
     atom  168 type  3   force =    -0.00002356   -0.00004520   -0.00005433
     atom  169 type  2   force =    -0.00014271    0.00000507   -0.00000183
     atom  170 type  2   force =    -0.00014592    0.00000736   -0.00000050
     atom  171 type  2   force =    -0.00014327    0.00000723   -0.00000143
     atom  172 type  2   force =    -0.00014268    0.00000550   -0.00000154
     atom  173 type  2   force =    -0.00014085    0.00000456   -0.00000141
     atom  174 type  2   force =    -0.00014363    0.00000574   -0.00000108
     atom  175 type  2   force =    -0.00014346    0.00000525   -0.00000086
     atom  176 type  2   force =    -0.00014518    0.00000715   -0.00000103
     atom  177 type  3   force =    -0.00003722    0.00007042   -0.00004780
     atom  178 type  3   force =    -0.00003845    0.00008504   -0.00004830
     atom  179 type  3   force =    -0.00003738    0.00007028   -0.00004890
     atom  180 type  3   force =    -0.00003715    0.00007043   -0.00004878
     atom  181 type  3   force =    -0.00003662    0.00006984   -0.00004862
     atom  182 type  3   force =    -0.00003709    0.00007009   -0.00004820
     atom  183 type  3   force =    -0.00003704    0.00007001   -0.00004886
     atom  184 type  3   force =    -0.00003711    0.00007131   -0.00004833
     atom  185 type  1   force =    -0.00005144   -0.00020357    0.00017718
     atom  186 type  1   force =    -0.00006392   -0.00019961    0.00017627
     atom  187 type  1   force =    -0.00005272   -0.00020525    0.00017890
     atom  188 type  1   force =    -0.00005277   -0.00020694    0.00018021
     atom  189 type  1   force =    -0.00006953   -0.00025668    0.00017117
     atom  190 type  1   force =    -0.00005291   -0.00020497    0.00017678
     atom  191 type  1   force =    -0.00005395   -0.00020594    0.00017883
     atom  192 type  1   force =    -0.00005148   -0.00020660    0.00017959
     atom  193 type  1   force =     0.00015725   -0.00025434    0.00011361
     atom  194 type  1   force =     0.00015358   -0.00023742    0.00010072
     atom  195 type  1   force =     0.00015797   -0.00025304    0.00011379
     atom  196 type  1   force =     0.00015898   -0.00025309    0.00011422
     atom  197 type  1   force =     0.00018061   -0.00024676    0.00010977
     atom  198 type  1   force =     0.00015663   -0.00025307    0.00011304
     atom  199 type  1   force =     0.00015765   -0.00025226    0.00011405
     atom  200 type  1   force =     0.00016049   -0.00025341    0.00011314
     atom  201 type  2   force =     0.00010015    0.00007624   -0.00003267
     atom  202 type  2   force =     0.00008665    0.00006437   -0.00003423
     atom  203 type  2   force =     0.00009989    0.00007601   -0.00003290
     atom  204 type  2   force =     0.00010003    0.00007630   -0.00003245
     atom  205 type  2   force =     0.00009892    0.00007850   -0.00003247
     atom  206 type  2   force =     0.00009949    0.00007579   -0.00003167
     atom  207 type  2   force =     0.00009965    0.00007582   -0.00003189
     atom  208 type  2   force =     0.00009093    0.00007446   -0.00003337
     atom  209 type  3   force =     0.00000456    0.00002017    0.00001412
     atom  210 type  3   force =    -0.00000186    0.00000947    0.00001557
     atom  211 type  3   force =     0.00000467    0.00002012    0.00001399
     atom  212 type  3   force =     0.00000454    0.00002009    0.00001378
     atom  213 type  3   force =     0.00000446    0.00001996    0.00001393
     atom  214 type  3   force =     0.00000439    0.00001976    0.00001428
     atom  215 type  3   force =     0.00000448    0.00001987    0.00001379
     atom  216 type  3   force =     0.00000523    0.00002118    0.00001477
     atom  217 type  1   force =    -0.00012945    0.00020355    0.00002175
     atom  218 type  1   force =    -0.00012541    0.00020734    0.00002344
     atom  219 type  1   force =    -0.00012955    0.00020562    0.00002181
     atom  220 type  1   force =    -0.00012960    0.00020325    0.00002155
     atom  221 type  1   force =    -0.00012824    0.00020239    0.00002192
     atom  222 type  1   force =    -0.00013064    0.00020327    0.00002100
     atom  223 type  1   force =    -0.00013084    0.00020385    0.00002114
     atom  224 type  1   force =    -0.00012111    0.00019687    0.00002395
     atom  225 type  2   force =     0.00006390    0.00004578    0.00007234
     atom  226 type  2   force =     0.00006398    0.00004554    0.00007288
     atom  227 type  2   force =     0.00006552    0.00004456    0.00007352
     atom  228 type  2   force =     0.00006421    0.00004495    0.00007358
     atom  229 type  2   force =     0.00005518   -0.00015155   -0.00014365
     atom  230 type  2   force =     0.00006389    0.00004435    0.00007299
     atom  231 type  2   force =     0.00006386    0.00004419    0.00007321
     atom  232 type  2   force =     0.00006402    0.00004405    0.00007311
     atom  233 type  3   force =     0.00006655    0.00002098   -0.00002879
     atom  234 type  3   force =     0.00006621    0.00002036   -0.00002939
     atom  235 type  3   force =     0.00006662    0.00002141   -0.00002960
     atom  236 type  3   force =     0.00006638    0.00002126   -0.00002979
     atom  237 type  3   force =     0.00006705    0.00001995   -0.00002931
     atom  238 type  3   force =     0.00006645    0.00002157   -0.00002916
     atom  239 type  3   force =     0.00006660    0.00002169   -0.00002966
     atom  240 type  3   force =     0.00006668    0.00002194   -0.00002919
     atom  241 type  1   force =    -0.00023290   -0.00000109    0.00013142
     atom  242 type  1   force =    -0.00025591    0.00001943    0.00014485
     atom  243 type  1   force =    -0.00023862    0.00000317    0.00013550
     atom  244 type  1   force =    -0.00023902    0.00000188    0.00013579
     atom  245 type  1   force =    -0.00023927    0.00000220    0.00013680
     atom  246 type  1   force =    -0.00023852    0.00000385    0.00013554
     atom  247 type  1   force =    -0.00023950    0.00000376    0.00013693
     atom  248 type  1   force =    -0.00023681    0.00000256    0.00013431
     atom  249 type  1   force =    -0.00012101    0.00019081    0.00016956
     atom  250 type  1   force =    -0.00013349    0.00021832    0.00015968
     atom  251 type  1   force =    -0.00013011    0.00019743    0.00017333
     atom  252 type  1   force =    -0.00012939    0.00019779    0.00017404
     atom  253 type  1   force =    -0.00013008    0.00019967    0.00017318
     atom  254 type  1   force =    -0.00013187    0.00019695    0.00017359
     atom  255 type  1   force =    -0.00012995    0.00019982    0.00017336
     atom  256 type  1   force =    -0.00012987    0.00019631    0.00017333
     atom  257 type  2   force =     0.00000437    0.00001991   -0.00001527
     atom  258 type  2   force =     0.00000303    0.00001597   -0.00001208
     atom  259 type  2   force =     0.00000418    0.00001440   -0.00001141
     atom  260 type  2   force =     0.00000392    0.00001429   -0.00001166
     atom  261 type  2   force =     0.00000193    0.00001670   -0.00001163
     atom  262 type  2   force =     0.00000387    0.00001350   -0.00001143
     atom  263 type  2   force =     0.00000451    0.00001427   -0.00001273
     atom  264 type  2   force =     0.00000446    0.00001476   -0.00001156
     atom  265 type  2   force =    -0.00005144   -0.00019448   -0.00002340
     atom  266 type  2   force =    -0.00003838   -0.00020664   -0.00002896
     atom  267 type  2   force =    -0.00004439   -0.00019813   -0.00002704
     atom  268 type  2   force =    -0.00004454   -0.00019698   -0.00002812
     atom  269 type  2   force =    -0.00004475   -0.00020315   -0.00002766
     atom  270 type  2   force =    -0.00004498   -0.00019789   -0.00002660
     atom  271 type  2   force =    -0.00004497   -0.00020493   -0.00002807
     atom  272 type  2   force =    -0.00004650   -0.00019791   -0.00002653
     atom  273 type  2   force =     0.00015469    0.00008623   -0.00008501
     atom  274 type  2   force =     0.00015405    0.00008440   -0.00008300
     atom  275 type  2   force =     0.00015341    0.00008527   -0.00008248
     atom  276 type  2   force =     0.00015316    0.00008529   -0.00008282
     atom  277 type  2   force =     0.00015367    0.00008274   -0.00008324
     atom  278 type  2   force =     0.00015374    0.00008559   -0.00008288
     atom  279 type  2   force =     0.00015433    0.00008481   -0.00008297
     atom  280 type  2   force =     0.00015236    0.00008541   -0.00008308
     atom  281 type  3   force =     0.00004846   -0.00002207    0.00006298
     atom  282 type  3   force =     0.00004470   -0.00002286    0.00005501
     atom  283 type  3   force =     0.00004515   -0.00002343    0.00005397
     atom  284 type  3   force =     0.00004501   -0.00002351    0.00005414
     atom  285 type  3   force =     0.00004526   -0.00002369    0.00005457
     atom  286 type  3   force =     0.00004544   -0.00002365    0.00005429
     atom  287 type  3   force =     0.00004480   -0.00002374    0.00005437
     atom  288 type  3   force =     0.00004422   -0.00002383    0.00005411
     atom  289 type  2   force =    -0.00001233   -0.00014518   -0.00000184
     atom  290 type  2   force =    -0.00000546   -0.00014447    0.00000081
     atom  291 type  2   force =    -0.00000615   -0.00014351    0.00000102
     atom  292 type  2   force =    -0.00000570   -0.00014394    0.00000106
     atom  293 type  2   force =    -0.00000666   -0.00014995   -0.00000037
     atom  294 type  2   force =    -0.00000551   -0.00014221    0.00000143
     atom  295 type  2   force =    -0.00000958   -0.00013851   -0.00000055
     atom  296 type  2   force =    -0.00000607   -0.00014334    0.00000145
     atom  297 type  3   force =    -0.00007096   -0.00003793    0.00004917
     atom  298 type  3   force =    -0.00007014   -0.00003689    0.00004830
     atom  299 type  3   force =    -0.00007088   -0.00003724    0.00004850
     atom  300 type  3   force =    -0.00006995   -0.00003723    0.00004826
     atom  301 type  3   force =    -0.00006722   -0.00003517    0.00005258
     atom  302 type  3   force =    -0.00007068   -0.00003693    0.00004857
     atom  303 type  3   force =    -0.00007033   -0.00003723    0.00004859
     atom  304 type  3   force =    -0.00007020   -0.00003727    0.00004851
     atom  305 type  1   force =     0.00020322   -0.00006434   -0.00019027
     atom  306 type  1   force =     0.00020049   -0.00007022   -0.00017361
     atom  307 type  1   force =     0.00020612   -0.00005307   -0.00017848
     atom  308 type  1   force =     0.00020563   -0.00005425   -0.00017795
     atom  309 type  1   force =     0.00020513   -0.00005299   -0.00017876
     atom  310 type  1   force =     0.00020598   -0.00005281   -0.00017982
     atom  311 type  1   force =     0.00020635   -0.00005240   -0.00017831
     atom  312 type  1   force =     0.00020885   -0.00005433   -0.00017902
     atom  313 type  1   force =     0.00025369    0.00016609   -0.00011730
     atom  314 type  1   force =     0.00022962    0.00015977   -0.00010525
     atom  315 type  1   force =     0.00025336    0.00015801   -0.00011368
     atom  316 type  1   force =     0.00025277    0.00015773   -0.00011270
     atom  317 type  1   force =     0.00025213    0.00015879   -0.00011306
     atom  318 type  1   force =     0.00025251    0.00015781   -0.00011478
     atom  319 type  1   force =     0.00025303    0.00016007   -0.00011262
     atom  320 type  1   force =     0.00025386    0.00015908   -0.00011332
     atom  321 type  2   force =    -0.00008278    0.00009673    0.00003211
     atom  322 type  2   force =    -0.00007027    0.00009679    0.00003342
     atom  323 type  2   force =    -0.00007600    0.00009915    0.00003190
     atom  324 type  2   force =    -0.00007555    0.00010015    0.00003172
     atom  325 type  2   force =    -0.00007487    0.00010153    0.00003384
     atom  326 type  2   force =    -0.00007617    0.00009973    0.00003202
     atom  327 type  2   force =    -0.00007997    0.00009598    0.00003207
     atom  328 type  2   force =    -0.00007657    0.00010013    0.00003210
     atom  329 type  3   force =    -0.00001996    0.00000401   -0.00001386
     atom  330 type  3   force =    -0.00001986    0.00000455   -0.00001573
     atom  331 type  3   force =    -0.00002009    0.00000452   -0.00001386
     atom  332 type  3   force =    -0.00001982    0.00000465   -0.00001391
     atom  333 type  3   force =    -0.00002000    0.00000512   -0.00001429
     atom  334 type  3   force =    -0.00002016    0.00000436   -0.00001377
     atom  335 type  3   force =    -0.00001968    0.00000243   -0.00001735
     atom  336 type  3   force =    -0.00002006    0.00000451   -0.00001346
     atom  337 type  1   force =    -0.00019854   -0.00012934   -0.00001992
     atom  338 type  1   force =    -0.00020602   -0.00012980   -0.00002049
     atom  339 type  1   force =    -0.00020274   -0.00012995   -0.00002188
     atom  340 type  1   force =    -0.00020352   -0.00013032   -0.00002119
     atom  341 type  1   force =    -0.00020508   -0.00012829   -0.00002243
     atom  342 type  1   force =    -0.00020302   -0.00013062   -0.00002181
     atom  343 type  1   force =    -0.00020001   -0.00013093   -0.00001096
     atom  344 type  1   force =    -0.00020249   -0.00013027   -0.00002220
     atom  345 type  2   force =    -0.00004224    0.00005600   -0.00007345
     atom  346 type  2   force =    -0.00004489    0.00006387   -0.00007377
     atom  347 type  2   force =    -0.00004368    0.00005686   -0.00007156
     atom  348 type  2   force =    -0.00004424    0.00006399   -0.00007322
     atom  349 type  2   force =    -0.00004318    0.00006439   -0.00007412
     atom  350 type  2   force =    -0.00004609    0.00006402   -0.00007316
     atom  351 type  2   force =    -0.00004409    0.00006531   -0.00007284
     atom  352 type  2   force =    -0.00004395    0.00006430   -0.00007277
     atom  353 type  3   force =    -0.00002011    0.00006458    0.00003264
     atom  354 type  3   force =    -0.00002155    0.00006643    0.00002963
     atom  355 type  3   force =    -0.00002154    0.00006628    0.00002940
     atom  356 type  3   force =    -0.00002148    0.00006625    0.00002928
     atom  357 type  3   force =    -0.00002338    0.00006638    0.00003142
     atom  358 type  3   force =    -0.00002102    0.00006669    0.00002957
     atom  359 type  3   force =    -0.00002086    0.00006625    0.00002924
     atom  360 type  3   force =    -0.00002150    0.00006619    0.00002924
     atom  361 type  1   force =     0.00024258   -0.00000208    0.00013607
     atom  362 type  1   force =     0.00024489    0.00004034    0.00017106
     atom  363 type  1   force =     0.00023867   -0.00000181    0.00013511
     atom  364 type  1   force =     0.00023846   -0.00000357    0.00013610
     atom  365 type  1   force =     0.00023939   -0.00000295    0.00013672
     atom  366 type  1   force =     0.00023977   -0.00000241    0.00013554
     atom  367 type  1   force =     0.00022918   -0.00000310    0.00012966
     atom  368 type  1   force =     0.00023966   -0.00000311    0.00013497
     atom  369 type  1   force =     0.00012982   -0.00019757    0.00017292
     atom  370 type  1   force =     0.00012971   -0.00019866    0.00017277
     atom  371 type  1   force =     0.00013113   -0.00019912    0.00017271
     atom  372 type  1   force =     0.00013243   -0.00021697    0.00018375
     atom  373 type  1   force =     0.00011989   -0.00019970    0.00017112
     atom  374 type  1   force =     0.00013141   -0.00019832    0.00017330
     atom  375 type  1   force =     0.00013036   -0.00019754    0.00017439
     atom  376 type  1   force =     0.00013110   -0.00019772    0.00017368
     atom  377 type  2   force =    -0.00000388   -0.00001516   -0.00001170
     atom  378 type  2   force =    -0.00000290   -0.00001780   -0.00001258
     atom  379 type  2   force =    -0.00000275   -0.00001456   -0.00001220
     atom  380 type  2   force =    -0.00000319   -0.00001256   -0.00000856
     atom  381 type  2   force =    -0.00000480   -0.00001510   -0.00001195
     atom  382 type  2   force =    -0.00000282   -0.00001315   -0.00001149
     atom  383 type  2   force =    -0.00000378   -0.00001371   -0.00001187
     atom  384 type  2   force =    -0.00000340   -0.00001390   -0.00001142
     atom  385 type  2   force =     0.00004460    0.00019793   -0.00002656
     atom  386 type  2   force =     0.00004605    0.00020428   -0.00002690
     atom  387 type  2   force =     0.00004284    0.00019793   -0.00002823
     atom  388 type  2   force =     0.00002831    0.00021114   -0.00003927
     atom  389 type  2   force =     0.00004806    0.00020231   -0.00003167
     atom  390 type  2   force =     0.00004322    0.00019912   -0.00002611
     atom  391 type  2   force =     0.00004432    0.00019743   -0.00002801
     atom  392 type  2   force =     0.00004417    0.00019661   -0.00002811
     atom  393 type  2   force =    -0.00015327   -0.00008523   -0.00008305
     atom  394 type  2   force =    -0.00015516   -0.00008109   -0.00008368
     atom  395 type  2   force =    -0.00015343   -0.00008500   -0.00008252
     atom  396 type  2   force =    -0.00015588   -0.00008283   -0.00008336
     atom  397 type  2   force =    -0.00015157   -0.00008546   -0.00008336
     atom  398 type  2   force =    -0.00015616   -0.00008638   -0.00008395
     atom  399 type  2   force =    -0.00015365   -0.00008584   -0.00008269
     atom  400 type  2   force =    -0.00015306   -0.00008550   -0.00008230
     atom  401 type  3   force =    -0.00004524    0.00002351    0.00005437
     atom  402 type  3   force =    -0.00004490    0.00002265    0.00005491
     atom  403 type  3   force =    -0.00004546    0.00002342    0.00005395
     atom  404 type  3   force =    -0.00004510    0.00002380    0.00005448
     atom  405 type  3   force =    -0.00004464    0.00002437    0.00005522
     atom  406 type  3   force =    -0.00004481    0.00002424    0.00005746
     atom  407 type  3   force =    -0.00004529    0.00002359    0.00005404
     atom  408 type  3   force =    -0.00004532    0.00002383    0.00005391
     atom  409 type  2   force =     0.00001179    0.00015067   -0.00000015
     atom  410 type  2   force =     0.00000558    0.00014394    0.00000121
     atom  411 type  2   force =     0.00001071    0.00013875   -0.00000044
     atom  412 type  2   force =     0.00000587    0.00014382    0.00000110
     atom  413 type  2   force =     0.00000362    0.00014250    0.00000183
     atom  414 type  2   force =     0.00000607    0.00014367    0.00000104
     atom  415 type  2   force =     0.00000476    0.00014337    0.00000138
     atom  416 type  2   force =     0.00000542    0.00014191    0.00000133
     atom  417 type  3   force =     0.00007048    0.00003548    0.00004400
     atom  418 type  3   force =     0.00006983    0.00003720    0.00004887
     atom  419 type  3   force =     0.00007165    0.00003731    0.00004783
     atom  420 type  3   force =     0.00007021    0.00003706    0.00004850
     atom  421 type  3   force =     0.00007004    0.00003688    0.00004863
     atom  422 type  3   force =     0.00007021    0.00003741    0.00004849
     atom  423 type  3   force =     0.00006846    0.00003666    0.00004838
     atom  424 type  3   force =     0.00007092    0.00003676    0.00004803
     atom  425 type  1   force =    -0.00020547    0.00005416   -0.00017892
     atom  426 type  1   force =    -0.00020672    0.00005381   -0.00018005
     atom  427 type  1   force =    -0.00020326    0.00005274   -0.00017657
     atom  428 type  1   force =    -0.00019141    0.00005913   -0.00017289
     atom  429 type  1   force =    -0.00021381    0.00004502   -0.00018191
     atom  430 type  1   force =    -0.00020437    0.00005307   -0.00017961
     atom  431 type  1   force =    -0.00020494    0.00005294   -0.00017802
     atom  432 type  1   force =    -0.00020492    0.00005331   -0.00017788
     atom  433 type  1   force =    -0.00025246   -0.00015846   -0.00011399
     atom  434 type  1   force =    -0.00025275   -0.00016063   -0.00011272
     atom  435 type  1   force =    -0.00025205   -0.00015705   -0.00011387
     atom  436 type  1   force =    -0.00023118   -0.00015240   -0.00010676
     atom  437 type  1   force =    -0.00025322   -0.00015606   -0.00010411
     atom  438 type  1   force =    -0.00025218   -0.00015719   -0.00011424
     atom  439 type  1   force =    -0.00025300   -0.00015707   -0.00011356
     atom  440 type  1   force =    -0.00025268   -0.00015676   -0.00011382
     atom  441 type  2   force =     0.00007578   -0.00010011    0.00003193
     atom  442 type  2   force =     0.00007573   -0.00009686    0.00003209
     atom  443 type  2   force =     0.00007470   -0.00009795    0.00003267
     atom  444 type  2   force =     0.00007164   -0.00009903    0.00003806
     atom  445 type  2   force =     0.00007782   -0.00010090    0.00003237
     atom  446 type  2   force =     0.00007489   -0.00009999    0.00003282
     atom  447 type  2   force =     0.00007652   -0.00009938    0.00003197
     atom  448 type  2   force =     0.00007527   -0.00010087    0.00003225
     atom  449 type  3   force =     0.00001944   -0.00000475   -0.00001431
     atom  450 type  3   force =     0.00002807   -0.00000601   -0.00001869
     atom  451 type  3   force =     0.00001995   -0.00000465   -0.00001385
     atom  452 type  3   force =     0.00002016   -0.00000482   -0.00001445
     atom  453 type  3   force =     0.00002015   -0.00000439   -0.00001390
     atom  454 type  3   force =     0.00001979   -0.00000472   -0.00001347
     atom  455 type  3   force =     0.00001940   -0.00000453   -0.00001426
     atom  456 type  3   force =     0.00001996   -0.00000464   -0.00001389
     atom  457 type  1   force =     0.00020449    0.00012918   -0.00002181
     atom  458 type  1   force =     0.00020224    0.00013467   -0.00002355
     atom  459 type  1   force =     0.00020349    0.00012991   -0.00002192
     atom  460 type  1   force =     0.00020045    0.00012686   -0.00001642
     atom  461 type  1   force =     0.00020336    0.00013103   -0.00002125
     atom  462 type  1   force =     0.00020595    0.00013110   -0.00002200
     atom  463 type  1   force =     0.00020215    0.00013029   -0.00002082
     atom  464 type  1   force =     0.00020573    0.00012994   -0.00002224
     atom  465 type  2   force =     0.00004948   -0.00006939   -0.00007825
     atom  466 type  2   force =     0.00004323   -0.00006370   -0.00007335
     atom  467 type  2   force =     0.00004454   -0.00006334   -0.00007307
     atom  468 type  2   force =     0.00004459   -0.00006371   -0.00007321
     atom  469 type  2   force =     0.00004711   -0.00006216   -0.00007497
     atom  470 type  2   force =     0.00004429   -0.00006441   -0.00007311
     atom  471 type  2   force =     0.00004707   -0.00006304   -0.00007433
     atom  472 type  2   force =     0.00004563   -0.00006356   -0.00007290
     atom  473 type  3   force =     0.00002206   -0.00006595    0.00003115
     atom  474 type  3   force =     0.00002182   -0.00006635    0.00002976
     atom  475 type  3   force =     0.00002120   -0.00006714    0.00002914
     atom  476 type  3   force =     0.00002160   -0.00006656    0.00002933
     atom  477 type  3   force =     0.00002136   -0.00006740    0.00003036
     atom  478 type  3   force =     0.00002149   -0.00006622    0.00002951
     atom  479 type  3   force =     0.00002137   -0.00006675    0.00002911
     atom  480 type  3   force =     0.00002100   -0.00006668    0.00002914
     atom  481 type  4   force =    -0.00000672    0.00000078    0.00000524
     atom  482 type  4   force =     0.00009607   -0.00016411   -0.00006794
     atom  483 type  4   force =     0.00000120   -0.00000171    0.00000084
     atom  484 type  4   force =     0.00000244    0.00000080   -0.00000231
     atom  485 type  4   force =     0.00000068    0.00000426   -0.00000302
     atom  486 type  4   force =    -0.00000351   -0.00000109    0.00000286
     atom  487 type  4   force =     0.00000282   -0.00000360   -0.00000484
     atom  488 type  4   force =    -0.00000704    0.00000112    0.00000379
     atom  489 type  4   force =     0.00008132    0.00007454    0.00009125
     atom  490 type  4   force =    -0.00000039    0.00000171    0.00000847
     atom  491 type  4   force =    -0.00000143   -0.00000147   -0.00000303
     atom  492 type  4   force =    -0.00000232    0.00000291   -0.00000103
     atom  493 type  4   force =    -0.00000117   -0.00000240    0.00000302
     atom  494 type  4   force =     0.00000446   -0.00000364    0.00000720
     atom  495 type  4   force =    -0.00000570   -0.00000222   -0.00000118
     atom  496 type  4   force =    -0.00001067    0.00000320   -0.00000711
     The non-local contrib.  to forces
     atom    1 type  1   force =     0.42451622   -0.94529783   -0.55501618
     atom    2 type  1   force =     0.42068671   -0.95246799   -0.54324802
     atom    3 type  1   force =     0.42451159   -0.94527600   -0.55500133
     atom    4 type  1   force =     0.42450771   -0.94527828   -0.55499455
     atom    5 type  1   force =     0.42450295   -0.94528041   -0.55499627
     atom    6 type  1   force =     0.42451043   -0.94527645   -0.55500297
     atom    7 type  1   force =     0.42450435   -0.94526228   -0.55498847
     atom    8 type  1   force =     0.42453745   -0.94528472   -0.55500483
     atom    9 type  1   force =    -1.90244938   -0.92143613   -0.83483475
     atom   10 type  1   force =    -1.90169384   -0.92018890   -0.83651309
     atom   11 type  1   force =    -1.90169281   -0.92018125   -0.83650842
     atom   12 type  1   force =    -1.90169314   -0.92018294   -0.83651201
     atom   13 type  1   force =    -1.90169297   -0.92018180   -0.83651024
     atom   14 type  1   force =    -1.90169777   -0.92018151   -0.83650956
     atom   15 type  1   force =    -1.90164095   -0.92015734   -0.83649177
     atom   16 type  1   force =    -1.90169440   -0.92017878   -0.83650920
     atom   17 type  2   force =     0.20448042   -0.04655825    0.01130292
     atom   18 type  2   force =     0.20917685   -0.04486738    0.00801595
     atom   19 type  2   force =     0.20917552   -0.04486621    0.00802252
     atom   20 type  2   force =     0.20918024   -0.04486378    0.00802051
     atom   21 type  2   force =     0.20917554   -0.04485987    0.00801757
     atom   22 type  2   force =     0.20916791   -0.04486415    0.00802019
     atom   23 type  2   force =     0.20919313   -0.04486632    0.00802146
     atom   24 type  2   force =     0.20917472   -0.04486098    0.00802455
     atom   25 type  2   force =     0.19355771   -0.00561353    0.00706026
     atom   26 type  2   force =     0.18057867   -0.00954748    0.01138056
     atom   27 type  2   force =     0.18057698   -0.00954169    0.01138472
     atom   28 type  2   force =     0.18058237   -0.00954280    0.01138418
     atom   29 type  2   force =     0.18057739   -0.00954209    0.01138422
     atom   30 type  2   force =     0.18056853   -0.00954049    0.01138459
     atom   31 type  2   force =     0.18059888   -0.00954246    0.01138822
     atom   32 type  2   force =     0.18057723   -0.00953947    0.01138677
     atom   33 type  2   force =     0.03833310    0.04944284   -0.02159449
     atom   34 type  2   force =     0.03832931    0.04943517   -0.02159154
     atom   35 type  2   force =     0.03834359    0.04943400   -0.02158820
     atom   36 type  2   force =     0.03833414    0.04943674   -0.02158540
     atom   37 type  2   force =     0.03697584    0.04895805   -0.02226364
     atom   38 type  2   force =     0.03833789    0.04942756   -0.02159387
     atom   39 type  2   force =     0.03833663    0.04943047   -0.02158790
     atom   40 type  2   force =     0.03834107    0.04943209   -0.02158973
     atom   41 type  3   force =    -0.02448918    0.07095395   -0.00853875
     atom   42 type  3   force =    -0.02448934    0.07095377   -0.00853850
     atom   43 type  3   force =    -0.02448899    0.07095372   -0.00853846
     atom   44 type  3   force =    -0.02448918    0.07095377   -0.00853830
     atom   45 type  3   force =    -0.02447974    0.07096663   -0.00852946
     atom   46 type  3   force =    -0.02448909    0.07095358   -0.00853863
     atom   47 type  3   force =    -0.02448911    0.07095366   -0.00853835
     atom   48 type  3   force =    -0.02448902    0.07095366   -0.00853849
     atom   49 type  2   force =     0.19564400    0.10407261   -0.02183110
     atom   50 type  2   force =     0.19564108    0.10406831   -0.02183087
     atom   51 type  2   force =     0.19565935    0.10406422   -0.02182838
     atom   52 type  2   force =     0.19564504    0.10407100   -0.02183029
     atom   53 type  2   force =     0.19580851    0.10417057   -0.02212823
     atom   54 type  2   force =     0.19564524    0.10406784   -0.02183269
     atom   55 type  2   force =     0.19564499    0.10406788   -0.02183150
     atom   56 type  2   force =     0.19565214    0.10406897   -0.02183157
     atom   57 type  3   force =     0.07447305   -0.02094771   -0.00102131
     atom   58 type  3   force =     0.07447300   -0.02094770   -0.00102132
     atom   59 type  3   force =     0.07447338   -0.02094834   -0.00102070
     atom   60 type  3   force =     0.07447308   -0.02094772   -0.00102129
     atom   61 type  3   force =     0.07447872   -0.02094671   -0.00101663
     atom   62 type  3   force =     0.07447310   -0.02094776   -0.00102137
     atom   63 type  3   force =     0.07447309   -0.02094775   -0.00102135
     atom   64 type  3   force =     0.07447321   -0.02094781   -0.00102131
     atom   65 type  1   force =     0.45483642    0.89386456    0.62054326
     atom   66 type  1   force =     0.46059020    0.90168929    0.60852510
     atom   67 type  1   force =     0.46059789    0.90171523    0.60855036
     atom   68 type  1   force =     0.46059924    0.90170501    0.60854269
     atom   69 type  1   force =     0.46059841    0.90171546    0.60854069
     atom   70 type  1   force =     0.46059321    0.90171941    0.60854448
     atom   71 type  1   force =     0.46062691    0.90172512    0.60855874
     atom   72 type  1   force =     0.46060377    0.90172568    0.60856016
     atom   73 type  1   force =    -1.81503774    1.18803960    0.50616682
     atom   74 type  1   force =    -1.81427066    1.18901653    0.50398674
     atom   75 type  1   force =    -1.81427562    1.18902737    0.50399259
     atom   76 type  1   force =    -1.81426539    1.18901796    0.50398943
     atom   77 type  1   force =    -1.81427237    1.18902439    0.50398962
     atom   78 type  1   force =    -1.81428307    1.18903186    0.50399298
     atom   79 type  1   force =    -1.81424027    1.18901249    0.50398498
     atom   80 type  1   force =    -1.81427035    1.18902753    0.50399223
     atom   81 type  2   force =    -0.12194872   -0.00051879    0.01030247
     atom   82 type  2   force =    -0.12229284    0.00071990    0.01060615
     atom   83 type  2   force =    -0.12229362    0.00071844    0.01061085
     atom   84 type  2   force =    -0.12228648    0.00072458    0.01060878
     atom   85 type  2   force =    -0.12229012    0.00072900    0.01060683
     atom   86 type  2   force =    -0.12229906    0.00071841    0.01060980
     atom   87 type  2   force =    -0.12227983    0.00072442    0.01060782
     atom   88 type  2   force =    -0.12229007    0.00072760    0.01061098
     atom   89 type  3   force =    -0.04392404   -0.06010595    0.00989212
     atom   90 type  3   force =    -0.04393403   -0.06011081    0.00989538
     atom   91 type  3   force =    -0.04392390   -0.06010581    0.00989231
     atom   92 type  3   force =    -0.04392404   -0.06010600    0.00989242
     atom   93 type  3   force =    -0.04392419   -0.06010604    0.00989228
     atom   94 type  3   force =    -0.04392394   -0.06010573    0.00989210
     atom   95 type  3   force =    -0.04392398   -0.06010574    0.00989239
     atom   96 type  3   force =    -0.04392376   -0.06010583    0.00989233
     atom   97 type  1   force =     0.67099322   -1.73658096    0.15449346
     atom   98 type  1   force =     0.67124891   -1.73705151    0.15440884
     atom   99 type  1   force =     0.67100106   -1.73658210    0.15449969
     atom  100 type  1   force =     0.67099326   -1.73658276    0.15450141
     atom  101 type  1   force =     0.67098660   -1.73657387    0.15449976
     atom  102 type  1   force =     0.67099262   -1.73656913    0.15449575
     atom  103 type  1   force =     0.67099305   -1.73657063    0.15450217
     atom  104 type  1   force =     0.67101069   -1.73659541    0.15450033
     atom  105 type  2   force =    -0.02522174    0.04108695   -0.00104682
     atom  106 type  2   force =    -0.02520533    0.04104414   -0.00104690
     atom  107 type  2   force =    -0.02519804    0.04108680   -0.00104062
     atom  108 type  2   force =    -0.02522032    0.04108379   -0.00104374
     atom  109 type  2   force =    -0.02519126    0.04112363   -0.00104019
     atom  110 type  2   force =    -0.02521298    0.04108616   -0.00104495
     atom  111 type  2   force =    -0.02520937    0.04109144   -0.00104234
     atom  112 type  2   force =    -0.02520128    0.04110141   -0.00104368
     atom  113 type  3   force =     0.05071352    0.05410633   -0.00605704
     atom  114 type  3   force =     0.05071343    0.05410598   -0.00605704
     atom  115 type  3   force =     0.05071343    0.05410642   -0.00605683
     atom  116 type  3   force =     0.05071353    0.05410624   -0.00605696
     atom  117 type  3   force =     0.05071254    0.05411082   -0.00605821
     atom  118 type  3   force =     0.05071357    0.05410617   -0.00605709
     atom  119 type  3   force =     0.05071362    0.05410628   -0.00605702
     atom  120 type  3   force =     0.05071374    0.05410648   -0.00605703
     atom  121 type  1   force =    -0.42450330    0.94528454   -0.55501273
     atom  122 type  1   force =    -0.42459735    0.94550364   -0.55507442
     atom  123 type  1   force =    -0.42450214    0.94528154   -0.55500175
     atom  124 type  1   force =    -0.42450286    0.94526307   -0.55498948
     atom  125 type  1   force =    -0.42452740    0.94524122   -0.55496140
     atom  126 type  1   force =    -0.42450912    0.94528664   -0.55500809
     atom  127 type  1   force =    -0.42451039    0.94527711   -0.55499187
     atom  128 type  1   force =    -0.42448919    0.94527993   -0.55500125
     atom  129 type  1   force =     1.90171439    0.92019275   -0.83652540
     atom  130 type  1   force =     1.90156666    0.92013759   -0.83649595
     atom  131 type  1   force =     1.90170438    0.92018606   -0.83651429
     atom  132 type  1   force =     1.90169093    0.92017415   -0.83650615
     atom  133 type  1   force =     1.90165620    0.92016118   -0.83649554
     atom  134 type  1   force =     1.90170064    0.92018848   -0.83651501
     atom  135 type  1   force =     1.90168795    0.92017940   -0.83650467
     atom  136 type  1   force =     1.90171826    0.92019000   -0.83651894
     atom  137 type  2   force =    -0.20916663    0.04486401    0.00801889
     atom  138 type  2   force =    -0.20917954    0.04489724    0.00802048
     atom  139 type  2   force =    -0.20916365    0.04487062    0.00802066
     atom  140 type  2   force =    -0.20917082    0.04486205    0.00802070
     atom  141 type  2   force =    -0.20916370    0.04485439    0.00802283
     atom  142 type  2   force =    -0.20917606    0.04486314    0.00801683
     atom  143 type  2   force =    -0.20918004    0.04486543    0.00802188
     atom  144 type  2   force =    -0.20914917    0.04484469    0.00801632
     atom  145 type  2   force =    -0.18056730    0.00954575    0.01138216
     atom  146 type  2   force =    -0.18058528    0.00956287    0.01136843
     atom  147 type  2   force =    -0.18056640    0.00954139    0.01138306
     atom  148 type  2   force =    -0.18057213    0.00953711    0.01138646
     atom  149 type  2   force =    -0.18055998    0.00952460    0.01141797
     atom  150 type  2   force =    -0.18057561    0.00954540    0.01138183
     atom  151 type  2   force =    -0.18058166    0.00954084    0.01138518
     atom  152 type  2   force =    -0.18054702    0.00954027    0.01138347
     atom  153 type  2   force =    -0.03831799   -0.04944589   -0.02158028
     atom  154 type  2   force =    -0.03833845   -0.04943520   -0.02159310
     atom  155 type  2   force =    -0.03834168   -0.04942950   -0.02158850
     atom  156 type  2   force =    -0.03831698   -0.04945355   -0.02159533
     atom  157 type  2   force =    -0.03833176   -0.04943115   -0.02159167
     atom  158 type  2   force =    -0.03833101   -0.04940859   -0.02159024
     atom  159 type  2   force =    -0.03832677   -0.04942019   -0.02159043
     atom  160 type  2   force =    -0.03833326   -0.04943574   -0.02159069
     atom  161 type  3   force =     0.02449092   -0.07095392   -0.00853755
     atom  162 type  3   force =     0.02448909   -0.07095375   -0.00853858
     atom  163 type  3   force =     0.02448903   -0.07095361   -0.00853838
     atom  164 type  3   force =     0.02448944   -0.07095420   -0.00853856
     atom  165 type  3   force =     0.02448922   -0.07095364   -0.00853856
     atom  166 type  3   force =     0.02448913   -0.07095324   -0.00853848
     atom  167 type  3   force =     0.02448941   -0.07095339   -0.00853847
     atom  168 type  3   force =     0.02448920   -0.07095377   -0.00853849
     atom  169 type  2   force =    -0.19565448   -0.10406786   -0.02183404
     atom  170 type  2   force =    -0.19557551   -0.10411401   -0.02182778
     atom  171 type  2   force =    -0.19563435   -0.10407449   -0.02183065
     atom  172 type  2   force =    -0.19565210   -0.10407013   -0.02183099
     atom  173 type  2   force =    -0.19565364   -0.10405513   -0.02183053
     atom  174 type  2   force =    -0.19564395   -0.10407046   -0.02183211
     atom  175 type  2   force =    -0.19564280   -0.10406847   -0.02183005
     atom  176 type  2   force =    -0.19561335   -0.10405974   -0.02183177
     atom  177 type  3   force =    -0.07447331    0.02094774   -0.00102154
     atom  178 type  3   force =    -0.07447262    0.02094504   -0.00102132
     atom  179 type  3   force =    -0.07447282    0.02094767   -0.00102134
     atom  180 type  3   force =    -0.07447325    0.02094771   -0.00102119
     atom  181 type  3   force =    -0.07447328    0.02094795   -0.00102128
     atom  182 type  3   force =    -0.07447304    0.02094775   -0.00102144
     atom  183 type  3   force =    -0.07447303    0.02094780   -0.00102123
     atom  184 type  3   force =    -0.07447251    0.02094773   -0.00102133
     atom  185 type  1   force =    -0.46058462   -0.90169523    0.60853048
     atom  186 type  1   force =    -0.46061953   -0.90167031    0.60852207
     atom  187 type  1   force =    -0.46058739   -0.90170571    0.60854282
     atom  188 type  1   force =    -0.46059664   -0.90172655    0.60855886
     atom  189 type  1   force =    -0.46074980   -0.90206849    0.60869913
     atom  190 type  1   force =    -0.46059162   -0.90170396    0.60853020
     atom  191 type  1   force =    -0.46059971   -0.90171407    0.60855085
     atom  192 type  1   force =    -0.46058221   -0.90172729    0.60855243
     atom  193 type  1   force =     1.81427535   -1.18901831    0.50398739
     atom  194 type  1   force =     1.81422863   -1.18898930    0.50397719
     atom  195 type  1   force =     1.81428529   -1.18902980    0.50399407
     atom  196 type  1   force =     1.81428477   -1.18903515    0.50399859
     atom  197 type  1   force =     1.81412763   -1.18893398    0.50399125
     atom  198 type  1   force =     1.81427477   -1.18902230    0.50398752
     atom  199 type  1   force =     1.81427447   -1.18902762    0.50399291
     atom  200 type  1   force =     1.81429542   -1.18903588    0.50399726
     atom  201 type  2   force =     0.12229447   -0.00072437    0.01060873
     atom  202 type  2   force =     0.12236488   -0.00062269    0.01061952
     atom  203 type  2   force =     0.12229603   -0.00071782    0.01061023
     atom  204 type  2   force =     0.12229287   -0.00072582    0.01060968
     atom  205 type  2   force =     0.12229304   -0.00073450    0.01060997
     atom  206 type  2   force =     0.12228913   -0.00072385    0.01060658
     atom  207 type  2   force =     0.12228799   -0.00072141    0.01060964
     atom  208 type  2   force =     0.12232848   -0.00072797    0.01060677
     atom  209 type  3   force =     0.04392409    0.06010584    0.00989223
     atom  210 type  3   force =     0.04392658    0.06010926    0.00989259
     atom  211 type  3   force =     0.04392413    0.06010600    0.00989229
     atom  212 type  3   force =     0.04392404    0.06010581    0.00989233
     atom  213 type  3   force =     0.04392398    0.06010564    0.00989230
     atom  214 type  3   force =     0.04392400    0.06010587    0.00989212
     atom  215 type  3   force =     0.04392396    0.06010589    0.00989230
     atom  216 type  3   force =     0.04392474    0.06010584    0.00989229
     atom  217 type  1   force =    -0.67099094    1.73657681    0.15449910
     atom  218 type  1   force =    -0.67094607    1.73657946    0.15449901
     atom  219 type  1   force =    -0.67099623    1.73659427    0.15450060
     atom  220 type  1   force =    -0.67099173    1.73657450    0.15449867
     atom  221 type  1   force =    -0.67098592    1.73656195    0.15449847
     atom  222 type  1   force =    -0.67099713    1.73657396    0.15449669
     atom  223 type  1   force =    -0.67099959    1.73657904    0.15449814
     atom  224 type  1   force =    -0.67091101    1.73644464    0.15449617
     atom  225 type  2   force =     0.02521258   -0.04108407   -0.00104585
     atom  226 type  2   force =     0.02520601   -0.04109404   -0.00104353
     atom  227 type  2   force =     0.02522001   -0.04109133   -0.00103942
     atom  228 type  2   force =     0.02521216   -0.04108713   -0.00103987
     atom  229 type  2   force =     0.02491556   -0.04090323   -0.00126468
     atom  230 type  2   force =     0.02521424   -0.04109141   -0.00104691
     atom  231 type  2   force =     0.02521559   -0.04108807   -0.00104259
     atom  232 type  2   force =     0.02522175   -0.04108330   -0.00104388
     atom  233 type  3   force =    -0.05071378   -0.05410627   -0.00605720
     atom  234 type  3   force =    -0.05071387   -0.05410690   -0.00605711
     atom  235 type  3   force =    -0.05071336   -0.05410607   -0.00605693
     atom  236 type  3   force =    -0.05071374   -0.05410639   -0.00605696
     atom  237 type  3   force =    -0.05071291   -0.05410499   -0.00605694
     atom  238 type  3   force =    -0.05071357   -0.05410633   -0.00605709
     atom  239 type  3   force =    -0.05071347   -0.05410618   -0.00605696
     atom  240 type  3   force =    -0.05071319   -0.05410584   -0.00605699
     atom  241 type  1   force =    -0.94521779   -0.42451211    0.55496267
     atom  242 type  1   force =    -0.94556322   -0.42461519    0.55510091
     atom  243 type  1   force =    -0.94527199   -0.42450482    0.55499630
     atom  244 type  1   force =    -0.94528197   -0.42451475    0.55500520
     atom  245 type  1   force =    -0.94529318   -0.42450645    0.55500927
     atom  246 type  1   force =    -0.94526451   -0.42449890    0.55499114
     atom  247 type  1   force =    -0.94529063   -0.42449797    0.55501328
     atom  248 type  1   force =    -0.94525115   -0.42450349    0.55498462
     atom  249 type  1   force =    -0.92014310    1.90165400    0.83648902
     atom  250 type  1   force =    -0.92011923    1.90151309    0.83640996
     atom  251 type  1   force =    -0.92018103    1.90169654    0.83650999
     atom  252 type  1   force =    -0.92017908    1.90168645    0.83650845
     atom  253 type  1   force =    -0.92018575    1.90169915    0.83651312
     atom  254 type  1   force =    -0.92018359    1.90170264    0.83651297
     atom  255 type  1   force =    -0.92018878    1.90171086    0.83651763
     atom  256 type  1   force =    -0.92017294    1.90168787    0.83650455
     atom  257 type  2   force =    -0.04483677   -0.20918925   -0.00804395
     atom  258 type  2   force =    -0.04488067   -0.20919249   -0.00802317
     atom  259 type  2   force =    -0.04486123   -0.20917400   -0.00802001
     atom  260 type  2   force =    -0.04486373   -0.20917912   -0.00801954
     atom  261 type  2   force =    -0.04486868   -0.20916103   -0.00801959
     atom  262 type  2   force =    -0.04486290   -0.20917188   -0.00802140
     atom  263 type  2   force =    -0.04484594   -0.20915723   -0.00801204
     atom  264 type  2   force =    -0.04485737   -0.20917598   -0.00802030
     atom  265 type  2   force =    -0.00952260   -0.18059551   -0.01139740
     atom  266 type  2   force =    -0.00956975   -0.18058883   -0.01136527
     atom  267 type  2   force =    -0.00954124   -0.18057502   -0.01138492
     atom  268 type  2   force =    -0.00954304   -0.18058104   -0.01138472
     atom  269 type  2   force =    -0.00954203   -0.18056247   -0.01138250
     atom  270 type  2   force =    -0.00954017   -0.18057278   -0.01138436
     atom  271 type  2   force =    -0.00954103   -0.18055308   -0.01138152
     atom  272 type  2   force =    -0.00953751   -0.18057751   -0.01138840
     atom  273 type  2   force =     0.04946271   -0.03833709    0.02154023
     atom  274 type  2   force =     0.04941928   -0.03834670    0.02158433
     atom  275 type  2   force =     0.04943807   -0.03833541    0.02159165
     atom  276 type  2   force =     0.04943565   -0.03833680    0.02159084
     atom  277 type  2   force =     0.04943394   -0.03831970    0.02159111
     atom  278 type  2   force =     0.04942977   -0.03833735    0.02158922
     atom  279 type  2   force =     0.04945302   -0.03832846    0.02159588
     atom  280 type  2   force =     0.04945069   -0.03833076    0.02159209
     atom  281 type  3   force =     0.07095417    0.02448901    0.00853653
     atom  282 type  3   force =     0.07095343    0.02448882    0.00853819
     atom  283 type  3   force =     0.07095381    0.02448914    0.00853857
     atom  284 type  3   force =     0.07095377    0.02448912    0.00853850
     atom  285 type  3   force =     0.07095378    0.02448940    0.00853842
     atom  286 type  3   force =     0.07095361    0.02448912    0.00853845
     atom  287 type  3   force =     0.07095421    0.02448933    0.00853862
     atom  288 type  3   force =     0.07095416    0.02448930    0.00853856
     atom  289 type  2   force =     0.10409385   -0.19561945    0.02182249
     atom  290 type  2   force =     0.10406141   -0.19564556    0.02183131
     atom  291 type  2   force =     0.10407301   -0.19564322    0.02183119
     atom  292 type  2   force =     0.10406971   -0.19564589    0.02183230
     atom  293 type  2   force =     0.10406773   -0.19561049    0.02181780
     atom  294 type  2   force =     0.10406832   -0.19565438    0.02183064
     atom  295 type  2   force =     0.10408266   -0.19565846    0.02183079
     atom  296 type  2   force =     0.10407372   -0.19564520    0.02183115
     atom  297 type  3   force =    -0.02094728   -0.07447246    0.00102116
     atom  298 type  3   force =    -0.02094784   -0.07447315    0.00102130
     atom  299 type  3   force =    -0.02094759   -0.07447309    0.00102129
     atom  300 type  3   force =    -0.02094778   -0.07447306    0.00102140
     atom  301 type  3   force =    -0.02094813   -0.07447216    0.00102006
     atom  302 type  3   force =    -0.02094767   -0.07447333    0.00102127
     atom  303 type  3   force =    -0.02094755   -0.07447338    0.00102168
     atom  304 type  3   force =    -0.02094768   -0.07447309    0.00102129
     atom  305 type  1   force =     0.90180297   -0.46066412   -0.60867796
     atom  306 type  1   force =     0.90171388   -0.46064846   -0.60855077
     atom  307 type  1   force =     0.90171319   -0.46059471   -0.60854319
     atom  308 type  1   force =     0.90171577   -0.46060244   -0.60854362
     atom  309 type  1   force =     0.90171607   -0.46059142   -0.60854795
     atom  310 type  1   force =     0.90170902   -0.46058994   -0.60854796
     atom  311 type  1   force =     0.90172648   -0.46058736   -0.60854535
     atom  312 type  1   force =     0.90173987   -0.46060576   -0.60855582
     atom  313 type  1   force =     1.18903265    1.81422415   -0.50399363
     atom  314 type  1   force =     1.18902954    1.81424314   -0.50397412
     atom  315 type  1   force =     1.18902794    1.81427822   -0.50399229
     atom  316 type  1   force =     1.18902231    1.81426710   -0.50398771
     atom  317 type  1   force =     1.18902535    1.81427885   -0.50399233
     atom  318 type  1   force =     1.18903171    1.81428682   -0.50399809
     atom  319 type  1   force =     1.18903070    1.81428725   -0.50399332
     atom  320 type  1   force =     1.18903386    1.81427715   -0.50399581
     atom  321 type  2   force =     0.00075940    0.12227865   -0.01060724
     atom  322 type  2   force =     0.00068904    0.12230531   -0.01060827
     atom  323 type  2   force =     0.00072468    0.12229206   -0.01060892
     atom  324 type  2   force =     0.00072314    0.12229026   -0.01060828
     atom  325 type  2   force =     0.00071610    0.12230707   -0.01060818
     atom  326 type  2   force =     0.00072560    0.12228983   -0.01060951
     atom  327 type  2   force =     0.00074527    0.12229315   -0.01059779
     atom  328 type  2   force =     0.00073180    0.12228857   -0.01060932
     atom  329 type  3   force =    -0.06010493    0.04392362   -0.00989220
     atom  330 type  3   force =    -0.06010671    0.04392463   -0.00989173
     atom  331 type  3   force =    -0.06010582    0.04392404   -0.00989233
     atom  332 type  3   force =    -0.06010587    0.04392396   -0.00989227
     atom  333 type  3   force =    -0.06010613    0.04392423   -0.00989221
     atom  334 type  3   force =    -0.06010578    0.04392401   -0.00989231
     atom  335 type  3   force =    -0.06010535    0.04392442   -0.00989095
     atom  336 type  3   force =    -0.06010565    0.04392393   -0.00989240
     atom  337 type  1   force =    -1.73651029   -0.67097679   -0.15449889
     atom  338 type  1   force =    -1.73660051   -0.67099019   -0.15450037
     atom  339 type  1   force =    -1.73656635   -0.67098998   -0.15449958
     atom  340 type  1   force =    -1.73658041   -0.67099572   -0.15449852
     atom  341 type  1   force =    -1.73660682   -0.67098064   -0.15449861
     atom  342 type  1   force =    -1.73657236   -0.67099654   -0.15450027
     atom  343 type  1   force =    -1.73650381   -0.67098195   -0.15445727
     atom  344 type  1   force =    -1.73656819   -0.67099397   -0.15450115
     atom  345 type  2   force =     0.04103911    0.02522543    0.00105380
     atom  346 type  2   force =     0.04108904    0.02521150    0.00104068
     atom  347 type  2   force =     0.04108657    0.02520159    0.00103304
     atom  348 type  2   force =     0.04109248    0.02521315    0.00104356
     atom  349 type  2   force =     0.04109999    0.02521967    0.00103534
     atom  350 type  2   force =     0.04108116    0.02521064    0.00104333
     atom  351 type  2   force =     0.04110246    0.02521263    0.00104367
     atom  352 type  2   force =     0.04108688    0.02521973    0.00104555
     atom  353 type  3   force =     0.05410621   -0.05071287    0.00605611
     atom  354 type  3   force =     0.05410614   -0.05071362    0.00605695
     atom  355 type  3   force =     0.05410644   -0.05071364    0.00605705
     atom  356 type  3   force =     0.05410634   -0.05071360    0.00605709
     atom  357 type  3   force =     0.05410614   -0.05071288    0.00605638
     atom  358 type  3   force =     0.05410624   -0.05071371    0.00605697
     atom  359 type  3   force =     0.05410676   -0.05071382    0.00605718
     atom  360 type  3   force =     0.05410638   -0.05071356    0.00605706
     atom  361 type  1   force =     0.94530531    0.42451153    0.55500704
     atom  362 type  1   force =     0.94562343    0.42462636    0.55524415
     atom  363 type  1   force =     0.94527679    0.42451135    0.55499662
     atom  364 type  1   force =     0.94527776    0.42449891    0.55499937
     atom  365 type  1   force =     0.94527822    0.42450768    0.55500590
     atom  366 type  1   force =     0.94528117    0.42451018    0.55499868
     atom  367 type  1   force =     0.94524772    0.42451116    0.55499191
     atom  368 type  1   force =     0.94529027    0.42450457    0.55499616
     atom  369 type  1   force =     0.92017916   -1.90168844    0.83650722
     atom  370 type  1   force =     0.92018179   -1.90170108    0.83651201
     atom  371 type  1   force =     0.92019589   -1.90170545    0.83651777
     atom  372 type  1   force =     0.92023315   -1.90161625    0.83649737
     atom  373 type  1   force =     0.92013320   -1.90166049    0.83648410
     atom  374 type  1   force =     0.92018543   -1.90169915    0.83651039
     atom  375 type  1   force =     0.92018517   -1.90169963    0.83651515
     atom  376 type  1   force =     0.92018415   -1.90169452    0.83651062
     atom  377 type  2   force =     0.04486406    0.20917557   -0.00802180
     atom  378 type  2   force =     0.04485076    0.20916327   -0.00801872
     atom  379 type  2   force =     0.04486982    0.20917407   -0.00802069
     atom  380 type  2   force =     0.04487298    0.20913332   -0.00801450
     atom  381 type  2   force =     0.04485334    0.20917634   -0.00801803
     atom  382 type  2   force =     0.04487509    0.20917032   -0.00802629
     atom  383 type  2   force =     0.04486334    0.20917584   -0.00801912
     atom  384 type  2   force =     0.04487126    0.20917765   -0.00802151
     atom  385 type  2   force =     0.00954106    0.18057858   -0.01138531
     atom  386 type  2   force =     0.00953951    0.18056034   -0.01138486
     atom  387 type  2   force =     0.00954715    0.18057598   -0.01137985
     atom  388 type  2   force =     0.00957376    0.18053176   -0.01137650
     atom  389 type  2   force =     0.00951412    0.18056892   -0.01139706
     atom  390 type  2   force =     0.00954276    0.18057002   -0.01138400
     atom  391 type  2   force =     0.00954402    0.18057652   -0.01138318
     atom  392 type  2   force =     0.00954348    0.18058028   -0.01138319
     atom  393 type  2   force =    -0.04943433    0.03833445    0.02158882
     atom  394 type  2   force =    -0.04945663    0.03832800    0.02159372
     atom  395 type  2   force =    -0.04942589    0.03833622    0.02159064
     atom  396 type  2   force =    -0.04941715    0.03832462    0.02157535
     atom  397 type  2   force =    -0.04945418    0.03832899    0.02158961
     atom  398 type  2   force =    -0.04940457    0.03834274    0.02157691
     atom  399 type  2   force =    -0.04943134    0.03833914    0.02159109
     atom  400 type  2   force =    -0.04942372    0.03833811    0.02159020
     atom  401 type  3   force =    -0.07095374   -0.02448914    0.00853843
     atom  402 type  3   force =    -0.07095429   -0.02448922    0.00853841
     atom  403 type  3   force =    -0.07095354   -0.02448910    0.00853855
     atom  404 type  3   force =    -0.07095336   -0.02448928    0.00853834
     atom  405 type  3   force =    -0.07095421   -0.02448949    0.00853830
     atom  406 type  3   force =    -0.07095300   -0.02448903    0.00853749
     atom  407 type  3   force =    -0.07095364   -0.02448910    0.00853853
     atom  408 type  3   force =    -0.07095349   -0.02448913    0.00853853
     atom  409 type  2   force =    -0.10409035    0.19560264    0.02184294
     atom  410 type  2   force =    -0.10406962    0.19564324    0.02182979
     atom  411 type  2   force =    -0.10407152    0.19562983    0.02182482
     atom  412 type  2   force =    -0.10406530    0.19564318    0.02183092
     atom  413 type  2   force =    -0.10405886    0.19565664    0.02183044
     atom  414 type  2   force =    -0.10407548    0.19564493    0.02183141
     atom  415 type  2   force =    -0.10405826    0.19565558    0.02183195
     atom  416 type  2   force =    -0.10406818    0.19565614    0.02183275
     atom  417 type  3   force =     0.02094735    0.07447218    0.00102295
     atom  418 type  3   force =     0.02094779    0.07447300    0.00102119
     atom  419 type  3   force =     0.02094750    0.07447284    0.00102134
     atom  420 type  3   force =     0.02094779    0.07447305    0.00102129
     atom  421 type  3   force =     0.02094791    0.07447333    0.00102123
     atom  422 type  3   force =     0.02094766    0.07447306    0.00102133
     atom  423 type  3   force =     0.02094813    0.07447322    0.00102133
     atom  424 type  3   force =     0.02094765    0.07447342    0.00102143
     atom  425 type  1   force =    -0.90171724    0.46060218   -0.60855164
     atom  426 type  1   force =    -0.90173757    0.46059732   -0.60856033
     atom  427 type  1   force =    -0.90168839    0.46059023   -0.60852728
     atom  428 type  1   force =    -0.90162437    0.46057573   -0.60850306
     atom  429 type  1   force =    -0.90187862    0.46062615   -0.60861773
     atom  430 type  1   force =    -0.90171107    0.46059099   -0.60856089
     atom  431 type  1   force =    -0.90170336    0.46059296   -0.60853747
     atom  432 type  1   force =    -0.90169962    0.46059408   -0.60853670
     atom  433 type  1   force =    -1.18902207   -1.81426751   -0.50399100
     atom  434 type  1   force =    -1.18903197   -1.81428147   -0.50399552
     atom  435 type  1   force =    -1.18900990   -1.81426278   -0.50398266
     atom  436 type  1   force =    -1.18895481   -1.81423396   -0.50396644
     atom  437 type  1   force =    -1.18908859   -1.81429399   -0.50399793
     atom  438 type  1   force =    -1.18903016   -1.81428421   -0.50399620
     atom  439 type  1   force =    -1.18902245   -1.81427424   -0.50399027
     atom  440 type  1   force =    -1.18902280   -1.81427377   -0.50398990
     atom  441 type  2   force =    -0.00072293   -0.12229282   -0.01060963
     atom  442 type  2   force =    -0.00072719   -0.12230821   -0.01060912
     atom  443 type  2   force =    -0.00070970   -0.12229903   -0.01061037
     atom  444 type  2   force =    -0.00070912   -0.12234436   -0.01058823
     atom  445 type  2   force =    -0.00073697   -0.12228532   -0.01060465
     atom  446 type  2   force =    -0.00071031   -0.12229481   -0.01061202
     atom  447 type  2   force =    -0.00072537   -0.12228771   -0.01060821
     atom  448 type  2   force =    -0.00071579   -0.12228905   -0.01061117
     atom  449 type  3   force =     0.06010629   -0.04392420   -0.00989227
     atom  450 type  3   force =     0.06010575   -0.04392540   -0.00989046
     atom  451 type  3   force =     0.06010588   -0.04392402   -0.00989233
     atom  452 type  3   force =     0.06010586   -0.04392431   -0.00989210
     atom  453 type  3   force =     0.06010578   -0.04392396   -0.00989226
     atom  454 type  3   force =     0.06010606   -0.04392395   -0.00989244
     atom  455 type  3   force =     0.06010561   -0.04392372   -0.00989205
     atom  456 type  3   force =     0.06010619   -0.04392414   -0.00989237
     atom  457 type  1   force =     1.73658840    0.67099102   -0.15450078
     atom  458 type  1   force =     1.73650016    0.67094841   -0.15451288
     atom  459 type  1   force =     1.73658026    0.67099307   -0.15450099
     atom  460 type  1   force =     1.73655060    0.67096251   -0.15448060
     atom  461 type  1   force =     1.73657175    0.67099805   -0.15449801
     atom  462 type  1   force =     1.73661211    0.67100766   -0.15450335
     atom  463 type  1   force =     1.73656474    0.67099525   -0.15449720
     atom  464 type  1   force =     1.73659883    0.67099982   -0.15450231
     atom  465 type  2   force =    -0.04107074   -0.02518871    0.00099524
     atom  466 type  2   force =    -0.04109380   -0.02522087    0.00104250
     atom  467 type  2   force =    -0.04108157   -0.02521635    0.00104437
     atom  468 type  2   force =    -0.04108606   -0.02521579    0.00104517
     atom  469 type  2   force =    -0.04109866   -0.02519079    0.00103153
     atom  470 type  2   force =    -0.04108748   -0.02521744    0.00104209
     atom  471 type  2   force =    -0.04106640   -0.02521724    0.00104856
     atom  472 type  2   force =    -0.04108218   -0.02521272    0.00104403
     atom  473 type  3   force =    -0.05410765    0.05071428    0.00605681
     atom  474 type  3   force =    -0.05410624    0.05071347    0.00605691
     atom  475 type  3   force =    -0.05410595    0.05071328    0.00605692
     atom  476 type  3   force =    -0.05410615    0.05071351    0.00605705
     atom  477 type  3   force =    -0.05410599    0.05071375    0.00605669
     atom  478 type  3   force =    -0.05410639    0.05071353    0.00605701
     atom  479 type  3   force =    -0.05410590    0.05071347    0.00605705
     atom  480 type  3   force =    -0.05410625    0.05071376    0.00605711
     atom  481 type  4   force =     0.00010162   -0.00000859   -0.00006611
     atom  482 type  4   force =    -0.00107165    0.00263952    0.00118203
     atom  483 type  4   force =     0.00001074    0.00000735   -0.00000900
     atom  484 type  4   force =    -0.00000044   -0.00002252    0.00002558
     atom  485 type  4   force =    -0.00000931   -0.00003829    0.00004630
     atom  486 type  4   force =     0.00001575    0.00001417   -0.00002566
     atom  487 type  4   force =    -0.00004374    0.00001822    0.00003382
     atom  488 type  4   force =     0.00005631   -0.00000245   -0.00002886
     atom  489 type  4   force =    -0.00071749   -0.00135995   -0.00171308
     atom  490 type  4   force =     0.00000589   -0.00001787   -0.00007787
     atom  491 type  4   force =     0.00001007   -0.00000052    0.00002169
     atom  492 type  4   force =     0.00002255   -0.00002948    0.00001782
     atom  493 type  4   force =     0.00000305    0.00002629   -0.00003234
     atom  494 type  4   force =    -0.00002741    0.00005039   -0.00004990
     atom  495 type  4   force =     0.00005506    0.00002426    0.00002282
     atom  496 type  4   force =     0.00010971   -0.00002221    0.00007635
     The ionic contribution  to forces
     atom    1 type  1   force =    -0.12047782   -1.15043067   -2.54584766
     atom    2 type  1   force =    -0.12288423   -1.15504728   -2.60064546
     atom    3 type  1   force =    -0.12041241   -1.15067150   -2.54588397
     atom    4 type  1   force =    -0.12017231   -1.15073526   -2.54584923
     atom    5 type  1   force =    -0.12029310   -1.15086091   -2.54601578
     atom    6 type  1   force =    -0.12059806   -1.15085662   -2.54562502
     atom    7 type  1   force =    -0.12029319   -1.15055259   -2.54607660
     atom    8 type  1   force =    -0.12059900   -1.15055327   -2.54601527
     atom    9 type  1   force =    14.26545593    1.64298377    2.00115666
     atom   10 type  1   force =    14.27337378    1.63992336    2.01267579
     atom   11 type  1   force =    14.27364399    1.63959516    2.01273818
     atom   12 type  1   force =    14.27340955    1.63968726    2.01264989
     atom   13 type  1   force =    14.27326365    1.63951096    2.01292256
     atom   14 type  1   force =    14.27351290    1.63954536    2.01253603
     atom   15 type  1   force =    14.27315059    1.63984826    2.01249852
     atom   16 type  1   force =    14.27353382    1.63983701    2.01248535
     atom   17 type  2   force =    -2.70957553   -1.10192433   -0.90223378
     atom   18 type  2   force =    -2.68743130   -1.12149352   -0.87809667
     atom   19 type  2   force =    -2.68720332   -1.12175055   -0.87807190
     atom   20 type  2   force =    -2.68739173   -1.12169046   -0.87813179
     atom   21 type  2   force =    -2.68753965   -1.12185472   -0.87791844
     atom   22 type  2   force =    -2.68732429   -1.12183272   -0.87822801
     atom   23 type  2   force =    -2.68757735   -1.12160006   -0.87824773
     atom   24 type  2   force =    -2.68731859   -1.12160542   -0.87826479
     atom   25 type  2   force =    -5.22246504   -0.33888228   -0.83584435
     atom   26 type  2   force =    -5.25578787   -0.26016059   -0.96576499
     atom   27 type  2   force =    -5.25554583   -0.26040263   -0.96576499
     atom   28 type  2   force =    -5.25573856   -0.26035332   -0.96579812
     atom   29 type  2   force =    -5.25590692   -0.26052168   -0.96558694
     atom   30 type  2   force =    -5.25566118   -0.26050826   -0.96590358
     atom   31 type  2   force =    -5.25589351   -0.26027594   -0.96590358
     atom   32 type  2   force =    -5.25566487   -0.26027963   -0.96594304
     atom   33 type  2   force =    -3.27874171   -5.22890634    2.50240243
     atom   34 type  2   force =    -3.27854101   -5.22884694    2.50203880
     atom   35 type  2   force =    -3.27880905   -5.22859818    2.50198666
     atom   36 type  2   force =    -3.27852674   -5.22861566    2.50203035
     atom   37 type  2   force =    -3.28673107   -5.23013279    2.49797039
     atom   38 type  2   force =    -3.27865111   -5.22856915    2.50214060
     atom   39 type  2   force =    -3.27847662   -5.22880636    2.50218660
     atom   40 type  2   force =    -3.27863307   -5.22875560    2.50212130
     atom   41 type  3   force =    -0.74077472   -2.14444999    1.26079689
     atom   42 type  3   force =    -0.74070772   -2.14444396    1.26068643
     atom   43 type  3   force =    -0.74076869   -2.14438299    1.26068643
     atom   44 type  3   force =    -0.74070767   -2.14438294    1.26069681
     atom   45 type  3   force =    -0.74194612   -2.14562149    1.26005780
     atom   46 type  3   force =    -0.74074941   -2.14437896    1.26072135
     atom   47 type  3   force =    -0.74070369   -2.14442468    1.26072135
     atom   48 type  3   force =    -0.74074396   -2.14441923    1.26071271
     atom   49 type  2   force =    -6.17637278   -1.54864318    0.63355217
     atom   50 type  2   force =    -6.17633322   -1.54859351    0.63331814
     atom   51 type  2   force =    -6.17687138   -1.54835005    0.63309775
     atom   52 type  2   force =    -6.17629836   -1.54837628    0.63330241
     atom   53 type  2   force =    -6.17725710   -1.54757617    0.63243771
     atom   54 type  2   force =    -6.17631919   -1.54829553    0.63339881
     atom   55 type  2   force =    -6.17622466   -1.54863066    0.63358602
     atom   56 type  2   force =    -6.17632857   -1.54851839    0.63335189
     atom   57 type  3   force =    -1.97452890    0.04597587    0.18335942
     atom   58 type  3   force =    -1.97453779    0.04598840    0.18331460
     atom   59 type  3   force =    -1.97477349    0.04604129    0.18320452
     atom   60 type  3   force =    -1.97452972    0.04604003    0.18331321
     atom   61 type  3   force =    -1.97464944    0.04612566    0.18321069
     atom   62 type  3   force =    -1.97452038    0.04605565    0.18332575
     atom   63 type  3   force =    -1.97452156    0.04596757    0.18339361
     atom   64 type  3   force =    -1.97452680    0.04599812    0.18331421
     atom   65 type  1   force =    -0.86397291    0.61847668    1.96283059
     atom   66 type  1   force =    -0.87370743    0.57419603    1.98660246
     atom   67 type  1   force =    -0.87340232    0.57387188    1.98658858
     atom   68 type  1   force =    -0.87363201    0.57392892    1.98653471
     atom   69 type  1   force =    -0.87383054    0.57372185    1.98678216
     atom   70 type  1   force =    -0.87355047    0.57370680    1.98640942
     atom   71 type  1   force =    -0.87383264    0.57401697    1.98639684
     atom   72 type  1   force =    -0.87355156    0.57401866    1.98635794
     atom   73 type  1   force =    14.18598857   -5.30460284    0.04611527
     atom   74 type  1   force =    14.19217495   -5.31447360    0.05328317
     atom   75 type  1   force =    14.19243928   -5.31482598    0.05333305
     atom   76 type  1   force =    14.19222017   -5.31474527    0.05321343
     atom   77 type  1   force =    14.19205423   -5.31495383    0.05346967
     atom   78 type  1   force =    14.19227014   -5.31493257    0.05310869
     atom   79 type  1   force =    14.19193971   -5.31463912    0.05304758
     atom   80 type  1   force =    14.19228756   -5.31464196    0.05306933
     atom   81 type  2   force =    -0.21288648    2.77562121   -3.53612133
     atom   82 type  2   force =    -0.21544520    2.77199914   -3.53148372
     atom   83 type  2   force =    -0.21518705    2.77172852   -3.53145042
     atom   84 type  2   force =    -0.21540155    2.77179981   -3.53157106
     atom   85 type  2   force =    -0.21554138    2.77165417   -3.53139146
     atom   86 type  2   force =    -0.21536543    2.77161532   -3.53167248
     atom   87 type  2   force =    -0.21563768    2.77184459   -3.53168031
     atom   88 type  2   force =    -0.21534644    2.77185860   -3.53168566
     atom   89 type  3   force =     0.26881051    1.65186647   -1.78762586
     atom   90 type  3   force =     0.26998435    1.65154349   -1.78837659
     atom   91 type  3   force =     0.26882581    1.65182474   -1.78765628
     atom   92 type  3   force =     0.26888633    1.65181404   -1.78763296
     atom   93 type  3   force =     0.26884130    1.65176352   -1.78769132
     atom   94 type  3   force =     0.26878517    1.65179327   -1.78760966
     atom   95 type  3   force =     0.26884388    1.65183367   -1.78768230
     atom   96 type  3   force =     0.26878131    1.65182821   -1.78767562
     atom   97 type  1   force =    -5.25697233    6.86297084   -1.77933352
     atom   98 type  1   force =    -5.25689691    6.86446035   -1.78115484
     atom   99 type  1   force =    -5.25694899    6.86270128   -1.77948192
     atom  100 type  1   force =    -5.25671749    6.86257300   -1.77918032
     atom  101 type  1   force =    -5.25697100    6.86249223   -1.77957041
     atom  102 type  1   force =    -5.25707341    6.86253883   -1.77928070
     atom  103 type  1   force =    -5.25691766    6.86278429   -1.77957641
     atom  104 type  1   force =    -5.25743711    6.86272714   -1.77966509
     atom  105 type  2   force =     5.12470251    4.86166655    1.84015342
     atom  106 type  2   force =     5.12462615    4.86166965    1.83966172
     atom  107 type  2   force =     5.12469139    4.86177512    1.83954296
     atom  108 type  2   force =     5.12463169    4.86177747    1.84012894
     atom  109 type  2   force =     5.12423224    4.86137595    1.83960271
     atom  110 type  2   force =     5.12454001    4.86160252    1.83974902
     atom  111 type  2   force =     5.12451486    4.86156308    1.83979653
     atom  112 type  2   force =     5.12434557    4.86132690    1.83962754
     atom  113 type  3   force =    -1.67845406   -1.91364539    0.71630428
     atom  114 type  3   force =    -1.67844527   -1.91361520    0.71620665
     atom  115 type  3   force =    -1.67852609   -1.91351579    0.71614157
     atom  116 type  3   force =    -1.67843764   -1.91355633    0.71622399
     atom  117 type  3   force =    -1.67878101   -1.91362887    0.71606792
     atom  118 type  3   force =    -1.67845858   -1.91357557    0.71621231
     atom  119 type  3   force =    -1.67844856   -1.91363137    0.71624574
     atom  120 type  3   force =    -1.67846636   -1.91362413    0.71621202
     atom  121 type  1   force =     0.12011039    1.15073943   -2.54567678
     atom  122 type  1   force =     0.12104614    1.14942415   -2.54728393
     atom  123 type  1   force =     0.12026887    1.15058758   -2.54592161
     atom  124 type  1   force =     0.12051370    1.15059926   -2.54590943
     atom  125 type  1   force =     0.12063198    1.14993230   -2.54618052
     atom  126 type  1   force =     0.12015795    1.15056541   -2.54565778
     atom  127 type  1   force =     0.12052484    1.15069899   -2.54599650
     atom  128 type  1   force =     0.12022648    1.15064658   -2.54597559
     atom  129 type  1   force =   -14.27372651   -1.63962129    2.01301647
     atom  130 type  1   force =   -14.27273158   -1.64019451    2.01180025
     atom  131 type  1   force =   -14.27352562   -1.63974301    2.01260014
     atom  132 type  1   force =   -14.27327027   -1.63972769    2.01267656
     atom  133 type  1   force =   -14.27340667   -1.64073291    2.01230496
     atom  134 type  1   force =   -14.27364053   -1.63978971    2.01280325
     atom  135 type  1   force =   -14.27335619   -1.63972080    2.01254967
     atom  136 type  1   force =   -14.27361512   -1.63977227    2.01256528
     atom  137 type  2   force =     2.68724262    1.12164019   -0.87807061
     atom  138 type  2   force =     2.68709558    1.12083410   -0.87851510
     atom  139 type  2   force =     2.68720716    1.12157515   -0.87820262
     atom  140 type  2   force =     2.68740538    1.12163318   -0.87818505
     atom  141 type  2   force =     2.68772224    1.12154435   -0.87847773
     atom  142 type  2   force =     2.68721618    1.12171515   -0.87774868
     atom  143 type  2   force =     2.68755523    1.12173025   -0.87803484
     atom  144 type  2   force =     2.68732238    1.12170353   -0.87820748
     atom  145 type  2   force =     5.25553952    0.26032477   -0.96567175
     atom  146 type  2   force =     5.25579595    0.25940961   -0.96629109
     atom  147 type  2   force =     5.25559022    0.26028980   -0.96585302
     atom  148 type  2   force =     5.25579689    0.26032244   -0.96585929
     atom  149 type  2   force =     5.25617046    0.25982302   -0.96627342
     atom  150 type  2   force =     5.25551870    0.26036011   -0.96554255
     atom  151 type  2   force =     5.25587044    0.26036335   -0.96580408
     atom  152 type  2   force =     5.25563485    0.26033691   -0.96585413
     atom  153 type  2   force =     3.27897364    5.22885682    2.50169737
     atom  154 type  2   force =     3.27853961    5.22886163    2.50246439
     atom  155 type  2   force =     3.27880463    5.22872668    2.50237134
     atom  156 type  2   force =     3.27859557    5.22873303    2.50206017
     atom  157 type  2   force =     3.27849159    5.22863458    2.50218929
     atom  158 type  2   force =     3.27842611    5.22828437    2.50192675
     atom  159 type  2   force =     3.27833542    5.22858169    2.50201106
     atom  160 type  2   force =     3.27860263    5.22869054    2.50206645
     atom  161 type  3   force =     0.74089927    2.14451705    1.26051221
     atom  162 type  3   force =     0.74071580    2.14445232    1.26077091
     atom  163 type  3   force =     0.74078538    2.14439463    1.26077135
     atom  164 type  3   force =     0.74072871    2.14440629    1.26070595
     atom  165 type  3   force =     0.74069948    2.14437884    1.26074088
     atom  166 type  3   force =     0.74071295    2.14432715    1.26067728
     atom  167 type  3   force =     0.74065664    2.14438703    1.26068481
     atom  168 type  3   force =     0.74073409    2.14440740    1.26069442
     atom  169 type  2   force =     6.17641512    1.54860867    0.63368489
     atom  170 type  2   force =     6.17641374    1.54860646    0.63316874
     atom  171 type  2   force =     6.17640068    1.54850500    0.63324983
     atom  172 type  2   force =     6.17643276    1.54849803    0.63380786
     atom  173 type  2   force =     6.17612006    1.54821234    0.63324154
     atom  174 type  2   force =     6.17628300    1.54840208    0.63338952
     atom  175 type  2   force =     6.17628923    1.54844100    0.63335629
     atom  176 type  2   force =     6.17594043    1.54815247    0.63318382
     atom  177 type  3   force =     1.97453145   -0.04597492    0.18340653
     atom  178 type  3   force =     1.97459038   -0.04596787    0.18324024
     atom  179 type  3   force =     1.97453664   -0.04600786    0.18330517
     atom  180 type  3   force =     1.97457828   -0.04601190    0.18340892
     atom  181 type  3   force =     1.97448584   -0.04609986    0.18328353
     atom  182 type  3   force =     1.97451082   -0.04603383    0.18333696
     atom  183 type  3   force =     1.97452876   -0.04601970    0.18331338
     atom  184 type  3   force =     1.97445038   -0.04606037    0.18328965
     atom  185 type  1   force =     0.87338613   -0.57403229    1.98675052
     atom  186 type  1   force =     0.87380208   -0.57467954    1.98623253
     atom  187 type  1   force =     0.87344812   -0.57395821    1.98644678
     atom  188 type  1   force =     0.87373022   -0.57391003    1.98642225
     atom  189 type  1   force =     0.87449118   -0.57509425    1.98515411
     atom  190 type  1   force =     0.87334933   -0.57383880    1.98677328
     atom  191 type  1   force =     0.87376463   -0.57398265    1.98652912
     atom  192 type  1   force =     0.87351390   -0.57399234    1.98649952
     atom  193 type  1   force =   -14.19247937    5.31468734    0.05355886
     atom  194 type  1   force =   -14.19184571    5.31420156    0.05282728
     atom  195 type  1   force =   -14.19235534    5.31473908    0.05314268
     atom  196 type  1   force =   -14.19204763    5.31478363    0.05319131
     atom  197 type  1   force =   -14.19216158    5.31312401    0.05225397
     atom  198 type  1   force =   -14.19244858    5.31474979    0.05336386
     atom  199 type  1   force =   -14.19212646    5.31467959    0.05317445
     atom  200 type  1   force =   -14.19237532    5.31464955    0.05317589
     atom  201 type  2   force =     0.21529887   -2.77179721   -3.53154827
     atom  202 type  2   force =     0.21450072   -2.77299720   -3.53210373
     atom  203 type  2   force =     0.21526642   -2.77191975   -3.53161981
     atom  204 type  2   force =     0.21542064   -2.77187828   -3.53157795
     atom  205 type  2   force =     0.21554591   -2.77190474   -3.53174351
     atom  206 type  2   force =     0.21525201   -2.77188887   -3.53110203
     atom  207 type  2   force =     0.21552776   -2.77170326   -3.53150035
     atom  208 type  2   force =     0.21531773   -2.77172122   -3.53168657
     atom  209 type  3   force =    -0.26885307   -1.65181096   -1.78764898
     atom  210 type  3   force =    -0.26934467   -1.65249257   -1.78788532
     atom  211 type  3   force =    -0.26885207   -1.65184442   -1.78766158
     atom  212 type  3   force =    -0.26881411   -1.65184306   -1.78765377
     atom  213 type  3   force =    -0.26880293   -1.65186047   -1.78769103
     atom  214 type  3   force =    -0.26887955   -1.65186473   -1.78755151
     atom  215 type  3   force =    -0.26880644   -1.65180399   -1.78766021
     atom  216 type  3   force =    -0.26886095   -1.65180530   -1.78768329
     atom  217 type  1   force =     5.25688687   -6.86271089   -1.77948189
     atom  218 type  1   force =     5.25598226   -6.86341455   -1.77989591
     atom  219 type  1   force =     5.25679362   -6.86292239   -1.77955053
     atom  220 type  1   force =     5.25693847   -6.86283350   -1.77942968
     atom  221 type  1   force =     5.25705915   -6.86276313   -1.77959970
     atom  222 type  1   force =     5.25695430   -6.86284000   -1.77884888
     atom  223 type  1   force =     5.25708724   -6.86252891   -1.77927604
     atom  224 type  1   force =     5.25691231   -6.86249413   -1.77971359
     atom  225 type  2   force =    -5.12463052   -4.86182955    1.84004624
     atom  226 type  2   force =    -5.12453774   -4.86173422    1.83971242
     atom  227 type  2   force =    -5.12490543   -4.86142715    1.83953922
     atom  228 type  2   force =    -5.12450799   -4.86150513    1.83971794
     atom  229 type  2   force =    -5.12682583   -4.86129410    1.83851895
     atom  230 type  2   force =    -5.12458908   -4.86149790    1.83976642
     atom  231 type  2   force =    -5.12448896   -4.86176583    1.83989018
     atom  232 type  2   force =    -5.12459850   -4.86169791    1.83975724
     atom  233 type  3   force =     1.67847024    1.91358561    0.71633417
     atom  234 type  3   force =     1.67847524    1.91359623    0.71619424
     atom  235 type  3   force =     1.67845969    1.91364883    0.71616458
     atom  236 type  3   force =     1.67848138    1.91364179    0.71627593
     atom  237 type  3   force =     1.67831374    1.91350058    0.71615073
     atom  238 type  3   force =     1.67844447    1.91359800    0.71621514
     atom  239 type  3   force =     1.67844868    1.91357657    0.71622782
     atom  240 type  3   force =     1.67841818    1.91354849    0.71619854
     atom  241 type  1   force =    -1.15089701    0.12091149    2.54617248
     atom  242 type  1   force =    -1.15033018    0.12288433    2.54639925
     atom  243 type  1   force =    -1.15062103    0.12031609    2.54607674
     atom  244 type  1   force =    -1.15050465    0.12029460    2.54604128
     atom  245 type  1   force =    -1.15062470    0.12001716    2.54603319
     atom  246 type  1   force =    -1.15079318    0.12008566    2.54615952
     atom  247 type  1   force =    -1.15066185    0.12041039    2.54576914
     atom  248 type  1   force =    -1.15076791    0.12040836    2.54589412
     atom  249 type  1   force =     1.63967041  -14.27301376   -2.01253848
     atom  250 type  1   force =     1.63850236  -14.27064879   -2.00970948
     atom  251 type  1   force =     1.63976379  -14.27349248   -2.01247323
     atom  252 type  1   force =     1.63985892  -14.27351860   -2.01250895
     atom  253 type  1   force =     1.63973118  -14.27368042   -2.01253550
     atom  254 type  1   force =     1.63951396  -14.27387952   -2.01231471
     atom  255 type  1   force =     1.63968992  -14.27344154   -2.01271801
     atom  256 type  1   force =     1.63961171  -14.27340569   -2.01266900
     atom  257 type  2   force =    -1.12272714    2.68810706    0.87915303
     atom  258 type  2   force =    -1.12155798    2.68774230    0.87809036
     atom  259 type  2   force =    -1.12162952    2.68731679    0.87826127
     atom  260 type  2   force =    -1.12161228    2.68732581    0.87824381
     atom  261 type  2   force =    -1.12176126    2.68685631    0.87844260
     atom  262 type  2   force =    -1.12170483    2.68723226    0.87825280
     atom  263 type  2   force =    -1.12170682    2.68742922    0.87804405
     atom  264 type  2   force =    -1.12171578    2.68738354    0.87814069
     atom  265 type  2   force =    -0.26076044    5.25658913    0.96625764
     atom  266 type  2   force =    -0.26032730    5.25656041    0.96598088
     atom  267 type  2   force =    -0.26028589    5.25566243    0.96594699
     atom  268 type  2   force =    -0.26026538    5.25566414    0.96592638
     atom  269 type  2   force =    -0.26038639    5.25538524    0.96598854
     atom  270 type  2   force =    -0.26040251    5.25548976    0.96595816
     atom  271 type  2   force =    -0.26039899    5.25574614    0.96572260
     atom  272 type  2   force =    -0.26040251    5.25573453    0.96578409
     atom  273 type  2   force =    -5.23003583    3.27904605   -2.49974670
     atom  274 type  2   force =    -5.22867051    3.27880937   -2.50213355
     atom  275 type  2   force =    -5.22863657    3.27856610   -2.50204650
     atom  276 type  2   force =    -5.22867747    3.27857681   -2.50200309
     atom  277 type  2   force =    -5.22899545    3.27804520   -2.50174350
     atom  278 type  2   force =    -5.22871536    3.27849066   -2.50204858
     atom  279 type  2   force =    -5.22876057    3.27863428   -2.50214347
     atom  280 type  2   force =    -5.22874794    3.27858885   -2.50214031
     atom  281 type  3   force =    -2.14450543    0.74099172   -1.25994659
     atom  282 type  3   force =    -2.14441182    0.74078932   -1.26070832
     atom  283 type  3   force =    -2.14437659    0.74072126   -1.26069870
     atom  284 type  3   force =    -2.14440175    0.74072707   -1.26067629
     atom  285 type  3   force =    -2.14447759    0.74063151   -1.26064662
     atom  286 type  3   force =    -2.14440504    0.74069806   -1.26069745
     atom  287 type  3   force =    -2.14442815    0.74073697   -1.26071067
     atom  288 type  3   force =    -2.14441915    0.74072410   -1.26073297
     atom  289 type  2   force =    -1.54941433    6.17591244   -0.63260117
     atom  290 type  2   force =    -1.54841095    6.17634022   -0.63340035
     atom  291 type  2   force =    -1.54849196    6.17630546   -0.63330407
     atom  292 type  2   force =    -1.54845532    6.17628987   -0.63333573
     atom  293 type  2   force =    -1.54874317    6.17524416   -0.63211023
     atom  294 type  2   force =    -1.54847018    6.17632676   -0.63331231
     atom  295 type  2   force =    -1.54838222    6.17638563   -0.63341633
     atom  296 type  2   force =    -1.54847502    6.17634336   -0.63329816
     atom  297 type  3   force =     0.04585494    1.97441243   -0.18319862
     atom  298 type  3   force =     0.04602345    1.97451963   -0.18332309
     atom  299 type  3   force =     0.04600084    1.97452976   -0.18331164
     atom  300 type  3   force =     0.04601274    1.97452127   -0.18332474
     atom  301 type  3   force =     0.04593224    1.97426202   -0.18275413
     atom  302 type  3   force =     0.04601566    1.97454650   -0.18331349
     atom  303 type  3   force =     0.04604717    1.97453753   -0.18332561
     atom  304 type  3   force =     0.04601599    1.97453431   -0.18329718
     atom  305 type  1   force =     0.57394701    0.87504038   -1.98641683
     atom  306 type  1   force =     0.57360215    0.87443228   -1.98599828
     atom  307 type  1   force =     0.57405641    0.87354207   -1.98635626
     atom  308 type  1   force =     0.57399806    0.87354923   -1.98637257
     atom  309 type  1   force =     0.57385276    0.87333241   -1.98630238
     atom  310 type  1   force =     0.57389619    0.87318658   -1.98634833
     atom  311 type  1   force =     0.57383229    0.87362561   -1.98656865
     atom  312 type  1   force =     0.57390954    0.87364603   -1.98660370
     atom  313 type  1   force =    -5.31461669  -14.19164546   -0.05327223
     atom  314 type  1   force =    -5.31566112  -14.19116316   -0.05189041
     atom  315 type  1   force =    -5.31464052  -14.19228575   -0.05305518
     atom  316 type  1   force =    -5.31465499  -14.19229478   -0.05307829
     atom  317 type  1   force =    -5.31476687  -14.19243291   -0.05305794
     atom  318 type  1   force =    -5.31486608  -14.19282511   -0.05291380
     atom  319 type  1   force =    -5.31479903  -14.19223394   -0.05324361
     atom  320 type  1   force =    -5.31476810  -14.19218530   -0.05328628
     atom  321 type  2   force =     2.77094632    0.21565806    3.53207377
     atom  322 type  2   force =     2.77197451    0.21559551    3.53143547
     atom  323 type  2   force =     2.77179483    0.21531907    3.53171180
     atom  324 type  2   force =     2.77186699    0.21532512    3.53163746
     atom  325 type  2   force =     2.77188016    0.21477197    3.53196338
     atom  326 type  2   force =     2.77176783    0.21529903    3.53169222
     atom  327 type  2   force =     2.77186042    0.21551900    3.53137157
     atom  328 type  2   force =     2.77177045    0.21542362    3.53161611
     atom  329 type  3   force =     1.65168435   -0.26876448    1.78771529
     atom  330 type  3   force =     1.65188162   -0.26876358    1.78760766
     atom  331 type  3   force =     1.65181523   -0.26885317    1.78769923
     atom  332 type  3   force =     1.65184283   -0.26885228    1.78767018
     atom  333 type  3   force =     1.65186032   -0.26894254    1.78772062
     atom  334 type  3   force =     1.65180943   -0.26885670    1.78769083
     atom  335 type  3   force =     1.65184346   -0.26878403    1.78756670
     atom  336 type  3   force =     1.65181066   -0.26881806    1.78766882
     atom  337 type  1   force =     6.86169317    5.25686407    1.78004782
     atom  338 type  1   force =     6.86284304    5.25699899    1.77934457
     atom  339 type  1   force =     6.86265644    5.25687837    1.77960629
     atom  340 type  1   force =     6.86276125    5.25687223    1.77950435
     atom  341 type  1   force =     6.86295011    5.25583319    1.78044251
     atom  342 type  1   force =     6.86268905    5.25691638    1.77958734
     atom  343 type  1   force =     6.86293286    5.25711786    1.77927866
     atom  344 type  1   force =     6.86269305    5.25699799    1.77955755
     atom  345 type  2   force =     4.86239285   -5.12525225   -1.83917754
     atom  346 type  2   force =     4.86157375   -5.12454396   -1.83963907
     atom  347 type  2   force =     4.86224682   -5.12444161   -1.83978971
     atom  348 type  2   force =     4.86157842   -5.12450866   -1.83966976
     atom  349 type  2   force =     4.86121276   -5.12462102   -1.83955685
     atom  350 type  2   force =     4.86168038   -5.12462535   -1.83989050
     atom  351 type  2   force =     4.86145566   -5.12463826   -1.83963944
     atom  352 type  2   force =     4.86164865   -5.12464066   -1.83978050
     atom  353 type  3   force =    -1.91374448    1.67817366   -0.71578110
     atom  354 type  3   force =    -1.91359624    1.67846375   -0.71621023
     atom  355 type  3   force =    -1.91357695    1.67846243   -0.71622168
     atom  356 type  3   force =    -1.91359797    1.67845679   -0.71619924
     atom  357 type  3   force =    -1.91378897    1.67831695   -0.71604247
     atom  358 type  3   force =    -1.91358861    1.67844996   -0.71622072
     atom  359 type  3   force =    -1.91360566    1.67845454   -0.71620966
     atom  360 type  3   force =    -1.91359802    1.67844815   -0.71621437
     atom  361 type  1   force =     1.15038763   -0.12020209    2.54604314
     atom  362 type  1   force =     1.15100511   -0.12005418    2.54486659
     atom  363 type  1   force =     1.15050671   -0.12047976    2.54610974
     atom  364 type  1   force =     1.15075922   -0.12053424    2.54601068
     atom  365 type  1   force =     1.15080501   -0.12063591    2.54598989
     atom  366 type  1   force =     1.15049688   -0.12048608    2.54618203
     atom  367 type  1   force =     1.15099124   -0.12000731    2.54555517
     atom  368 type  1   force =     1.15043238   -0.12022652    2.54597380
     atom  369 type  1   force =    -1.63992769   14.27329917   -2.01243373
     atom  370 type  1   force =    -1.63966033   14.27330807   -2.01256380
     atom  371 type  1   force =    -1.64002264   14.27355595   -2.01249289
     atom  372 type  1   force =    -1.63966042   14.27341996   -2.01320662
     atom  373 type  1   force =    -1.63885687   14.27412522   -2.01274076
     atom  374 type  1   force =    -1.63987988   14.27360529   -2.01256222
     atom  375 type  1   force =    -1.63943762   14.27315326   -2.01253431
     atom  376 type  1   force =    -1.63983068   14.27339686   -2.01237289
     atom  377 type  2   force =     1.12158757   -2.68740588    0.87832950
     atom  378 type  2   force =     1.12193425   -2.68766396    0.87827596
     atom  379 type  2   force =     1.12156454   -2.68726044    0.87821120
     atom  380 type  2   force =     1.12238688   -2.68685348    0.87791294
     atom  381 type  2   force =     1.12176301   -2.68734951    0.87778945
     atom  382 type  2   force =     1.12137557   -2.68727536    0.87827134
     atom  383 type  2   force =     1.12171810   -2.68747022    0.87818825
     atom  384 type  2   force =     1.12151407   -2.68747906    0.87831440
     atom  385 type  2   force =     0.26022628   -5.25580081    0.96600491
     atom  386 type  2   force =     0.26046867   -5.25592860    0.96590838
     atom  387 type  2   force =     0.26018446   -5.25560133    0.96587998
     atom  388 type  2   force =     0.26062977   -5.25538736    0.96534050
     atom  389 type  2   force =     0.26062961   -5.25542062    0.96530162
     atom  390 type  2   force =     0.26010279   -5.25556484    0.96591175
     atom  391 type  2   force =     0.26042621   -5.25584384    0.96588175
     atom  392 type  2   force =     0.26022635   -5.25580367    0.96600030
     atom  393 type  2   force =     5.22863835   -3.27862263   -2.50196528
     atom  394 type  2   force =     5.22907149   -3.27915299   -2.50180148
     atom  395 type  2   force =     5.22863872   -3.27852437   -2.50204643
     atom  396 type  2   force =     5.22915178   -3.27831260   -2.50234407
     atom  397 type  2   force =     5.22882366   -3.27857497   -2.50235607
     atom  398 type  2   force =     5.22825341   -3.27852216   -2.50190127
     atom  399 type  2   force =     5.22874810   -3.27867180   -2.50208774
     atom  400 type  2   force =     5.22858363   -3.27867898   -2.50197010
     atom  401 type  3   force =     2.14438894   -0.74074572   -1.26067920
     atom  402 type  3   force =     2.14444966   -0.74088225   -1.26062566
     atom  403 type  3   force =     2.14438994   -0.74071662   -1.26069996
     atom  404 type  3   force =     2.14444183   -0.74068325   -1.26077427
     atom  405 type  3   force =     2.14444855   -0.74069210   -1.26076711
     atom  406 type  3   force =     2.14424597   -0.74068487   -1.26062935
     atom  407 type  3   force =     2.14441772   -0.74074603   -1.26070062
     atom  408 type  3   force =     2.14438965   -0.74074711   -1.26067768
     atom  409 type  2   force =     1.54925067   -6.17655336   -0.63315585
     atom  410 type  2   force =     1.54841760   -6.17628186   -0.63323345
     atom  411 type  2   force =     1.54950678   -6.17648450   -0.63291314
     atom  412 type  2   force =     1.54841519   -6.17626518   -0.63326438
     atom  413 type  2   force =     1.54820422   -6.17637686   -0.63322339
     atom  414 type  2   force =     1.54848392   -6.17640885   -0.63345672
     atom  415 type  2   force =     1.54818592   -6.17642154   -0.63321300
     atom  416 type  2   force =     1.54849218   -6.17640135   -0.63340880
     atom  417 type  3   force =    -0.04578372   -1.97452361   -0.18329198
     atom  418 type  3   force =    -0.04602770   -1.97451458   -0.18329575
     atom  419 type  3   force =    -0.04582088   -1.97463270   -0.18321605
     atom  420 type  3   force =    -0.04602753   -1.97452291   -0.18329182
     atom  421 type  3   force =    -0.04606934   -1.97455174   -0.18328617
     atom  422 type  3   force =    -0.04601007   -1.97455225   -0.18333131
     atom  423 type  3   force =    -0.04609970   -1.97454441   -0.18328313
     atom  424 type  3   force =    -0.04600652   -1.97454651   -0.18334730
     atom  425 type  1   force =    -0.57413698   -0.87377562   -1.98625150
     atom  426 type  1   force =    -0.57384998   -0.87389414   -1.98642701
     atom  427 type  1   force =    -0.57414817   -0.87350829   -1.98646362
     atom  428 type  1   force =    -0.57385570   -0.87345697   -1.98684120
     atom  429 type  1   force =    -0.57281136   -0.87229354   -1.98749823
     atom  430 type  1   force =    -0.57421378   -0.87334834   -1.98636175
     atom  431 type  1   force =    -0.57380671   -0.87373410   -1.98641069
     atom  432 type  1   force =    -0.57403635   -0.87367507   -1.98631314
     atom  433 type  1   force =     5.31448085   14.19203388   -0.05295567
     atom  434 type  1   force =     5.31477464   14.19204890   -0.05314238
     atom  435 type  1   force =     5.31447623   14.19232075   -0.05312850
     atom  436 type  1   force =     5.31473492   14.19226442   -0.05353429
     atom  437 type  1   force =     5.31666578   14.19400732   -0.05294483
     atom  438 type  1   force =     5.31455409   14.19245615   -0.05310680
     atom  439 type  1   force =     5.31494942   14.19206957   -0.05309873
     atom  440 type  1   force =     5.31464692   14.19219697   -0.05298497
     atom  441 type  2   force =    -2.77186312   -0.21539102    3.53176474
     atom  442 type  2   force =    -2.77152192   -0.21554740    3.53164367
     atom  443 type  2   force =    -2.77190086   -0.21525007    3.53163901
     atom  444 type  2   force =    -2.77040261   -0.21466114    3.53237256
     atom  445 type  2   force =    -2.77182948   -0.21544976    3.53133658
     atom  446 type  2   force =    -2.77201992   -0.21534824    3.53166753
     atom  447 type  2   force =    -2.77178044   -0.21549416    3.53160998
     atom  448 type  2   force =    -2.77204540   -0.21555312    3.53175111
     atom  449 type  3   force =    -1.65185302    0.26888256    1.78766863
     atom  450 type  3   force =    -1.65154873    0.26911312    1.78794445
     atom  451 type  3   force =    -1.65183357    0.26882789    1.78770660
     atom  452 type  3   force =    -1.65177900    0.26880850    1.78766864
     atom  453 type  3   force =    -1.65181889    0.26879795    1.78767195
     atom  454 type  3   force =    -1.65188198    0.26877948    1.78770055
     atom  455 type  3   force =    -1.65184233    0.26881919    1.78759460
     atom  456 type  3   force =    -1.65186350    0.26884260    1.78767193
     atom  457 type  1   force =    -6.86279257   -5.25683059    1.77956095
     atom  458 type  1   force =    -6.86093198   -5.25706742    1.78119093
     atom  459 type  1   force =    -6.86277170   -5.25691294    1.77966759
     atom  460 type  1   force =    -6.86220376   -5.25707128    1.77951671
     atom  461 type  1   force =    -6.86269121   -5.25705130    1.77946141
     atom  462 type  1   force =    -6.86313557   -5.25716841    1.77970393
     atom  463 type  1   force =    -6.86274229   -5.25704826    1.77931748
     atom  464 type  1   force =    -6.86296669   -5.25695880    1.77959473
     atom  465 type  2   force =    -4.86281130    5.12391914   -1.83800489
     atom  466 type  2   force =    -4.86159148    5.12464199   -1.83977246
     atom  467 type  2   force =    -4.86158317    5.12456369   -1.83972814
     atom  468 type  2   force =    -4.86161364    5.12455660   -1.83968957
     atom  469 type  2   force =    -4.86215694    5.12381311   -1.83904146
     atom  470 type  2   force =    -4.86161767    5.12452786   -1.83973125
     atom  471 type  2   force =    -4.86163922    5.12459879   -1.83977564
     atom  472 type  2   force =    -4.86164233    5.12456161   -1.83974496
     atom  473 type  3   force =     1.91381153   -1.67871006   -0.71588682
     atom  474 type  3   force =     1.91358668   -1.67844382   -0.71619525
     atom  475 type  3   force =     1.91369033   -1.67843853   -0.71623079
     atom  476 type  3   force =     1.91358909   -1.67844399   -0.71619160
     atom  477 type  3   force =     1.91347215   -1.67849390   -0.71614981
     atom  478 type  3   force =     1.91360941   -1.67846822   -0.71623608
     atom  479 type  3   force =     1.91356282   -1.67846453   -0.71619433
     atom  480 type  3   force =     1.91359882   -1.67847049   -0.71622589
     atom  481 type  4   force =    -0.00092531    0.00095169    0.00070747
     atom  482 type  4   force =     0.00710608    0.00385990   -0.01351495
     atom  483 type  4   force =    -0.00025541   -0.00024524    0.00038208
     atom  484 type  4   force =     0.00061325   -0.00038056    0.00030051
     atom  485 type  4   force =     0.00048950   -0.00148215   -0.00008185
     atom  486 type  4   force =    -0.00074865   -0.00069311    0.00108202
     atom  487 type  4   force =     0.00046601    0.00046274   -0.00070845
     atom  488 type  4   force =    -0.00071564    0.00027016   -0.00012497
     atom  489 type  4   force =     0.00754964    0.00947207   -0.00961384
     atom  490 type  4   force =    -0.00098149    0.00126577    0.00097285
     atom  491 type  4   force =     0.00061428   -0.00029643    0.00037293
     atom  492 type  4   force =    -0.00015380   -0.00018613    0.00034108
     atom  493 type  4   force =    -0.00073957   -0.00078087    0.00099677
     atom  494 type  4   force =     0.00026069   -0.00166110   -0.00003900
     atom  495 type  4   force =    -0.00071435    0.00016811   -0.00019928
     atom  496 type  4   force =     0.00023336    0.00030038   -0.00060518
     The local contribution  to forces
     atom    1 type  1   force =    -0.30092453    2.09109846    3.09811535
     atom    2 type  1   force =    -0.29786962    2.09969180    3.14216798
     atom    3 type  1   force =    -0.30098355    2.09132091    3.09813890
     atom    4 type  1   force =    -0.30122111    2.09138527    3.09809706
     atom    5 type  1   force =    -0.30109477    2.09151465    3.09826653
     atom    6 type  1   force =    -0.30079570    2.09150573    3.09788105
     atom    7 type  1   force =    -0.30109556    2.09118806    3.09831939
     atom    8 type  1   force =    -0.30081838    2.09121179    3.09827404
     atom    9 type  1   force =   -12.37838816   -0.72586933   -1.17202419
     atom   10 type  1   force =   -12.38527548   -0.72468000   -1.18123248
     atom   11 type  1   force =   -12.38554366   -0.72436028   -1.18129964
     atom   12 type  1   force =   -12.38530885   -0.72444725   -1.18120670
     atom   13 type  1   force =   -12.38516411   -0.72427336   -1.18148160
     atom   14 type  1   force =   -12.38540941   -0.72430586   -1.18109392
     atom   15 type  1   force =   -12.38510012   -0.72463319   -1.18107735
     atom   16 type  1   force =   -12.38543130   -0.72460230   -1.18104490
     atom   17 type  2   force =     2.50691680    1.14527338    0.89219660
     atom   18 type  2   force =     2.48467475    1.16457373    0.87002597
     atom   19 type  2   force =     2.48444602    1.16482920    0.86999446
     atom   20 type  2   force =     2.48463030    1.16476905    0.87005688
     atom   21 type  2   force =     2.48478119    1.16492760    0.86984575
     atom   22 type  2   force =     2.48457395    1.16491137    0.87015320
     atom   23 type  2   force =     2.48480199    1.16467985    0.87017150
     atom   24 type  2   force =     2.48456152    1.16467873    0.87018562
     atom   25 type  2   force =     5.04038356    0.34880258    0.82551290
     atom   26 type  2   force =     5.07238140    0.26986606    0.95414279
     atom   27 type  2   force =     5.07214268    0.27010054    0.95413672
     atom   28 type  2   force =     5.07232798    0.27005594    0.95417279
     atom   29 type  2   force =     5.07250411    0.27022022    0.95396054
     atom   30 type  2   force =     5.07226868    0.27020859    0.95427798
     atom   31 type  2   force =     5.07246654    0.26997616    0.95427405
     atom   32 type  2   force =     5.07226144    0.26997393    0.95431246
     atom   33 type  2   force =     3.24265624    5.17684015   -2.48105181
     atom   34 type  2   force =     3.24245923    5.17678973   -2.48069061
     atom   35 type  2   force =     3.24270976    5.17654026   -2.48064180
     atom   36 type  2   force =     3.24244054    5.17655615   -2.48068805
     atom   37 type  2   force =     3.25078889    5.17859813   -2.47608675
     atom   38 type  2   force =     3.24256351    5.17651966   -2.48079070
     atom   39 type  2   force =     3.24238801    5.17675357   -2.48084237
     atom   40 type  2   force =     3.24253947    5.17670188   -2.48077475
     atom   41 type  3   force =     0.76528664    2.07354046   -1.25231063
     atom   42 type  3   force =     0.76522052    2.07353403   -1.25220116
     atom   43 type  3   force =     0.76528001    2.07347324   -1.25220104
     atom   44 type  3   force =     0.76521977    2.07347397   -1.25221244
     atom   45 type  3   force =     0.76647473    2.07474010   -1.25147490
     atom   46 type  3   force =     0.76526192    2.07346995   -1.25223552
     atom   47 type  3   force =     0.76521587    2.07351540   -1.25223679
     atom   48 type  3   force =     0.76525567    2.07351012   -1.25222725
     atom   49 type  2   force =     5.97999394    1.44613807   -0.61210884
     atom   50 type  2   force =     5.97995733    1.44609505   -0.61187569
     atom   51 type  2   force =     5.98047578    1.44585466   -0.61165746
     atom   52 type  2   force =     5.97991848    1.44587299   -0.61186049
     atom   53 type  2   force =     5.98063617    1.44491571   -0.61066643
     atom   54 type  2   force =     5.97994066    1.44579739   -0.61195418
     atom   55 type  2   force =     5.97984567    1.44613110   -0.61214279
     atom   56 type  2   force =     5.97994225    1.44601900   -0.61190865
     atom   57 type  3   force =     1.90009413   -0.02509809   -0.18238728
     atom   58 type  3   force =     1.90010322   -0.02511085   -0.18234239
     atom   59 type  3   force =     1.90033885   -0.02516001   -0.18223506
     atom   60 type  3   force =     1.90009475   -0.02516233   -0.18234094
     atom   61 type  3   force =     1.90021369   -0.02523384   -0.18218045
     atom   62 type  3   force =     1.90008547   -0.02517783   -0.18235339
     atom   63 type  3   force =     1.90008669   -0.02508995   -0.18242106
     atom   64 type  3   force =     1.90009205   -0.02511976   -0.18234196
     atom   65 type  1   force =     0.40975789   -1.50872389   -2.57758800
     atom   66 type  1   force =     0.41642297   -1.47154553   -2.59196934
     atom   67 type  1   force =     0.41611346   -1.47124532   -2.59197796
     atom   68 type  1   force =     0.41634149   -1.47129112   -2.59191555
     atom   69 type  1   force =     0.41654015   -1.47109593   -2.59216319
     atom   70 type  1   force =     0.41626384   -1.47108101   -2.59179256
     atom   71 type  1   force =     0.41652015   -1.47139897   -2.59179309
     atom   72 type  1   force =     0.41625684   -1.47140290   -2.59175598
     atom   73 type  1   force =   -12.38521933    4.12386639   -0.55030662
     atom   74 type  1   force =   -12.39089372    4.13238471   -0.55458719
     atom   75 type  1   force =   -12.39115305    4.13272730   -0.55464265
     atom   76 type  1   force =   -12.39094167    4.13265880   -0.55451711
     atom   77 type  1   force =   -12.39077143    4.13285977   -0.55477547
     atom   78 type  1   force =   -12.39097512    4.13283488   -0.55441616
     atom   79 type  1   force =   -12.39068664    4.13255606   -0.55434898
     atom   80 type  1   force =   -12.39100834    4.13254508   -0.55437683
     atom   81 type  2   force =     0.33665370   -2.77238227    3.52557923
     atom   82 type  2   force =     0.33935705   -2.77046952    3.52062153
     atom   83 type  2   force =     0.33909927   -2.77019694    3.52058261
     atom   84 type  2   force =     0.33930570   -2.77027385    3.52070616
     atom   85 type  2   force =     0.33944881   -2.77013487    3.52052801
     atom   86 type  2   force =     0.33928259   -2.77008360    3.52080538
     atom   87 type  2   force =     0.33953111   -2.77031901    3.52081547
     atom   88 type  2   force =     0.33925486   -2.77033831    3.52081830
     atom   89 type  3   force =    -0.22489174   -1.59178050    1.77774823
     atom   90 type  3   force =    -0.22602833   -1.59148741    1.77853132
     atom   91 type  3   force =    -0.22490717   -1.59173869    1.77777782
     atom   92 type  3   force =    -0.22496770   -1.59172776    1.77775404
     atom   93 type  3   force =    -0.22492261   -1.59167733    1.77781318
     atom   94 type  3   force =    -0.22486633   -1.59170733    1.77773153
     atom   95 type  3   force =    -0.22492494   -1.59174788    1.77780337
     atom   96 type  3   force =    -0.22486305   -1.59174175    1.77779656
     atom   97 type  1   force =     4.59014451   -5.13742584    1.62583488
     atom   98 type  1   force =     4.59007218   -5.13861899    1.62753264
     atom   99 type  1   force =     4.59011206   -5.13715503    1.62597821
     atom  100 type  1   force =     4.58988717   -5.13702720    1.62567562
     atom  101 type  1   force =     4.59014509   -5.13695430    1.62606649
     atom  102 type  1   force =     4.59024359   -5.13700551    1.62578008
     atom  103 type  1   force =     4.59008767   -5.13724964    1.62607100
     atom  104 type  1   force =     4.59058756   -5.13717016    1.62616074
     atom  105 type  2   force =    -5.09724914   -4.89900268   -1.83903355
     atom  106 type  2   force =    -5.09717960   -4.89896774   -1.83854003
     atom  107 type  2   force =    -5.09725975   -4.89911712   -1.83842771
     atom  108 type  2   force =    -5.09717980   -4.89911051   -1.83901094
     atom  109 type  2   force =    -5.09680983   -4.89875334   -1.83848907
     atom  110 type  2   force =    -5.09709435   -4.89893966   -1.83863003
     atom  111 type  2   force =    -5.09707331   -4.89890485   -1.83868031
     atom  112 type  2   force =    -5.09690884   -4.89868018   -1.83851026
     atom  113 type  3   force =     1.62767418    1.85951833   -0.71027652
     atom  114 type  3   force =     1.62766482    1.85948906   -0.71017886
     atom  115 type  3   force =     1.62774697    1.85938851   -0.71011501
     atom  116 type  3   force =     1.62765749    1.85942948   -0.71019669
     atom  117 type  3   force =     1.62797596    1.85951629   -0.71005779
     atom  118 type  3   force =     1.62767834    1.85944873   -0.71018441
     atom  119 type  3   force =     1.62766826    1.85950454   -0.71021829
     atom  120 type  3   force =     1.62768613    1.85949713   -0.71018443
     atom  121 type  1   force =     0.30127613   -2.09139655    3.09794198
     atom  122 type  1   force =     0.30043122   -2.09028536    3.09961913
     atom  123 type  1   force =     0.30111466   -2.09124380    3.09817793
     atom  124 type  1   force =     0.30087267   -2.09123682    3.09815355
     atom  125 type  1   force =     0.30076784   -2.09055341    3.09840281
     atom  126 type  1   force =     0.30123719   -2.09122125    3.09791755
     atom  127 type  1   force =     0.30087098   -2.09134807    3.09824297
     atom  128 type  1   force =     0.30114989   -2.09129746    3.09822815
     atom  129 type  1   force =    12.38560706    0.72437017   -1.18156011
     atom  130 type  1   force =    12.38477006    0.72499391   -1.18037534
     atom  131 type  1   force =    12.38541433    0.72449863   -1.18115345
     atom  132 type  1   force =    12.38517292    0.72449684   -1.18123831
     atom  133 type  1   force =    12.38533861    0.72549794   -1.18086096
     atom  134 type  1   force =    12.38553334    0.72454873   -1.18135915
     atom  135 type  1   force =    12.38526161    0.72448661   -1.18111338
     atom  136 type  1   force =    12.38548986    0.72452942   -1.18111631
     atom  137 type  2   force =    -2.48449421   -1.16471730    0.86999704
     atom  138 type  2   force =    -2.48432809   -1.16394068    0.87044124
     atom  139 type  2   force =    -2.48446093   -1.16466111    0.87012785
     atom  140 type  2   force =    -2.48465248   -1.16470797    0.87010953
     atom  141 type  2   force =    -2.48497493   -1.16461284    0.87039976
     atom  142 type  2   force =    -2.48445937   -1.16479000    0.86967672
     atom  143 type  2   force =    -2.48479403   -1.16480873    0.86995851
     atom  144 type  2   force =    -2.48458558   -1.16476334    0.87013560
     atom  145 type  2   force =    -5.07214907   -0.27002924    0.95404890
     atom  146 type  2   force =    -5.07238962   -0.26914081    0.95468704
     atom  147 type  2   force =    -5.07220114   -0.26999249    0.95423011
     atom  148 type  2   force =    -5.07240141   -0.27001613    0.95423045
     atom  149 type  2   force =    -5.07279622   -0.26949550    0.95460757
     atom  150 type  2   force =    -5.07211639   -0.27006063    0.95391811
     atom  151 type  2   force =    -5.07246060   -0.27006171    0.95417637
     atom  152 type  2   force =    -5.07226966   -0.27003299    0.95422744
     atom  153 type  2   force =    -3.24290008   -5.17678262   -2.48035813
     atom  154 type  2   force =    -3.24244949   -5.17680354   -2.48111529
     atom  155 type  2   force =    -3.24271022   -5.17667486   -2.48102648
     atom  156 type  2   force =    -3.24252393   -5.17666001   -2.48070826
     atom  157 type  2   force =    -3.24240871   -5.17658139   -2.48084118
     atom  158 type  2   force =    -3.24234558   -5.17625384   -2.48058004
     atom  159 type  2   force =    -3.24225466   -5.17653898   -2.48066374
     atom  160 type  2   force =    -3.24251780   -5.17663212   -2.48071913
     atom  161 type  3   force =    -0.76541807   -2.07361338   -1.25203279
     atom  162 type  3   force =    -0.76522811   -2.07354282   -1.25228528
     atom  163 type  3   force =    -0.76529735   -2.07348546   -1.25228647
     atom  164 type  3   force =    -0.76524036   -2.07349607   -1.25222078
     atom  165 type  3   force =    -0.76521193   -2.07346992   -1.25225546
     atom  166 type  3   force =    -0.76522439   -2.07341812   -1.25219165
     atom  167 type  3   force =    -0.76517005   -2.07347828   -1.25219939
     atom  168 type  3   force =    -0.76524646   -2.07349804   -1.25220926
     atom  169 type  2   force =    -5.98002488   -1.44610906   -0.61223973
     atom  170 type  2   force =    -5.98010385   -1.44606073   -0.61172814
     atom  171 type  2   force =    -5.98003069   -1.44599774   -0.61180750
     atom  172 type  2   force =    -5.98004518   -1.44599580   -0.61236464
     atom  173 type  2   force =    -5.97972969   -1.44572863   -0.61179976
     atom  174 type  2   force =    -5.97990477   -1.44590024   -0.61194537
     atom  175 type  2   force =    -5.97991208   -1.44594110   -0.61191448
     atom  176 type  2   force =    -5.97959390   -1.44566072   -0.61174009
     atom  177 type  3   force =    -1.90009632    0.02509738   -0.18243343
     atom  178 type  3   force =    -1.90015765    0.02510742   -0.18226773
     atom  179 type  3   force =    -1.90010242    0.02513024   -0.18233331
     atom  180 type  3   force =    -1.90014317    0.02513445   -0.18243705
     atom  181 type  3   force =    -1.90005066    0.02522121   -0.18231154
     atom  182 type  3   force =    -1.90007607    0.02515592   -0.18236427
     atom  183 type  3   force =    -1.90009381    0.02514165   -0.18234162
     atom  184 type  3   force =    -1.90001644    0.02518359   -0.18231725
     atom  185 type  1   force =    -0.41610664    1.47138735   -2.59212161
     atom  186 type  1   force =    -0.41650110    1.47201263   -2.59159580
     atom  187 type  1   force =    -0.41616973    1.47131959   -2.59182700
     atom  188 type  1   force =    -0.41644035    1.47129361   -2.59181884
     atom  189 type  1   force =    -0.41706672    1.47276439   -2.59069673
     atom  190 type  1   force =    -0.41606465    1.47120337   -2.59214519
     atom  191 type  1   force =    -0.41647277    1.47135415   -2.59191834
     atom  192 type  1   force =    -0.41623928    1.47137721   -2.59188951
     atom  193 type  1   force =    12.39119262   -4.13260300   -0.55486072
     atom  194 type  1   force =    12.39059992   -4.13212819   -0.55413282
     atom  195 type  1   force =    12.39105518   -4.13264535   -0.55444931
     atom  196 type  1   force =    12.39075334   -4.13268019   -0.55450423
     atom  197 type  1   force =    12.39104276   -4.13111528   -0.55356420
     atom  198 type  1   force =    12.39116385   -4.13265550   -0.55466898
     atom  199 type  1   force =    12.39084134   -4.13258158   -0.55448273
     atom  200 type  1   force =    12.39107071   -4.13254322   -0.55448985
     atom  201 type  2   force =    -0.33921231    2.77027253    3.52068292
     atom  202 type  2   force =    -0.33849449    2.77136074    3.52122638
     atom  203 type  2   force =    -0.33917863    2.77038647    3.52075290
     atom  204 type  2   force =    -0.33933122    2.77035502    3.52071165
     atom  205 type  2   force =    -0.33945686    2.77039167    3.52087657
     atom  206 type  2   force =    -0.33916010    2.77036446    3.52023867
     atom  207 type  2   force =    -0.33943476    2.77017587    3.52063438
     atom  208 type  2   force =    -0.33926980    2.77019771    3.52082156
     atom  209 type  3   force =     0.22493399    1.59172519    1.77777086
     atom  210 type  3   force =     0.22541712    1.59239261    1.77800838
     atom  211 type  3   force =     0.22493341    1.59175828    1.77778330
     atom  212 type  3   force =     0.22489523    1.59175722    1.77777506
     atom  213 type  3   force =     0.22488413    1.59177451    1.77781263
     atom  214 type  3   force =     0.22496058    1.59177861    1.77767357
     atom  215 type  3   force =     0.22488761    1.59171800    1.77778161
     atom  216 type  3   force =     0.22494247    1.59172037    1.77780556
     atom  217 type  1   force =    -4.59005967    5.13716995    1.62597918
     atom  218 type  1   force =    -4.58919357    5.13787472    1.62639515
     atom  219 type  1   force =    -4.58995866    5.13736592    1.62604606
     atom  220 type  1   force =    -4.59010886    5.13729504    1.62592741
     atom  221 type  1   force =    -4.59023247    5.13723663    1.62609751
     atom  222 type  1   force =    -4.59012129    5.13730235    1.62534794
     atom  223 type  1   force =    -4.59025184    5.13698711    1.62577324
     atom  224 type  1   force =    -4.59015101    5.13707807    1.62621601
     atom  225 type  2   force =     5.09718507    4.89916431   -1.83892678
     atom  226 type  2   force =     5.09709842    4.89908072   -1.83859518
     atom  227 type  2   force =     5.09745234    4.89877034   -1.83842575
     atom  228 type  2   force =     5.09706418    4.89884250   -1.83860378
     atom  229 type  2   force =     5.09965862    4.89825781   -1.83739926
     atom  230 type  2   force =     5.09714366    4.89883937   -1.83864589
     atom  231 type  2   force =     5.09704085    4.89910431   -1.83877380
     atom  232 type  2   force =     5.09714400    4.89903239   -1.83863918
     atom  233 type  3   force =    -1.62768979   -1.85945930   -0.71030589
     atom  234 type  3   force =    -1.62769500   -1.85947023   -0.71016650
     atom  235 type  3   force =    -1.62767961   -1.85952250   -0.71013738
     atom  236 type  3   force =    -1.62770118   -1.85951502   -0.71024880
     atom  237 type  3   force =    -1.62753351   -1.85937677   -0.71012312
     atom  238 type  3   force =    -1.62766420   -1.85947101   -0.71018716
     atom  239 type  3   force =    -1.62766839   -1.85944950   -0.71020062
     atom  240 type  3   force =    -1.62763807   -1.85942179   -0.71017074
     atom  241 type  1   force =     2.09149528    0.30048184   -3.09839364
     atom  242 type  1   force =     2.09124554    0.29863271   -3.09874230
     atom  243 type  1   force =     2.09126603    0.30107491   -3.09832736
     atom  244 type  1   force =     2.09115881    0.30110474   -3.09829959
     atom  245 type  1   force =     2.09129042    0.30137201   -3.09829543
     atom  246 type  1   force =     2.09143069    0.30129823   -3.09840384
     atom  247 type  1   force =     2.09132509    0.30097298   -3.09803460
     atom  248 type  1   force =     2.09139225    0.30097906   -3.09813252
     atom  249 type  1   force =    -0.72445800   12.38494708    1.18111250
     atom  250 type  1   force =    -0.72333214   12.38274808    1.17835622
     atom  251 type  1   force =    -0.72452479   12.38539048    1.18103077
     atom  252 type  1   force =    -0.72462262   12.38542517    1.18106979
     atom  253 type  1   force =    -0.72449024   12.38557621    1.18109097
     atom  254 type  1   force =    -0.72427819   12.38576655    1.18087217
     atom  255 type  1   force =    -0.72444448   12.38532469    1.18126892
     atom  256 type  1   force =    -0.72438587   12.38530780    1.18123485
     atom  257 type  2   force =     1.16578063   -2.48533141   -0.87105902
     atom  258 type  2   force =     1.16464890   -2.48496694   -0.87001260
     atom  259 type  2   force =     1.16470438   -2.48456196   -0.87018749
     atom  260 type  2   force =     1.16468993   -2.48456489   -0.87016981
     atom  261 type  2   force =     1.16484106   -2.48411060   -0.87036822
     atom  262 type  2   force =     1.16478140   -2.48447798   -0.87017654
     atom  263 type  2   force =     1.16476829   -2.48468960   -0.86997822
     atom  264 type  2   force =     1.16478570   -2.48462434   -0.87006475
     atom  265 type  2   force =     0.27043718   -5.07316406   -0.95461535
     atom  266 type  2   force =     0.27005801   -5.07315398   -0.95437369
     atom  267 type  2   force =     0.26998559   -5.07226109   -0.95432113
     atom  268 type  2   force =     0.26996624   -5.07225614   -0.95429991
     atom  269 type  2   force =     0.27008529   -5.07200176   -0.95436475
     atom  270 type  2   force =     0.27009911   -5.07209098   -0.95433046
     atom  271 type  2   force =     0.27009786   -5.07237383   -0.95410023
     atom  272 type  2   force =     0.27009253   -5.07233202   -0.95415089
     atom  273 type  2   force =     5.17795431   -3.24295609    2.47844654
     atom  274 type  2   force =     5.17662823   -3.24271253    2.48079265
     atom  275 type  2   force =     5.17657653   -3.24247969    2.48069785
     atom  276 type  2   force =     5.17661964   -3.24248715    2.48065573
     atom  277 type  2   force =     5.17693833   -3.24197600    2.48039582
     atom  278 type  2   force =     5.17666325   -3.24239919    2.48070260
     atom  279 type  2   force =     5.17668694   -3.24255287    2.48079044
     atom  280 type  2   force =     5.17667310   -3.24250543    2.48079192
     atom  281 type  3   force =     2.07359911   -0.76550217    1.25147185
     atom  282 type  3   force =     2.07350227   -0.76530060    1.25222431
     atom  283 type  3   force =     2.07346724   -0.76523337    1.25221302
     atom  284 type  3   force =     2.07349206   -0.76523905    1.25219093
     atom  285 type  3   force =     2.07356821   -0.76514407    1.25216181
     atom  286 type  3   force =     2.07349580   -0.76521012    1.25221228
     atom  287 type  3   force =     2.07351787   -0.76524933    1.25222529
     atom  288 type  3   force =     2.07350839   -0.76523666    1.25224759
     atom  289 type  2   force =     1.44688233   -5.97956070    0.61116528
     atom  290 type  2   force =     1.44591705   -5.97996102    0.61195698
     atom  291 type  2   force =     1.44598652   -5.97992830    0.61186097
     atom  292 type  2   force =     1.44595502   -5.97991035    0.61189201
     atom  293 type  2   force =     1.44624351   -5.97890457    0.61067892
     atom  294 type  2   force =     1.44597153   -5.97993628    0.61186969
     atom  295 type  2   force =     1.44586575   -5.97998807    0.61197238
     atom  296 type  2   force =     1.44597010   -5.97996259    0.61185530
     atom  297 type  3   force =    -0.02497830   -1.89997905    0.18222730
     atom  298 type  3   force =    -0.02514568   -1.90008433    0.18235066
     atom  299 type  3   force =    -0.02512401   -1.90009502    0.18233947
     atom  300 type  3   force =    -0.02513450   -1.90008673    0.18235226
     atom  301 type  3   force =    -0.02505110   -1.89982618    0.18178737
     atom  302 type  3   force =    -0.02513831   -1.90011144    0.18234132
     atom  303 type  3   force =    -0.02516952   -1.90010276    0.18235316
     atom  304 type  3   force =    -0.02513818   -1.90009963    0.18232498
     atom  305 type  1   force =    -1.47140560   -0.41769353    2.59191946
     atom  306 type  1   force =    -1.47098077   -0.41710924    2.59139360
     atom  307 type  1   force =    -1.47142567   -0.41625260    2.59173781
     atom  308 type  1   force =    -1.47137096   -0.41625451    2.59175544
     atom  309 type  1   force =    -1.47122834   -0.41605003    2.59168925
     atom  310 type  1   force =    -1.47126337   -0.41590666    2.59173355
     atom  311 type  1   force =    -1.47121425   -0.41634583    2.59195178
     atom  312 type  1   force =    -1.47130599   -0.41635082    2.59199879
     atom  313 type  1   force =     4.13251963   12.39041716    0.55457589
     atom  314 type  1   force =     4.13353666   12.38991236    0.55319068
     atom  315 type  1   force =     4.13254538   12.39099707    0.55436195
     atom  316 type  1   force =     4.13256385   12.39101676    0.55438230
     atom  317 type  1   force =     4.13267087   12.39114395    0.55436640
     atom  318 type  1   force =     4.13276408   12.39152573    0.55422656
     atom  319 type  1   force =     4.13270052   12.39093587    0.55455230
     atom  320 type  1   force =     4.13266328   12.39089916    0.55459928
     atom  321 type  2   force =    -2.76946228   -0.33955889   -3.52121030
     atom  322 type  2   force =    -2.77041013   -0.33952253   -3.52056938
     atom  323 type  2   force =    -2.77027117   -0.33923204   -3.52084689
     atom  324 type  2   force =    -2.77034049   -0.33923196   -3.52077252
     atom  325 type  2   force =    -2.77034511   -0.33869453   -3.52109703
     atom  326 type  2   force =    -2.77024308   -0.33920492   -3.52082569
     atom  327 type  2   force =    -2.77035863   -0.33943265   -3.52051696
     atom  328 type  2   force =    -2.77025318   -0.33932812   -3.52074971
     atom  329 type  3   force =    -1.59159953    0.22484555   -1.77783696
     atom  330 type  3   force =    -1.59179467    0.22484404   -1.77773161
     atom  331 type  3   force =    -1.59172960    0.22493410   -1.77782085
     atom  332 type  3   force =    -1.59175675    0.22493392   -1.77779170
     atom  333 type  3   force =    -1.59177400    0.22502420   -1.77784262
     atom  334 type  3   force =    -1.59172349    0.22493810   -1.77781215
     atom  335 type  3   force =    -1.59175757    0.22486301   -1.77769308
     atom  336 type  3   force =    -1.59172484    0.22489959   -1.77778954
     atom  337 type  1   force =    -5.13621316   -4.59005115   -1.62654291
     atom  338 type  1   force =    -5.13728188   -4.59017238   -1.62583937
     atom  339 type  1   force =    -5.13712575   -4.59005297   -1.62610343
     atom  340 type  1   force =    -5.13721681   -4.59003873   -1.62600122
     atom  341 type  1   force =    -5.13738102   -4.58901379   -1.62694066
     atom  342 type  1   force =    -5.13715229   -4.59008129   -1.62608360
     atom  343 type  1   force =    -5.13746059   -4.59029846   -1.62580628
     atom  344 type  1   force =    -5.13716014   -4.59016483   -1.62605308
     atom  345 type  2   force =    -4.89968264    5.09778707    1.83804901
     atom  346 type  2   force =    -4.89891402    5.09709967    1.83852448
     atom  347 type  2   force =    -4.89958304    5.09700061    1.83868359
     atom  348 type  2   force =    -4.89892224    5.09706215    1.83855259
     atom  349 type  2   force =    -4.89856098    5.09716976    1.83844661
     atom  350 type  2   force =    -4.89901515    5.09718049    1.83877319
     atom  351 type  2   force =    -4.89880925    5.09719365    1.83852214
     atom  352 type  2   force =    -4.89898503    5.09718935    1.83866110
     atom  353 type  3   force =     1.85961911   -1.62739586    0.70975768
     atom  354 type  3   force =     1.85946932   -1.62768363    0.71018302
     atom  355 type  3   force =     1.85944975   -1.62768237    0.71019401
     atom  356 type  3   force =     1.85947117   -1.62767676    0.71017153
     atom  357 type  3   force =     1.85966024   -1.62753733    0.71001763
     atom  358 type  3   force =     1.85946252   -1.62766935    0.71019339
     atom  359 type  3   force =     1.85947918   -1.62767416    0.71018171
     atom  360 type  3   force =     1.85947110   -1.62766812    0.71018663
     atom  361 type  1   force =    -2.09106379   -0.30119370   -3.09830325
     atom  362 type  1   force =    -2.09199174   -0.30141261   -3.09732721
     atom  363 type  1   force =    -2.09115773   -0.30091452   -3.09836097
     atom  364 type  1   force =    -2.09141004   -0.30084964   -3.09826260
     atom  365 type  1   force =    -2.09145477   -0.30075745   -3.09824819
     atom  366 type  1   force =    -2.09114965   -0.30090661   -3.09843439
     atom  367 type  1   force =    -2.09162230   -0.30138683   -3.09780759
     atom  368 type  1   force =    -2.09109188   -0.30116315   -3.09822271
     atom  369 type  1   force =     0.72469140  -12.38520468    1.18099460
     atom  370 type  1   force =     0.72442340  -12.38519888    1.18112128
     atom  371 type  1   force =     0.72476862  -12.38544544    1.18104243
     atom  372 type  1   force =     0.72437303  -12.38541691    1.18178727
     atom  373 type  1   force =     0.72365472  -12.38605868    1.18132095
     atom  374 type  1   force =     0.72464419  -12.38549799    1.18112293
     atom  375 type  1   force =     0.72419722  -12.38504665    1.18108898
     atom  376 type  1   force =     0.72459136  -12.38529382    1.18093142
     atom  377 type  2   force =    -1.16466524    2.48464750   -0.87025315
     atom  378 type  2   force =    -1.16499784    2.48491489   -0.87020308
     atom  379 type  2   force =    -1.16464835    2.48450391   -0.87013597
     atom  380 type  2   force =    -1.16547185    2.48413978   -0.86984117
     atom  381 type  2   force =    -1.16483245    2.48459008   -0.86971729
     atom  382 type  2   force =    -1.16446069    2.48452466   -0.87018983
     atom  383 type  2   force =    -1.16479455    2.48471378   -0.87011478
     atom  384 type  2   force =    -1.16459817    2.48472020   -0.87023832
     atom  385 type  2   force =    -0.26992514    5.07239726   -0.95437779
     atom  386 type  2   force =    -0.27016274    5.07254806   -0.95427963
     atom  387 type  2   force =    -0.26989337    5.07219881   -0.95425973
     atom  388 type  2   force =    -0.27037696    5.07204206   -0.95373462
     atom  389 type  2   force =    -0.27030001    5.07203009   -0.95366808
     atom  390 type  2   force =    -0.26980009    5.07217026   -0.95428273
     atom  391 type  2   force =    -0.27012764    5.07244047   -0.95425679
     atom  392 type  2   force =    -0.26992802    5.07239646   -0.95437492
     atom  393 type  2   force =    -5.17658093    3.24253602    2.48061982
     atom  394 type  2   force =    -5.17699457    3.24307483    2.48045131
     atom  395 type  2   force =    -5.17659163    3.24243523    2.48069917
     atom  396 type  2   force =    -5.17711416    3.24223858    2.48101079
     atom  397 type  2   force =    -5.17674598    3.24249203    2.48100902
     atom  398 type  2   force =    -5.17622716    3.24242653    2.48056694
     atom  399 type  2   force =    -5.17669444    3.24258029    2.48074007
     atom  400 type  2   force =    -5.17653716    3.24258838    2.48062341
     atom  401 type  3   force =    -2.07347962    0.76525779    1.25219416
     atom  402 type  3   force =    -2.07353939    0.76539348    1.25214118
     atom  403 type  3   force =    -2.07348119    0.76522831    1.25221428
     atom  404 type  3   force =    -2.07353289    0.76519581    1.25228935
     atom  405 type  3   force =    -2.07353798    0.76520520    1.25228291
     atom  406 type  3   force =    -2.07333688    0.76519781    1.25214848
     atom  407 type  3   force =    -2.07350865    0.76525820    1.25221511
     atom  408 type  3   force =    -2.07348061    0.76525953    1.25219203
     atom  409 type  2   force =    -1.44672382    5.98022240    0.61169987
     atom  410 type  2   force =    -1.44591794    5.97990508    0.61179234
     atom  411 type  2   force =    -1.44699804    5.98011469    0.61147487
     atom  412 type  2   force =    -1.44591894    5.97988776    0.61182173
     atom  413 type  2   force =    -1.44571548    5.97998491    0.61178198
     atom  414 type  2   force =    -1.44597824    5.98002921    0.61201373
     atom  415 type  2   force =    -1.44569807    5.98003106    0.61176968
     atom  416 type  2   force =    -1.44599203    5.98000918    0.61196404
     atom  417 type  3   force =     0.02490641    1.90008819    0.18231367
     atom  418 type  3   force =     0.02514947    1.90008008    0.18232413
     atom  419 type  3   force =     0.02494483    1.90019825    0.18224311
     atom  420 type  3   force =     0.02514959    1.90008819    0.18231962
     atom  421 type  3   force =     0.02519125    1.90011639    0.18231422
     atom  422 type  3   force =     0.02513219    1.90011798    0.18235916
     atom  423 type  3   force =     0.02521953    1.90010905    0.18231079
     atom  424 type  3   force =     0.02512962    1.90011091    0.18237443
     atom  425 type  1   force =     1.47151248    0.41648252    2.59164166
     atom  426 type  1   force =     1.47124440    0.41660676    2.59182447
     atom  427 type  1   force =     1.47149398    0.41622417    2.59183052
     atom  428 type  1   force =     1.47115301    0.41619325    2.59218900
     atom  429 type  1   force =     1.47033685    0.41496658    2.59294901
     atom  430 type  1   force =     1.47158684    0.41606684    2.59176164
     atom  431 type  1   force =     1.47116857    0.41644851    2.59178711
     atom  432 type  1   force =     1.47139458    0.41638961    2.59168949
     atom  433 type  1   force =    -4.13238986  -12.39075603    0.55426143
     atom  434 type  1   force =    -4.13267264  -12.39075897    0.55445521
     atom  435 type  1   force =    -4.13239918  -12.39104450    0.55442501
     atom  436 type  1   force =    -4.13268949  -12.39101416    0.55482245
     atom  437 type  1   force =    -4.13451169  -12.39269865    0.55426448
     atom  438 type  1   force =    -4.13245028  -12.39116137    0.55442034
     atom  439 type  1   force =    -4.13285727  -12.39078349    0.55440438
     atom  440 type  1   force =    -4.13255598  -12.39090955    0.55428960
     atom  441 type  2   force =     2.77033536    0.33930040   -3.52089848
     atom  442 type  2   force =     2.76999874    0.33947533   -3.52077769
     atom  443 type  2   force =     2.77035885    0.33916846   -3.52077146
     atom  444 type  2   force =     2.76885893    0.33862416   -3.52152251
     atom  445 type  2   force =     2.77031755    0.33934996   -3.52047541
     atom  446 type  2   force =     2.77048086    0.33926018   -3.52079756
     atom  447 type  2   force =     2.77025713    0.33940121   -3.52074578
     atom  448 type  2   force =     2.77051050    0.33945785   -3.52088309
     atom  449 type  3   force =     1.59176594   -0.22496380   -1.77779069
     atom  450 type  3   force =     1.59147106   -0.22519435   -1.77807255
     atom  451 type  3   force =     1.59174735   -0.22490925   -1.77782814
     atom  452 type  3   force =     1.59169306   -0.22488990   -1.77779074
     atom  453 type  3   force =     1.59173315   -0.22487897   -1.77779364
     atom  454 type  3   force =     1.59179557   -0.22486118   -1.77782140
     atom  455 type  3   force =     1.59175587   -0.22490096   -1.77771676
     atom  456 type  3   force =     1.59177712   -0.22492391   -1.77779312
     atom  457 type  1   force =     5.13724123    4.59000160   -1.62605650
     atom  458 type  1   force =     5.13546676    4.59028662   -1.62767649
     atom  459 type  1   force =     5.13722712    4.59008264   -1.62616318
     atom  460 type  1   force =     5.13668605    4.59026678   -1.62602633
     atom  461 type  1   force =     5.13715591    4.59021784   -1.62595972
     atom  462 type  1   force =     5.13756230    4.59032372   -1.62619683
     atom  463 type  1   force =     5.13721188    4.59021418   -1.62581536
     atom  464 type  1   force =     5.13740708    4.59012081   -1.62608878
     atom  465 type  2   force =     4.90013935   -5.09650192    1.83692832
     atom  466 type  2   force =     4.89893306   -5.09718980    1.83865577
     atom  467 type  2   force =     4.89891469   -5.09711529    1.83860950
     atom  468 type  2   force =     4.89895099   -5.09710769    1.83857100
     atom  469 type  2   force =     4.89950824   -5.09638792    1.83793443
     atom  470 type  2   force =     4.89895674   -5.09707685    1.83861490
     atom  471 type  2   force =     4.89896049   -5.09714718    1.83865182
     atom  472 type  2   force =     4.89897626   -5.09711596    1.83862724
     atom  473 type  3   force =    -1.85968299    1.62792970    0.70986118
     atom  474 type  3   force =    -1.85945947    1.62766360    0.71016824
     atom  475 type  3   force =    -1.85956406    1.62765789    0.71020297
     atom  476 type  3   force =    -1.85946251    1.62766365    0.71016399
     atom  477 type  3   force =    -1.85934579    1.62771265    0.71012359
     atom  478 type  3   force =    -1.85948268    1.62768810    0.71020869
     atom  479 type  3   force =    -1.85943669    1.62768409    0.71016636
     atom  480 type  3   force =    -1.85947251    1.62768991    0.71019797
     atom  481 type  4   force =     0.00081105   -0.00094049   -0.00063281
     atom  482 type  4   force =    -0.00593108   -0.00665948    0.01226644
     atom  483 type  4   force =     0.00024052    0.00023802   -0.00037204
     atom  484 type  4   force =    -0.00061574    0.00040727   -0.00032965
     atom  485 type  4   force =    -0.00047800    0.00152188    0.00002981
     atom  486 type  4   force =     0.00073388    0.00067728   -0.00105390
     atom  487 type  4   force =    -0.00041720   -0.00048254    0.00067017
     atom  488 type  4   force =     0.00065341   -0.00026840    0.00015606
     atom  489 type  4   force =    -0.00674440   -0.00803936    0.01141649
     atom  490 type  4   force =     0.00097420   -0.00124482   -0.00088645
     atom  491 type  4   force =    -0.00062456    0.00029828   -0.00039628
     atom  492 type  4   force =     0.00012828    0.00021851   -0.00036128
     atom  493 type  4   force =     0.00073679    0.00075168   -0.00096116
     atom  494 type  4   force =    -0.00023153    0.00160528    0.00009081
     atom  495 type  4   force =     0.00065319   -0.00019512    0.00017351
     atom  496 type  4   force =    -0.00035163   -0.00027637    0.00052163
     The core correction contribution to forces
     atom    1 type  1   force =    -0.00311531    0.00438534    0.00260977
     atom    2 type  1   force =    -0.00305046    0.00449030    0.00257005
     atom    3 type  1   force =    -0.00311530    0.00438511    0.00260963
     atom    4 type  1   force =    -0.00311522    0.00438514    0.00260957
     atom    5 type  1   force =    -0.00311520    0.00438519    0.00260956
     atom    6 type  1   force =    -0.00311524    0.00438520    0.00260954
     atom    7 type  1   force =    -0.00311522    0.00438505    0.00260948
     atom    8 type  1   force =    -0.00311550    0.00438523    0.00260965
     atom    9 type  1   force =     0.01341097    0.00482837    0.00488212
     atom   10 type  1   force =     0.01340065    0.00481519    0.00489606
     atom   11 type  1   force =     0.01340068    0.00481504    0.00489604
     atom   12 type  1   force =     0.01340066    0.00481503    0.00489608
     atom   13 type  1   force =     0.01340064    0.00481509    0.00489602
     atom   14 type  1   force =     0.01340066    0.00481504    0.00489610
     atom   15 type  1   force =     0.01340026    0.00481485    0.00489581
     atom   16 type  1   force =     0.01340062    0.00481504    0.00489603
     atom   17 type  2   force =    -0.00620288    0.00176580    0.00006567
     atom   18 type  2   force =    -0.00643123    0.00179793    0.00006817
     atom   19 type  2   force =    -0.00643130    0.00179789    0.00006776
     atom   20 type  2   force =    -0.00643132    0.00179749    0.00006822
     atom   21 type  2   force =    -0.00643134    0.00179743    0.00006825
     atom   22 type  2   force =    -0.00643115    0.00179772    0.00006794
     atom   23 type  2   force =    -0.00643148    0.00179750    0.00006809
     atom   24 type  2   force =    -0.00643114    0.00179772    0.00006768
     atom   25 type  2   force =     0.00255246   -0.00015061    0.00010381
     atom   26 type  2   force =     0.00302117   -0.00019482    0.00027369
     atom   27 type  2   force =     0.00302139   -0.00019482    0.00027363
     atom   28 type  2   force =     0.00302109   -0.00019539    0.00027342
     atom   29 type  2   force =     0.00302130   -0.00019480    0.00027365
     atom   30 type  2   force =     0.00302133   -0.00019484    0.00027376
     atom   31 type  2   force =     0.00302077   -0.00019472    0.00027316
     atom   32 type  2   force =     0.00302152   -0.00019484    0.00027349
     atom   33 type  2   force =    -0.00233779    0.00277909    0.00032805
     atom   34 type  2   force =    -0.00233771    0.00277917    0.00032836
     atom   35 type  2   force =    -0.00233794    0.00277919    0.00032878
     atom   36 type  2   force =    -0.00233796    0.00277870    0.00032857
     atom   37 type  2   force =    -0.00231134    0.00279196    0.00034328
     atom   38 type  2   force =    -0.00233796    0.00277956    0.00032827
     atom   39 type  2   force =    -0.00233795    0.00277927    0.00032861
     atom   40 type  2   force =    -0.00233792    0.00277933    0.00032824
     atom   41 type  3   force =     0.00000000    0.00000000    0.00000000
     atom   42 type  3   force =     0.00000000    0.00000000    0.00000000
     atom   43 type  3   force =     0.00000000    0.00000000    0.00000000
     atom   44 type  3   force =     0.00000000    0.00000000    0.00000000
     atom   45 type  3   force =     0.00000000    0.00000000    0.00000000
     atom   46 type  3   force =     0.00000000    0.00000000    0.00000000
     atom   47 type  3   force =     0.00000000    0.00000000    0.00000000
     atom   48 type  3   force =     0.00000000    0.00000000    0.00000000
     atom   49 type  2   force =     0.00087774   -0.00157171    0.00038438
     atom   50 type  2   force =     0.00087739   -0.00157231    0.00038510
     atom   51 type  2   force =     0.00087756   -0.00157201    0.00038483
     atom   52 type  2   force =     0.00087742   -0.00157200    0.00038511
     atom   53 type  2   force =     0.00087464   -0.00157374    0.00039192
     atom   54 type  2   force =     0.00087760   -0.00157223    0.00038498
     atom   55 type  2   force =     0.00087737   -0.00157191    0.00038461
     atom   56 type  2   force =     0.00087740   -0.00157214    0.00038517
     atom   57 type  3   force =     0.00000000    0.00000000    0.00000000
     atom   58 type  3   force =     0.00000000    0.00000000    0.00000000
     atom   59 type  3   force =     0.00000000    0.00000000    0.00000000
     atom   60 type  3   force =     0.00000000    0.00000000    0.00000000
     atom   61 type  3   force =     0.00000000    0.00000000    0.00000000
     atom   62 type  3   force =     0.00000000    0.00000000    0.00000000
     atom   63 type  3   force =     0.00000000    0.00000000    0.00000000
     atom   64 type  3   force =     0.00000000    0.00000000    0.00000000
     atom   65 type  1   force =    -0.00319674   -0.00411447   -0.00308114
     atom   66 type  1   force =    -0.00325621   -0.00412413   -0.00297480
     atom   67 type  1   force =    -0.00325624   -0.00412433   -0.00297498
     atom   68 type  1   force =    -0.00325630   -0.00412422   -0.00297492
     atom   69 type  1   force =    -0.00325628   -0.00412436   -0.00297487
     atom   70 type  1   force =    -0.00325622   -0.00412435   -0.00297498
     atom   71 type  1   force =    -0.00325654   -0.00412440   -0.00297509
     atom   72 type  1   force =    -0.00325634   -0.00412446   -0.00297507
     atom   73 type  1   force =     0.01285300   -0.00665616   -0.00258096
     atom   74 type  1   force =     0.01284243   -0.00666366   -0.00256021
     atom   75 type  1   force =     0.01284254   -0.00666363   -0.00256032
     atom   76 type  1   force =     0.01284244   -0.00666358   -0.00256029
     atom   77 type  1   force =     0.01284248   -0.00666371   -0.00256023
     atom   78 type  1   force =     0.01284257   -0.00666375   -0.00256029
     atom   79 type  1   force =     0.01284222   -0.00666352   -0.00256024
     atom   80 type  1   force =     0.01284240   -0.00666367   -0.00256025
     atom   81 type  2   force =    -0.00172982   -0.00229208    0.00023083
     atom   82 type  2   force =    -0.00172095   -0.00232286    0.00022336
     atom   83 type  2   force =    -0.00172093   -0.00232306    0.00022401
     atom   84 type  2   force =    -0.00172120   -0.00232320    0.00022370
     atom   85 type  2   force =    -0.00172072   -0.00232255    0.00022299
     atom   86 type  2   force =    -0.00172087   -0.00232274    0.00022361
     atom   87 type  2   force =    -0.00172147   -0.00232298    0.00022390
     atom   88 type  2   force =    -0.00172075   -0.00232229    0.00022293
     atom   89 type  3   force =     0.00000000    0.00000000    0.00000000
     atom   90 type  3   force =     0.00000000    0.00000000    0.00000000
     atom   91 type  3   force =     0.00000000    0.00000000    0.00000000
     atom   92 type  3   force =     0.00000000    0.00000000    0.00000000
     atom   93 type  3   force =     0.00000000    0.00000000    0.00000000
     atom   94 type  3   force =     0.00000000    0.00000000    0.00000000
     atom   95 type  3   force =     0.00000000    0.00000000    0.00000000
     atom   96 type  3   force =     0.00000000    0.00000000    0.00000000
     atom   97 type  1   force =    -0.00403855    0.01083140   -0.00097752
     atom   98 type  1   force =    -0.00404091    0.01083544   -0.00097697
     atom   99 type  1   force =    -0.00403860    0.01083136   -0.00097752
     atom  100 type  1   force =    -0.00403856    0.01083132   -0.00097746
     atom  101 type  1   force =    -0.00403851    0.01083131   -0.00097752
     atom  102 type  1   force =    -0.00403859    0.01083121   -0.00097740
     atom  103 type  1   force =    -0.00403853    0.01083123   -0.00097752
     atom  104 type  1   force =    -0.00403869    0.01083143   -0.00097751
     atom  105 type  2   force =    -0.00229044   -0.00380070   -0.00000024
     atom  106 type  2   force =    -0.00229032   -0.00379949   -0.00000130
     atom  107 type  2   force =    -0.00229047   -0.00380039   -0.00000125
     atom  108 type  2   force =    -0.00229013   -0.00380023   -0.00000080
     atom  109 type  2   force =    -0.00229092   -0.00380149   -0.00000095
     atom  110 type  2   force =    -0.00229024   -0.00380044   -0.00000098
     atom  111 type  2   force =    -0.00229052   -0.00380101   -0.00000084
     atom  112 type  2   force =    -0.00229053   -0.00380078   -0.00000117
     atom  113 type  3   force =     0.00000000    0.00000000    0.00000000
     atom  114 type  3   force =     0.00000000    0.00000000    0.00000000
     atom  115 type  3   force =     0.00000000    0.00000000    0.00000000
     atom  116 type  3   force =     0.00000000    0.00000000    0.00000000
     atom  117 type  3   force =     0.00000000    0.00000000    0.00000000
     atom  118 type  3   force =     0.00000000    0.00000000    0.00000000
     atom  119 type  3   force =     0.00000000    0.00000000    0.00000000
     atom  120 type  3   force =     0.00000000    0.00000000    0.00000000
     atom  121 type  1   force =     0.00311519   -0.00438523    0.00260968
     atom  122 type  1   force =     0.00311597   -0.00438708    0.00261026
     atom  123 type  1   force =     0.00311524   -0.00438518    0.00260954
     atom  124 type  1   force =     0.00311522   -0.00438500    0.00260948
     atom  125 type  1   force =     0.00311545   -0.00438493    0.00260921
     atom  126 type  1   force =     0.00311529   -0.00438523    0.00260962
     atom  127 type  1   force =     0.00311529   -0.00438513    0.00260957
     atom  128 type  1   force =     0.00311512   -0.00438520    0.00260959
     atom  129 type  1   force =    -0.01340087   -0.00481512    0.00489615
     atom  130 type  1   force =    -0.01339955   -0.00481479    0.00489590
     atom  131 type  1   force =    -0.01340070   -0.00481510    0.00489613
     atom  132 type  1   force =    -0.01340056   -0.00481500    0.00489603
     atom  133 type  1   force =    -0.01340037   -0.00481484    0.00489599
     atom  134 type  1   force =    -0.01340075   -0.00481516    0.00489610
     atom  135 type  1   force =    -0.01340055   -0.00481504    0.00489605
     atom  136 type  1   force =    -0.01340081   -0.00481508    0.00489607
     atom  137 type  2   force =     0.00643108   -0.00179792    0.00006815
     atom  138 type  2   force =     0.00643145   -0.00179829    0.00006769
     atom  139 type  2   force =     0.00643105   -0.00179783    0.00006826
     atom  140 type  2   force =     0.00643110   -0.00179763    0.00006821
     atom  141 type  2   force =     0.00643115   -0.00179755    0.00006802
     atom  142 type  2   force =     0.00643136   -0.00179774    0.00006811
     atom  143 type  2   force =     0.00643112   -0.00179760    0.00006780
     atom  144 type  2   force =     0.00643092   -0.00179706    0.00006757
     atom  145 type  2   force =    -0.00302141    0.00019488    0.00027336
     atom  146 type  2   force =    -0.00302112    0.00019442    0.00027367
     atom  147 type  2   force =    -0.00302155    0.00019483    0.00027368
     atom  148 type  2   force =    -0.00302136    0.00019505    0.00027334
     atom  149 type  2   force =    -0.00302185    0.00019511    0.00027263
     atom  150 type  2   force =    -0.00302123    0.00019454    0.00027345
     atom  151 type  2   force =    -0.00302113    0.00019498    0.00027328
     atom  152 type  2   force =    -0.00302177    0.00019491    0.00027390
     atom  153 type  2   force =     0.00233775   -0.00277937    0.00032852
     atom  154 type  2   force =     0.00233780   -0.00277890    0.00032920
     atom  155 type  2   force =     0.00233784   -0.00277923    0.00032859
     atom  156 type  2   force =     0.00233732   -0.00277883    0.00032869
     atom  157 type  2   force =     0.00233808   -0.00277887    0.00032832
     atom  158 type  2   force =     0.00233783   -0.00277965    0.00032868
     atom  159 type  2   force =     0.00233763   -0.00277962    0.00032866
     atom  160 type  2   force =     0.00233812   -0.00277878    0.00032843
     atom  161 type  3   force =     0.00000000    0.00000000    0.00000000
     atom  162 type  3   force =     0.00000000    0.00000000    0.00000000
     atom  163 type  3   force =     0.00000000    0.00000000    0.00000000
     atom  164 type  3   force =     0.00000000    0.00000000    0.00000000
     atom  165 type  3   force =     0.00000000    0.00000000    0.00000000
     atom  166 type  3   force =     0.00000000    0.00000000    0.00000000
     atom  167 type  3   force =     0.00000000    0.00000000    0.00000000
     atom  168 type  3   force =     0.00000000    0.00000000    0.00000000
     atom  169 type  2   force =    -0.00087747    0.00157198    0.00038470
     atom  170 type  2   force =    -0.00087904    0.00157281    0.00038499
     atom  171 type  2   force =    -0.00087773    0.00157250    0.00038478
     atom  172 type  2   force =    -0.00087747    0.00157216    0.00038441
     atom  173 type  2   force =    -0.00087710    0.00157184    0.00038504
     atom  174 type  2   force =    -0.00087730    0.00157213    0.00038518
     atom  175 type  2   force =    -0.00087739    0.00157172    0.00038529
     atom  176 type  2   force =    -0.00087793    0.00157224    0.00038507
     atom  177 type  3   force =     0.00000000    0.00000000    0.00000000
     atom  178 type  3   force =     0.00000000    0.00000000    0.00000000
     atom  179 type  3   force =     0.00000000    0.00000000    0.00000000
     atom  180 type  3   force =     0.00000000    0.00000000    0.00000000
     atom  181 type  3   force =     0.00000000    0.00000000    0.00000000
     atom  182 type  3   force =     0.00000000    0.00000000    0.00000000
     atom  183 type  3   force =     0.00000000    0.00000000    0.00000000
     atom  184 type  3   force =     0.00000000    0.00000000    0.00000000
     atom  185 type  1   force =     0.00325618    0.00412414   -0.00297483
     atom  186 type  1   force =     0.00325640    0.00412387   -0.00297472
     atom  187 type  1   force =     0.00325616    0.00412427   -0.00297496
     atom  188 type  1   force =     0.00325628    0.00412441   -0.00297502
     atom  189 type  1   force =     0.00325761    0.00412746   -0.00297647
     atom  190 type  1   force =     0.00325620    0.00412419   -0.00297475
     atom  191 type  1   force =     0.00325630    0.00412433   -0.00297500
     atom  192 type  1   force =     0.00325615    0.00412445   -0.00297503
     atom  193 type  1   force =    -0.01284257    0.00666357   -0.00256022
     atom  194 type  1   force =    -0.01284212    0.00666333   -0.00256015
     atom  195 type  1   force =    -0.01284261    0.00666373   -0.00256030
     atom  196 type  1   force =    -0.01284264    0.00666377   -0.00256039
     atom  197 type  1   force =    -0.01284107    0.00666291   -0.00256020
     atom  198 type  1   force =    -0.01284249    0.00666357   -0.00256025
     atom  199 type  1   force =    -0.01284251    0.00666370   -0.00256028
     atom  200 type  1   force =    -0.01284263    0.00666377   -0.00256034
     atom  201 type  2   force =     0.00172113    0.00232317    0.00022334
     atom  202 type  2   force =     0.00171913    0.00232045    0.00022308
     atom  203 type  2   force =     0.00172079    0.00232287    0.00022314
     atom  204 type  2   force =     0.00172102    0.00232333    0.00022324
     atom  205 type  2   force =     0.00172099    0.00232311    0.00022363
     atom  206 type  2   force =     0.00172102    0.00232286    0.00022427
     atom  207 type  2   force =     0.00172116    0.00232308    0.00022361
     atom  208 type  2   force =     0.00172033    0.00232300    0.00022366
     atom  209 type  3   force =     0.00000000    0.00000000    0.00000000
     atom  210 type  3   force =     0.00000000    0.00000000    0.00000000
     atom  211 type  3   force =     0.00000000    0.00000000    0.00000000
     atom  212 type  3   force =     0.00000000    0.00000000    0.00000000
     atom  213 type  3   force =     0.00000000    0.00000000    0.00000000
     atom  214 type  3   force =     0.00000000    0.00000000    0.00000000
     atom  215 type  3   force =     0.00000000    0.00000000    0.00000000
     atom  216 type  3   force =     0.00000000    0.00000000    0.00000000
     atom  217 type  1   force =     0.00403855   -0.01083129   -0.00097755
     atom  218 type  1   force =     0.00403810   -0.01083135   -0.00097755
     atom  219 type  1   force =     0.00403855   -0.01083153   -0.00097750
     atom  220 type  1   force =     0.00403852   -0.01083130   -0.00097754
     atom  221 type  1   force =     0.00403849   -0.01083122   -0.00097751
     atom  222 type  1   force =     0.00403862   -0.01083127   -0.00097766
     atom  223 type  1   force =     0.00403860   -0.01083132   -0.00097755
     atom  224 type  1   force =     0.00403800   -0.01083023   -0.00097750
     atom  225 type  2   force =     0.00229056    0.00380106   -0.00000170
     atom  226 type  2   force =     0.00229042    0.00380060   -0.00000103
     atom  227 type  2   force =     0.00228997    0.00380029   -0.00000098
     atom  228 type  2   force =     0.00229013    0.00380030   -0.00000086
     atom  229 type  2   force =     0.00229818    0.00379685    0.00000118
     atom  230 type  2   force =     0.00229025    0.00380043   -0.00000074
     atom  231 type  2   force =     0.00229045    0.00380035   -0.00000099
     atom  232 type  2   force =     0.00229040    0.00380060   -0.00000113
     atom  233 type  3   force =     0.00000000    0.00000000    0.00000000
     atom  234 type  3   force =     0.00000000    0.00000000    0.00000000
     atom  235 type  3   force =     0.00000000    0.00000000    0.00000000
     atom  236 type  3   force =     0.00000000    0.00000000    0.00000000
     atom  237 type  3   force =     0.00000000    0.00000000    0.00000000
     atom  238 type  3   force =     0.00000000    0.00000000    0.00000000
     atom  239 type  3   force =     0.00000000    0.00000000    0.00000000
     atom  240 type  3   force =     0.00000000    0.00000000    0.00000000
     atom  241 type  1   force =     0.00438465    0.00311532   -0.00260924
     atom  242 type  1   force =     0.00438754    0.00311625   -0.00261056
     atom  243 type  1   force =     0.00438513    0.00311520   -0.00260948
     atom  244 type  1   force =     0.00438518    0.00311533   -0.00260961
     atom  245 type  1   force =     0.00438532    0.00311521   -0.00260968
     atom  246 type  1   force =     0.00438511    0.00311520   -0.00260959
     atom  247 type  1   force =     0.00438531    0.00311515   -0.00260967
     atom  248 type  1   force =     0.00438492    0.00311523   -0.00260948
     atom  249 type  1   force =     0.00481465   -0.01340033   -0.00489582
     atom  250 type  1   force =     0.00481428   -0.01339902   -0.00489546
     atom  251 type  1   force =     0.00481505   -0.01340067   -0.00489602
     atom  252 type  1   force =     0.00481509   -0.01340064   -0.00489595
     atom  253 type  1   force =     0.00481507   -0.01340071   -0.00489606
     atom  254 type  1   force =     0.00481516   -0.01340058   -0.00489617
     atom  255 type  1   force =     0.00481516   -0.01340080   -0.00489607
     atom  256 type  1   force =     0.00481499   -0.01340060   -0.00489597
     atom  257 type  2   force =     0.00179691    0.00643127   -0.00006723
     atom  258 type  2   force =     0.00179803    0.00643147   -0.00006808
     atom  259 type  2   force =     0.00179765    0.00643105   -0.00006763
     atom  260 type  2   force =     0.00179770    0.00643116   -0.00006779
     atom  261 type  2   force =     0.00179780    0.00643130   -0.00006785
     atom  262 type  2   force =     0.00179763    0.00643098   -0.00006775
     atom  263 type  2   force =     0.00179754    0.00643097   -0.00006826
     atom  264 type  2   force =     0.00179744    0.00643109   -0.00006812
     atom  265 type  2   force =    -0.00019515   -0.00302104   -0.00027360
     atom  266 type  2   force =    -0.00019432   -0.00302137   -0.00027386
     atom  267 type  2   force =    -0.00019463   -0.00302140   -0.00027305
     atom  268 type  2   force =    -0.00019501   -0.00302122   -0.00027385
     atom  269 type  2   force =    -0.00019508   -0.00302263   -0.00027281
     atom  270 type  2   force =    -0.00019491   -0.00302159   -0.00027347
     atom  271 type  2   force =    -0.00019431   -0.00302174   -0.00027349
     atom  272 type  2   force =    -0.00019488   -0.00302118   -0.00027366
     atom  273 type  2   force =     0.00277859    0.00233766   -0.00032761
     atom  274 type  2   force =     0.00277940    0.00233802   -0.00032842
     atom  275 type  2   force =     0.00277893    0.00233793   -0.00032827
     atom  276 type  2   force =     0.00277908    0.00233787   -0.00032857
     atom  277 type  2   force =     0.00277956    0.00233781   -0.00032879
     atom  278 type  2   force =     0.00277921    0.00233781   -0.00032851
     atom  279 type  2   force =     0.00277903    0.00233764   -0.00032838
     atom  280 type  2   force =     0.00277893    0.00233796   -0.00032877
     atom  281 type  3   force =     0.00000000    0.00000000    0.00000000
     atom  282 type  3   force =     0.00000000    0.00000000    0.00000000
     atom  283 type  3   force =     0.00000000    0.00000000    0.00000000
     atom  284 type  3   force =     0.00000000    0.00000000    0.00000000
     atom  285 type  3   force =     0.00000000    0.00000000    0.00000000
     atom  286 type  3   force =     0.00000000    0.00000000    0.00000000
     atom  287 type  3   force =     0.00000000    0.00000000    0.00000000
     atom  288 type  3   force =     0.00000000    0.00000000    0.00000000
     atom  289 type  2   force =    -0.00157135   -0.00087725   -0.00038616
     atom  290 type  2   force =    -0.00157206   -0.00087751   -0.00038520
     atom  291 type  2   force =    -0.00157242   -0.00087731   -0.00038523
     atom  292 type  2   force =    -0.00157216   -0.00087706   -0.00038522
     atom  293 type  2   force =    -0.00157213   -0.00087841   -0.00038446
     atom  294 type  2   force =    -0.00157225   -0.00087716   -0.00038479
     atom  295 type  2   force =    -0.00157232   -0.00087687   -0.00038527
     atom  296 type  2   force =    -0.00157235   -0.00087755   -0.00038483
     atom  297 type  3   force =     0.00000000    0.00000000    0.00000000
     atom  298 type  3   force =     0.00000000    0.00000000    0.00000000
     atom  299 type  3   force =     0.00000000    0.00000000    0.00000000
     atom  300 type  3   force =     0.00000000    0.00000000    0.00000000
     atom  301 type  3   force =     0.00000000    0.00000000    0.00000000
     atom  302 type  3   force =     0.00000000    0.00000000    0.00000000
     atom  303 type  3   force =     0.00000000    0.00000000    0.00000000
     atom  304 type  3   force =     0.00000000    0.00000000    0.00000000
     atom  305 type  1   force =    -0.00412508    0.00325682    0.00297615
     atom  306 type  1   force =    -0.00412431    0.00325671    0.00297497
     atom  307 type  1   force =    -0.00412432    0.00325627    0.00297490
     atom  308 type  1   force =    -0.00412429    0.00325627    0.00297496
     atom  309 type  1   force =    -0.00412437    0.00325615    0.00297505
     atom  310 type  1   force =    -0.00412424    0.00325633    0.00297487
     atom  311 type  1   force =    -0.00412441    0.00325615    0.00297499
     atom  312 type  1   force =    -0.00412452    0.00325632    0.00297504
     atom  313 type  1   force =    -0.00666373   -0.01284203    0.00256027
     atom  314 type  1   force =    -0.00666376   -0.01284223    0.00255987
     atom  315 type  1   force =    -0.00666365   -0.01284250    0.00256030
     atom  316 type  1   force =    -0.00666364   -0.01284243    0.00256024
     atom  317 type  1   force =    -0.00666367   -0.01284259    0.00256031
     atom  318 type  1   force =    -0.00666381   -0.01284272    0.00256045
     atom  319 type  1   force =    -0.00666366   -0.01284255    0.00256029
     atom  320 type  1   force =    -0.00666377   -0.01284251    0.00256033
     atom  321 type  2   force =    -0.00232373    0.00172124   -0.00022336
     atom  322 type  2   force =    -0.00232225    0.00172074   -0.00022363
     atom  323 type  2   force =    -0.00232288    0.00172140   -0.00022399
     atom  324 type  2   force =    -0.00232259    0.00172114   -0.00022403
     atom  325 type  2   force =    -0.00232305    0.00172073   -0.00022334
     atom  326 type  2   force =    -0.00232294    0.00172126   -0.00022394
     atom  327 type  2   force =    -0.00232335    0.00172111   -0.00022385
     atom  328 type  2   force =    -0.00232323    0.00172106   -0.00022349
     atom  329 type  3   force =     0.00000000    0.00000000    0.00000000
     atom  330 type  3   force =     0.00000000    0.00000000    0.00000000
     atom  331 type  3   force =     0.00000000    0.00000000    0.00000000
     atom  332 type  3   force =     0.00000000    0.00000000    0.00000000
     atom  333 type  3   force =     0.00000000    0.00000000    0.00000000
     atom  334 type  3   force =     0.00000000    0.00000000    0.00000000
     atom  335 type  3   force =     0.00000000    0.00000000    0.00000000
     atom  336 type  3   force =     0.00000000    0.00000000    0.00000000
     atom  337 type  1   force =     0.01083074    0.00403842    0.00097755
     atom  338 type  1   force =     0.01083154    0.00403850    0.00097753
     atom  339 type  1   force =     0.01083119    0.00403848    0.00097759
     atom  340 type  1   force =     0.01083140    0.00403858    0.00097755
     atom  341 type  1   force =     0.01083161    0.00403839    0.00097752
     atom  342 type  1   force =     0.01083129    0.00403857    0.00097755
     atom  343 type  1   force =     0.01083074    0.00403844    0.00097723
     atom  344 type  1   force =     0.01083126    0.00403857    0.00097754
     atom  345 type  2   force =    -0.00379883    0.00228911    0.00000153
     atom  346 type  2   force =    -0.00380024    0.00229041    0.00000065
     atom  347 type  2   force =    -0.00380008    0.00229065    0.00000130
     atom  348 type  2   force =    -0.00380047    0.00229057    0.00000079
     atom  349 type  2   force =    -0.00380100    0.00229015    0.00000128
     atom  350 type  2   force =    -0.00380043    0.00229034    0.00000124
     atom  351 type  2   force =    -0.00380058    0.00229050    0.00000084
     atom  352 type  2   force =    -0.00380052    0.00229010    0.00000114
     atom  353 type  3   force =     0.00000000    0.00000000    0.00000000
     atom  354 type  3   force =     0.00000000    0.00000000    0.00000000
     atom  355 type  3   force =     0.00000000    0.00000000    0.00000000
     atom  356 type  3   force =     0.00000000    0.00000000    0.00000000
     atom  357 type  3   force =     0.00000000    0.00000000    0.00000000
     atom  358 type  3   force =     0.00000000    0.00000000    0.00000000
     atom  359 type  3   force =     0.00000000    0.00000000    0.00000000
     atom  360 type  3   force =     0.00000000    0.00000000    0.00000000
     atom  361 type  1   force =    -0.00438546   -0.00311531   -0.00260968
     atom  362 type  1   force =    -0.00438842   -0.00311618   -0.00261174
     atom  363 type  1   force =    -0.00438513   -0.00311528   -0.00260966
     atom  364 type  1   force =    -0.00438516   -0.00311519   -0.00260957
     atom  365 type  1   force =    -0.00438523   -0.00311515   -0.00260967
     atom  366 type  1   force =    -0.00438522   -0.00311528   -0.00260953
     atom  367 type  1   force =    -0.00438496   -0.00311523   -0.00260951
     atom  368 type  1   force =    -0.00438524   -0.00311526   -0.00260963
     atom  369 type  1   force =    -0.00481504    0.01340058   -0.00489595
     atom  370 type  1   force =    -0.00481501    0.01340069   -0.00489607
     atom  371 type  1   force =    -0.00481511    0.01340069   -0.00489615
     atom  372 type  1   force =    -0.00481558    0.01339992   -0.00489585
     atom  373 type  1   force =    -0.00481465    0.01340036   -0.00489570
     atom  374 type  1   force =    -0.00481511    0.01340067   -0.00489599
     atom  375 type  1   force =    -0.00481500    0.01340057   -0.00489602
     atom  376 type  1   force =    -0.00481508    0.01340064   -0.00489602
     atom  377 type  2   force =    -0.00179784   -0.00643162   -0.00006803
     atom  378 type  2   force =    -0.00179714   -0.00643146   -0.00006787
     atom  379 type  2   force =    -0.00179765   -0.00643104   -0.00006854
     atom  380 type  2   force =    -0.00179778   -0.00643081   -0.00006803
     atom  381 type  2   force =    -0.00179734   -0.00643120   -0.00006797
     atom  382 type  2   force =    -0.00179779   -0.00643148   -0.00006754
     atom  383 type  2   force =    -0.00179738   -0.00643118   -0.00006828
     atom  384 type  2   force =    -0.00179825   -0.00643172   -0.00006739
     atom  385 type  2   force =     0.00019460    0.00302104   -0.00027285
     atom  386 type  2   force =     0.00019465    0.00302231   -0.00027378
     atom  387 type  2   force =     0.00019445    0.00302134   -0.00027367
     atom  388 type  2   force =     0.00019430    0.00302232   -0.00027336
     atom  389 type  2   force =     0.00019547    0.00302177   -0.00027332
     atom  390 type  2   force =     0.00019433    0.00302179   -0.00027321
     atom  391 type  2   force =     0.00019485    0.00302173   -0.00027405
     atom  392 type  2   force =     0.00019505    0.00302154   -0.00027415
     atom  393 type  2   force =    -0.00277935   -0.00233789   -0.00032865
     atom  394 type  2   force =    -0.00277877   -0.00233661   -0.00032941
     atom  395 type  2   force =    -0.00277910   -0.00233790   -0.00032829
     atom  396 type  2   force =    -0.00277935   -0.00233769   -0.00032824
     atom  397 type  2   force =    -0.00277893   -0.00233778   -0.00032841
     atom  398 type  2   force =    -0.00277997   -0.00233785   -0.00032833
     atom  399 type  2   force =    -0.00277918   -0.00233793   -0.00032863
     atom  400 type  2   force =    -0.00277945   -0.00233817   -0.00032814
     atom  401 type  3   force =     0.00000000    0.00000000    0.00000000
     atom  402 type  3   force =     0.00000000    0.00000000    0.00000000
     atom  403 type  3   force =     0.00000000    0.00000000    0.00000000
     atom  404 type  3   force =     0.00000000    0.00000000    0.00000000
     atom  405 type  3   force =     0.00000000    0.00000000    0.00000000
     atom  406 type  3   force =     0.00000000    0.00000000    0.00000000
     atom  407 type  3   force =     0.00000000    0.00000000    0.00000000
     atom  408 type  3   force =     0.00000000    0.00000000    0.00000000
     atom  409 type  2   force =     0.00157261    0.00087804   -0.00038487
     atom  410 type  2   force =     0.00157239    0.00087722   -0.00038513
     atom  411 type  2   force =     0.00157189    0.00087799   -0.00038522
     atom  412 type  2   force =     0.00157234    0.00087720   -0.00038513
     atom  413 type  2   force =     0.00157205    0.00087702   -0.00038492
     atom  414 type  2   force =     0.00157226    0.00087753   -0.00038507
     atom  415 type  2   force =     0.00157203    0.00087731   -0.00038523
     atom  416 type  2   force =     0.00157214    0.00087721   -0.00038495
     atom  417 type  3   force =     0.00000000    0.00000000    0.00000000
     atom  418 type  3   force =     0.00000000    0.00000000    0.00000000
     atom  419 type  3   force =     0.00000000    0.00000000    0.00000000
     atom  420 type  3   force =     0.00000000    0.00000000    0.00000000
     atom  421 type  3   force =     0.00000000    0.00000000    0.00000000
     atom  422 type  3   force =     0.00000000    0.00000000    0.00000000
     atom  423 type  3   force =     0.00000000    0.00000000    0.00000000
     atom  424 type  3   force =     0.00000000    0.00000000    0.00000000
     atom  425 type  1   force =     0.00412438   -0.00325627    0.00297491
     atom  426 type  1   force =     0.00412445   -0.00325626    0.00297510
     atom  427 type  1   force =     0.00412408   -0.00325618    0.00297478
     atom  428 type  1   force =     0.00412355   -0.00325610    0.00297463
     atom  429 type  1   force =     0.00412559   -0.00325659    0.00297562
     atom  430 type  1   force =     0.00412430   -0.00325626    0.00297505
     atom  431 type  1   force =     0.00412426   -0.00325622    0.00297490
     atom  432 type  1   force =     0.00412415   -0.00325628    0.00297487
     atom  433 type  1   force =     0.00666366    0.01284247    0.00256024
     atom  434 type  1   force =     0.00666372    0.01284251    0.00256031
     atom  435 type  1   force =     0.00666354    0.01284236    0.00256020
     atom  436 type  1   force =     0.00666300    0.01284218    0.00256012
     atom  437 type  1   force =     0.00666394    0.01284262    0.00256044
     atom  438 type  1   force =     0.00666374    0.01284263    0.00256030
     atom  439 type  1   force =     0.00666365    0.01284240    0.00256038
     atom  440 type  1   force =     0.00666368    0.01284250    0.00256028
     atom  441 type  2   force =     0.00232316   -0.00172085   -0.00022403
     atom  442 type  2   force =     0.00232315   -0.00172108   -0.00022327
     atom  443 type  2   force =     0.00232309   -0.00172056   -0.00022374
     atom  444 type  2   force =     0.00232276   -0.00172036   -0.00022315
     atom  445 type  2   force =     0.00232307   -0.00172116   -0.00022327
     atom  446 type  2   force =     0.00232248   -0.00172108   -0.00022360
     atom  447 type  2   force =     0.00232324   -0.00172099   -0.00022372
     atom  448 type  2   force =     0.00232300   -0.00172087   -0.00022349
     atom  449 type  3   force =     0.00000000    0.00000000    0.00000000
     atom  450 type  3   force =     0.00000000    0.00000000    0.00000000
     atom  451 type  3   force =     0.00000000    0.00000000    0.00000000
     atom  452 type  3   force =     0.00000000    0.00000000    0.00000000
     atom  453 type  3   force =     0.00000000    0.00000000    0.00000000
     atom  454 type  3   force =     0.00000000    0.00000000    0.00000000
     atom  455 type  3   force =     0.00000000    0.00000000    0.00000000
     atom  456 type  3   force =     0.00000000    0.00000000    0.00000000
     atom  457 type  1   force =    -0.01083142   -0.00403855    0.00097750
     atom  458 type  1   force =    -0.01083053   -0.00403819    0.00097780
     atom  459 type  1   force =    -0.01083135   -0.00403845    0.00097755
     atom  460 type  1   force =    -0.01083110   -0.00403833    0.00097746
     atom  461 type  1   force =    -0.01083130   -0.00403862    0.00097757
     atom  462 type  1   force =    -0.01083169   -0.00403867    0.00097753
     atom  463 type  1   force =    -0.01083120   -0.00403853    0.00097748
     atom  464 type  1   force =    -0.01083151   -0.00403863    0.00097756
     atom  465 type  2   force =     0.00379941   -0.00229168    0.00000335
     atom  466 type  2   force =     0.00380054   -0.00229001    0.00000116
     atom  467 type  2   force =     0.00380029   -0.00229024    0.00000102
     atom  468 type  2   force =     0.00380042   -0.00229012    0.00000062
     atom  469 type  2   force =     0.00380074   -0.00229051    0.00000103
     atom  470 type  2   force =     0.00380046   -0.00229063    0.00000139
     atom  471 type  2   force =     0.00380026   -0.00229021    0.00000104
     atom  472 type  2   force =     0.00380045   -0.00228994    0.00000111
     atom  473 type  3   force =     0.00000000    0.00000000    0.00000000
     atom  474 type  3   force =     0.00000000    0.00000000    0.00000000
     atom  475 type  3   force =     0.00000000    0.00000000    0.00000000
     atom  476 type  3   force =     0.00000000    0.00000000    0.00000000
     atom  477 type  3   force =     0.00000000    0.00000000    0.00000000
     atom  478 type  3   force =     0.00000000    0.00000000    0.00000000
     atom  479 type  3   force =     0.00000000    0.00000000    0.00000000
     atom  480 type  3   force =     0.00000000    0.00000000    0.00000000
     atom  481 type  4   force =     0.00000000    0.00000000    0.00000000
     atom  482 type  4   force =     0.00000000    0.00000000    0.00000000
     atom  483 type  4   force =     0.00000000    0.00000000    0.00000000
     atom  484 type  4   force =     0.00000000    0.00000000    0.00000000
     atom  485 type  4   force =     0.00000000    0.00000000    0.00000000
     atom  486 type  4   force =     0.00000000    0.00000000    0.00000000
     atom  487 type  4   force =     0.00000000    0.00000000    0.00000000
     atom  488 type  4   force =     0.00000000    0.00000000    0.00000000
     atom  489 type  4   force =     0.00000000    0.00000000    0.00000000
     atom  490 type  4   force =     0.00000000    0.00000000    0.00000000
     atom  491 type  4   force =     0.00000000    0.00000000    0.00000000
     atom  492 type  4   force =     0.00000000    0.00000000    0.00000000
     atom  493 type  4   force =     0.00000000    0.00000000    0.00000000
     atom  494 type  4   force =     0.00000000    0.00000000    0.00000000
     atom  495 type  4   force =     0.00000000    0.00000000    0.00000000
     atom  496 type  4   force =     0.00000000    0.00000000    0.00000000
     The Hubbard contrib.    to forces
     atom    1 type  1   force =     0.00000000    0.00000000    0.00000000
     atom    2 type  1   force =     0.00000000    0.00000000    0.00000000
     atom    3 type  1   force =     0.00000000    0.00000000    0.00000000
     atom    4 type  1   force =     0.00000000    0.00000000    0.00000000
     atom    5 type  1   force =     0.00000000    0.00000000    0.00000000
     atom    6 type  1   force =     0.00000000    0.00000000    0.00000000
     atom    7 type  1   force =     0.00000000    0.00000000    0.00000000
     atom    8 type  1   force =     0.00000000    0.00000000    0.00000000
     atom    9 type  1   force =     0.00000000    0.00000000    0.00000000
     atom   10 type  1   force =     0.00000000    0.00000000    0.00000000
     atom   11 type  1   force =     0.00000000    0.00000000    0.00000000
     atom   12 type  1   force =     0.00000000    0.00000000    0.00000000
     atom   13 type  1   force =     0.00000000    0.00000000    0.00000000
     atom   14 type  1   force =     0.00000000    0.00000000    0.00000000
     atom   15 type  1   force =     0.00000000    0.00000000    0.00000000
     atom   16 type  1   force =     0.00000000    0.00000000    0.00000000
     atom   17 type  2   force =     0.00000000    0.00000000    0.00000000
     atom   18 type  2   force =     0.00000000    0.00000000    0.00000000
     atom   19 type  2   force =     0.00000000    0.00000000    0.00000000
     atom   20 type  2   force =     0.00000000    0.00000000    0.00000000
     atom   21 type  2   force =     0.00000000    0.00000000    0.00000000
     atom   22 type  2   force =     0.00000000    0.00000000    0.00000000
     atom   23 type  2   force =     0.00000000    0.00000000    0.00000000
     atom   24 type  2   force =     0.00000000    0.00000000    0.00000000
     atom   25 type  2   force =     0.00000000    0.00000000    0.00000000
     atom   26 type  2   force =     0.00000000    0.00000000    0.00000000
     atom   27 type  2   force =     0.00000000    0.00000000    0.00000000
     atom   28 type  2   force =     0.00000000    0.00000000    0.00000000
     atom   29 type  2   force =     0.00000000    0.00000000    0.00000000
     atom   30 type  2   force =     0.00000000    0.00000000    0.00000000
     atom   31 type  2   force =     0.00000000    0.00000000    0.00000000
     atom   32 type  2   force =     0.00000000    0.00000000    0.00000000
     atom   33 type  2   force =     0.00000000    0.00000000    0.00000000
     atom   34 type  2   force =     0.00000000    0.00000000    0.00000000
     atom   35 type  2   force =     0.00000000    0.00000000    0.00000000
     atom   36 type  2   force =     0.00000000    0.00000000    0.00000000
     atom   37 type  2   force =     0.00000000    0.00000000    0.00000000
     atom   38 type  2   force =     0.00000000    0.00000000    0.00000000
     atom   39 type  2   force =     0.00000000    0.00000000    0.00000000
     atom   40 type  2   force =     0.00000000    0.00000000    0.00000000
     atom   41 type  3   force =     0.00000000    0.00000000    0.00000000
     atom   42 type  3   force =     0.00000000    0.00000000    0.00000000
     atom   43 type  3   force =     0.00000000    0.00000000    0.00000000
     atom   44 type  3   force =     0.00000000    0.00000000    0.00000000
     atom   45 type  3   force =     0.00000000    0.00000000    0.00000000
     atom   46 type  3   force =     0.00000000    0.00000000    0.00000000
     atom   47 type  3   force =     0.00000000    0.00000000    0.00000000
     atom   48 type  3   force =     0.00000000    0.00000000    0.00000000
     atom   49 type  2   force =     0.00000000    0.00000000    0.00000000
     atom   50 type  2   force =     0.00000000    0.00000000    0.00000000
     atom   51 type  2   force =     0.00000000    0.00000000    0.00000000
     atom   52 type  2   force =     0.00000000    0.00000000    0.00000000
     atom   53 type  2   force =     0.00000000    0.00000000    0.00000000
     atom   54 type  2   force =     0.00000000    0.00000000    0.00000000
     atom   55 type  2   force =     0.00000000    0.00000000    0.00000000
     atom   56 type  2   force =     0.00000000    0.00000000    0.00000000
     atom   57 type  3   force =     0.00000000    0.00000000    0.00000000
     atom   58 type  3   force =     0.00000000    0.00000000    0.00000000
     atom   59 type  3   force =     0.00000000    0.00000000    0.00000000
     atom   60 type  3   force =     0.00000000    0.00000000    0.00000000
     atom   61 type  3   force =     0.00000000    0.00000000    0.00000000
     atom   62 type  3   force =     0.00000000    0.00000000    0.00000000
     atom   63 type  3   force =     0.00000000    0.00000000    0.00000000
     atom   64 type  3   force =     0.00000000    0.00000000    0.00000000
     atom   65 type  1   force =     0.00000000    0.00000000    0.00000000
     atom   66 type  1   force =     0.00000000    0.00000000    0.00000000
     atom   67 type  1   force =     0.00000000    0.00000000    0.00000000
     atom   68 type  1   force =     0.00000000    0.00000000    0.00000000
     atom   69 type  1   force =     0.00000000    0.00000000    0.00000000
     atom   70 type  1   force =     0.00000000    0.00000000    0.00000000
     atom   71 type  1   force =     0.00000000    0.00000000    0.00000000
     atom   72 type  1   force =     0.00000000    0.00000000    0.00000000
     atom   73 type  1   force =     0.00000000    0.00000000    0.00000000
     atom   74 type  1   force =     0.00000000    0.00000000    0.00000000
     atom   75 type  1   force =     0.00000000    0.00000000    0.00000000
     atom   76 type  1   force =     0.00000000    0.00000000    0.00000000
     atom   77 type  1   force =     0.00000000    0.00000000    0.00000000
     atom   78 type  1   force =     0.00000000    0.00000000    0.00000000
     atom   79 type  1   force =     0.00000000    0.00000000    0.00000000
     atom   80 type  1   force =     0.00000000    0.00000000    0.00000000
     atom   81 type  2   force =     0.00000000    0.00000000    0.00000000
     atom   82 type  2   force =     0.00000000    0.00000000    0.00000000
     atom   83 type  2   force =     0.00000000    0.00000000    0.00000000
     atom   84 type  2   force =     0.00000000    0.00000000    0.00000000
     atom   85 type  2   force =     0.00000000    0.00000000    0.00000000
     atom   86 type  2   force =     0.00000000    0.00000000    0.00000000
     atom   87 type  2   force =     0.00000000    0.00000000    0.00000000
     atom   88 type  2   force =     0.00000000    0.00000000    0.00000000
     atom   89 type  3   force =     0.00000000    0.00000000    0.00000000
     atom   90 type  3   force =     0.00000000    0.00000000    0.00000000
     atom   91 type  3   force =     0.00000000    0.00000000    0.00000000
     atom   92 type  3   force =     0.00000000    0.00000000    0.00000000
     atom   93 type  3   force =     0.00000000    0.00000000    0.00000000
     atom   94 type  3   force =     0.00000000    0.00000000    0.00000000
     atom   95 type  3   force =     0.00000000    0.00000000    0.00000000
     atom   96 type  3   force =     0.00000000    0.00000000    0.00000000
     atom   97 type  1   force =     0.00000000    0.00000000    0.00000000
     atom   98 type  1   force =     0.00000000    0.00000000    0.00000000
     atom   99 type  1   force =     0.00000000    0.00000000    0.00000000
     atom  100 type  1   force =     0.00000000    0.00000000    0.00000000
     atom  101 type  1   force =     0.00000000    0.00000000    0.00000000
     atom  102 type  1   force =     0.00000000    0.00000000    0.00000000
     atom  103 type  1   force =     0.00000000    0.00000000    0.00000000
     atom  104 type  1   force =     0.00000000    0.00000000    0.00000000
     atom  105 type  2   force =     0.00000000    0.00000000    0.00000000
     atom  106 type  2   force =     0.00000000    0.00000000    0.00000000
     atom  107 type  2   force =     0.00000000    0.00000000    0.00000000
     atom  108 type  2   force =     0.00000000    0.00000000    0.00000000
     atom  109 type  2   force =     0.00000000    0.00000000    0.00000000
     atom  110 type  2   force =     0.00000000    0.00000000    0.00000000
     atom  111 type  2   force =     0.00000000    0.00000000    0.00000000
     atom  112 type  2   force =     0.00000000    0.00000000    0.00000000
     atom  113 type  3   force =     0.00000000    0.00000000    0.00000000
     atom  114 type  3   force =     0.00000000    0.00000000    0.00000000
     atom  115 type  3   force =     0.00000000    0.00000000    0.00000000
     atom  116 type  3   force =     0.00000000    0.00000000    0.00000000
     atom  117 type  3   force =     0.00000000    0.00000000    0.00000000
     atom  118 type  3   force =     0.00000000    0.00000000    0.00000000
     atom  119 type  3   force =     0.00000000    0.00000000    0.00000000
     atom  120 type  3   force =     0.00000000    0.00000000    0.00000000
     atom  121 type  1   force =     0.00000000    0.00000000    0.00000000
     atom  122 type  1   force =     0.00000000    0.00000000    0.00000000
     atom  123 type  1   force =     0.00000000    0.00000000    0.00000000
     atom  124 type  1   force =     0.00000000    0.00000000    0.00000000
     atom  125 type  1   force =     0.00000000    0.00000000    0.00000000
     atom  126 type  1   force =     0.00000000    0.00000000    0.00000000
     atom  127 type  1   force =     0.00000000    0.00000000    0.00000000
     atom  128 type  1   force =     0.00000000    0.00000000    0.00000000
     atom  129 type  1   force =     0.00000000    0.00000000    0.00000000
     atom  130 type  1   force =     0.00000000    0.00000000    0.00000000
     atom  131 type  1   force =     0.00000000    0.00000000    0.00000000
     atom  132 type  1   force =     0.00000000    0.00000000    0.00000000
     atom  133 type  1   force =     0.00000000    0.00000000    0.00000000
     atom  134 type  1   force =     0.00000000    0.00000000    0.00000000
     atom  135 type  1   force =     0.00000000    0.00000000    0.00000000
     atom  136 type  1   force =     0.00000000    0.00000000    0.00000000
     atom  137 type  2   force =     0.00000000    0.00000000    0.00000000
     atom  138 type  2   force =     0.00000000    0.00000000    0.00000000
     atom  139 type  2   force =     0.00000000    0.00000000    0.00000000
     atom  140 type  2   force =     0.00000000    0.00000000    0.00000000
     atom  141 type  2   force =     0.00000000    0.00000000    0.00000000
     atom  142 type  2   force =     0.00000000    0.00000000    0.00000000
     atom  143 type  2   force =     0.00000000    0.00000000    0.00000000
     atom  144 type  2   force =     0.00000000    0.00000000    0.00000000
     atom  145 type  2   force =     0.00000000    0.00000000    0.00000000
     atom  146 type  2   force =     0.00000000    0.00000000    0.00000000
     atom  147 type  2   force =     0.00000000    0.00000000    0.00000000
     atom  148 type  2   force =     0.00000000    0.00000000    0.00000000
     atom  149 type  2   force =     0.00000000    0.00000000    0.00000000
     atom  150 type  2   force =     0.00000000    0.00000000    0.00000000
     atom  151 type  2   force =     0.00000000    0.00000000    0.00000000
     atom  152 type  2   force =     0.00000000    0.00000000    0.00000000
     atom  153 type  2   force =     0.00000000    0.00000000    0.00000000
     atom  154 type  2   force =     0.00000000    0.00000000    0.00000000
     atom  155 type  2   force =     0.00000000    0.00000000    0.00000000
     atom  156 type  2   force =     0.00000000    0.00000000    0.00000000
     atom  157 type  2   force =     0.00000000    0.00000000    0.00000000
     atom  158 type  2   force =     0.00000000    0.00000000    0.00000000
     atom  159 type  2   force =     0.00000000    0.00000000    0.00000000
     atom  160 type  2   force =     0.00000000    0.00000000    0.00000000
     atom  161 type  3   force =     0.00000000    0.00000000    0.00000000
     atom  162 type  3   force =     0.00000000    0.00000000    0.00000000
     atom  163 type  3   force =     0.00000000    0.00000000    0.00000000
     atom  164 type  3   force =     0.00000000    0.00000000    0.00000000
     atom  165 type  3   force =     0.00000000    0.00000000    0.00000000
     atom  166 type  3   force =     0.00000000    0.00000000    0.00000000
     atom  167 type  3   force =     0.00000000    0.00000000    0.00000000
     atom  168 type  3   force =     0.00000000    0.00000000    0.00000000
     atom  169 type  2   force =     0.00000000    0.00000000    0.00000000
     atom  170 type  2   force =     0.00000000    0.00000000    0.00000000
     atom  171 type  2   force =     0.00000000    0.00000000    0.00000000
     atom  172 type  2   force =     0.00000000    0.00000000    0.00000000
     atom  173 type  2   force =     0.00000000    0.00000000    0.00000000
     atom  174 type  2   force =     0.00000000    0.00000000    0.00000000
     atom  175 type  2   force =     0.00000000    0.00000000    0.00000000
     atom  176 type  2   force =     0.00000000    0.00000000    0.00000000
     atom  177 type  3   force =     0.00000000    0.00000000    0.00000000
     atom  178 type  3   force =     0.00000000    0.00000000    0.00000000
     atom  179 type  3   force =     0.00000000    0.00000000    0.00000000
     atom  180 type  3   force =     0.00000000    0.00000000    0.00000000
     atom  181 type  3   force =     0.00000000    0.00000000    0.00000000
     atom  182 type  3   force =     0.00000000    0.00000000    0.00000000
     atom  183 type  3   force =     0.00000000    0.00000000    0.00000000
     atom  184 type  3   force =     0.00000000    0.00000000    0.00000000
     atom  185 type  1   force =     0.00000000    0.00000000    0.00000000
     atom  186 type  1   force =     0.00000000    0.00000000    0.00000000
     atom  187 type  1   force =     0.00000000    0.00000000    0.00000000
     atom  188 type  1   force =     0.00000000    0.00000000    0.00000000
     atom  189 type  1   force =     0.00000000    0.00000000    0.00000000
     atom  190 type  1   force =     0.00000000    0.00000000    0.00000000
     atom  191 type  1   force =     0.00000000    0.00000000    0.00000000
     atom  192 type  1   force =     0.00000000    0.00000000    0.00000000
     atom  193 type  1   force =     0.00000000    0.00000000    0.00000000
     atom  194 type  1   force =     0.00000000    0.00000000    0.00000000
     atom  195 type  1   force =     0.00000000    0.00000000    0.00000000
     atom  196 type  1   force =     0.00000000    0.00000000    0.00000000
     atom  197 type  1   force =     0.00000000    0.00000000    0.00000000
     atom  198 type  1   force =     0.00000000    0.00000000    0.00000000
     atom  199 type  1   force =     0.00000000    0.00000000    0.00000000
     atom  200 type  1   force =     0.00000000    0.00000000    0.00000000
     atom  201 type  2   force =     0.00000000    0.00000000    0.00000000
     atom  202 type  2   force =     0.00000000    0.00000000    0.00000000
     atom  203 type  2   force =     0.00000000    0.00000000    0.00000000
     atom  204 type  2   force =     0.00000000    0.00000000    0.00000000
     atom  205 type  2   force =     0.00000000    0.00000000    0.00000000
     atom  206 type  2   force =     0.00000000    0.00000000    0.00000000
     atom  207 type  2   force =     0.00000000    0.00000000    0.00000000
     atom  208 type  2   force =     0.00000000    0.00000000    0.00000000
     atom  209 type  3   force =     0.00000000    0.00000000    0.00000000
     atom  210 type  3   force =     0.00000000    0.00000000    0.00000000
     atom  211 type  3   force =     0.00000000    0.00000000    0.00000000
     atom  212 type  3   force =     0.00000000    0.00000000    0.00000000
     atom  213 type  3   force =     0.00000000    0.00000000    0.00000000
     atom  214 type  3   force =     0.00000000    0.00000000    0.00000000
     atom  215 type  3   force =     0.00000000    0.00000000    0.00000000
     atom  216 type  3   force =     0.00000000    0.00000000    0.00000000
     atom  217 type  1   force =     0.00000000    0.00000000    0.00000000
     atom  218 type  1   force =     0.00000000    0.00000000    0.00000000
     atom  219 type  1   force =     0.00000000    0.00000000    0.00000000
     atom  220 type  1   force =     0.00000000    0.00000000    0.00000000
     atom  221 type  1   force =     0.00000000    0.00000000    0.00000000
     atom  222 type  1   force =     0.00000000    0.00000000    0.00000000
     atom  223 type  1   force =     0.00000000    0.00000000    0.00000000
     atom  224 type  1   force =     0.00000000    0.00000000    0.00000000
     atom  225 type  2   force =     0.00000000    0.00000000    0.00000000
     atom  226 type  2   force =     0.00000000    0.00000000    0.00000000
     atom  227 type  2   force =     0.00000000    0.00000000    0.00000000
     atom  228 type  2   force =     0.00000000    0.00000000    0.00000000
     atom  229 type  2   force =     0.00000000    0.00000000    0.00000000
     atom  230 type  2   force =     0.00000000    0.00000000    0.00000000
     atom  231 type  2   force =     0.00000000    0.00000000    0.00000000
     atom  232 type  2   force =     0.00000000    0.00000000    0.00000000
     atom  233 type  3   force =     0.00000000    0.00000000    0.00000000
     atom  234 type  3   force =     0.00000000    0.00000000    0.00000000
     atom  235 type  3   force =     0.00000000    0.00000000    0.00000000
     atom  236 type  3   force =     0.00000000    0.00000000    0.00000000
     atom  237 type  3   force =     0.00000000    0.00000000    0.00000000
     atom  238 type  3   force =     0.00000000    0.00000000    0.00000000
     atom  239 type  3   force =     0.00000000    0.00000000    0.00000000
     atom  240 type  3   force =     0.00000000    0.00000000    0.00000000
     atom  241 type  1   force =     0.00000000    0.00000000    0.00000000
     atom  242 type  1   force =     0.00000000    0.00000000    0.00000000
     atom  243 type  1   force =     0.00000000    0.00000000    0.00000000
     atom  244 type  1   force =     0.00000000    0.00000000    0.00000000
     atom  245 type  1   force =     0.00000000    0.00000000    0.00000000
     atom  246 type  1   force =     0.00000000    0.00000000    0.00000000
     atom  247 type  1   force =     0.00000000    0.00000000    0.00000000
     atom  248 type  1   force =     0.00000000    0.00000000    0.00000000
     atom  249 type  1   force =     0.00000000    0.00000000    0.00000000
     atom  250 type  1   force =     0.00000000    0.00000000    0.00000000
     atom  251 type  1   force =     0.00000000    0.00000000    0.00000000
     atom  252 type  1   force =     0.00000000    0.00000000    0.00000000
     atom  253 type  1   force =     0.00000000    0.00000000    0.00000000
     atom  254 type  1   force =     0.00000000    0.00000000    0.00000000
     atom  255 type  1   force =     0.00000000    0.00000000    0.00000000
     atom  256 type  1   force =     0.00000000    0.00000000    0.00000000
     atom  257 type  2   force =     0.00000000    0.00000000    0.00000000
     atom  258 type  2   force =     0.00000000    0.00000000    0.00000000
     atom  259 type  2   force =     0.00000000    0.00000000    0.00000000
     atom  260 type  2   force =     0.00000000    0.00000000    0.00000000
     atom  261 type  2   force =     0.00000000    0.00000000    0.00000000
     atom  262 type  2   force =     0.00000000    0.00000000    0.00000000
     atom  263 type  2   force =     0.00000000    0.00000000    0.00000000
     atom  264 type  2   force =     0.00000000    0.00000000    0.00000000
     atom  265 type  2   force =     0.00000000    0.00000000    0.00000000
     atom  266 type  2   force =     0.00000000    0.00000000    0.00000000
     atom  267 type  2   force =     0.00000000    0.00000000    0.00000000
     atom  268 type  2   force =     0.00000000    0.00000000    0.00000000
     atom  269 type  2   force =     0.00000000    0.00000000    0.00000000
     atom  270 type  2   force =     0.00000000    0.00000000    0.00000000
     atom  271 type  2   force =     0.00000000    0.00000000    0.00000000
     atom  272 type  2   force =     0.00000000    0.00000000    0.00000000
     atom  273 type  2   force =     0.00000000    0.00000000    0.00000000
     atom  274 type  2   force =     0.00000000    0.00000000    0.00000000
     atom  275 type  2   force =     0.00000000    0.00000000    0.00000000
     atom  276 type  2   force =     0.00000000    0.00000000    0.00000000
     atom  277 type  2   force =     0.00000000    0.00000000    0.00000000
     atom  278 type  2   force =     0.00000000    0.00000000    0.00000000
     atom  279 type  2   force =     0.00000000    0.00000000    0.00000000
     atom  280 type  2   force =     0.00000000    0.00000000    0.00000000
     atom  281 type  3   force =     0.00000000    0.00000000    0.00000000
     atom  282 type  3   force =     0.00000000    0.00000000    0.00000000
     atom  283 type  3   force =     0.00000000    0.00000000    0.00000000
     atom  284 type  3   force =     0.00000000    0.00000000    0.00000000
     atom  285 type  3   force =     0.00000000    0.00000000    0.00000000
     atom  286 type  3   force =     0.00000000    0.00000000    0.00000000
     atom  287 type  3   force =     0.00000000    0.00000000    0.00000000
     atom  288 type  3   force =     0.00000000    0.00000000    0.00000000
     atom  289 type  2   force =     0.00000000    0.00000000    0.00000000
     atom  290 type  2   force =     0.00000000    0.00000000    0.00000000
     atom  291 type  2   force =     0.00000000    0.00000000    0.00000000
     atom  292 type  2   force =     0.00000000    0.00000000    0.00000000
     atom  293 type  2   force =     0.00000000    0.00000000    0.00000000
     atom  294 type  2   force =     0.00000000    0.00000000    0.00000000
     atom  295 type  2   force =     0.00000000    0.00000000    0.00000000
     atom  296 type  2   force =     0.00000000    0.00000000    0.00000000
     atom  297 type  3   force =     0.00000000    0.00000000    0.00000000
     atom  298 type  3   force =     0.00000000    0.00000000    0.00000000
     atom  299 type  3   force =     0.00000000    0.00000000    0.00000000
     atom  300 type  3   force =     0.00000000    0.00000000    0.00000000
     atom  301 type  3   force =     0.00000000    0.00000000    0.00000000
     atom  302 type  3   force =     0.00000000    0.00000000    0.00000000
     atom  303 type  3   force =     0.00000000    0.00000000    0.00000000
     atom  304 type  3   force =     0.00000000    0.00000000    0.00000000
     atom  305 type  1   force =     0.00000000    0.00000000    0.00000000
     atom  306 type  1   force =     0.00000000    0.00000000    0.00000000
     atom  307 type  1   force =     0.00000000    0.00000000    0.00000000
     atom  308 type  1   force =     0.00000000    0.00000000    0.00000000
     atom  309 type  1   force =     0.00000000    0.00000000    0.00000000
     atom  310 type  1   force =     0.00000000    0.00000000    0.00000000
     atom  311 type  1   force =     0.00000000    0.00000000    0.00000000
     atom  312 type  1   force =     0.00000000    0.00000000    0.00000000
     atom  313 type  1   force =     0.00000000    0.00000000    0.00000000
     atom  314 type  1   force =     0.00000000    0.00000000    0.00000000
     atom  315 type  1   force =     0.00000000    0.00000000    0.00000000
     atom  316 type  1   force =     0.00000000    0.00000000    0.00000000
     atom  317 type  1   force =     0.00000000    0.00000000    0.00000000
     atom  318 type  1   force =     0.00000000    0.00000000    0.00000000
     atom  319 type  1   force =     0.00000000    0.00000000    0.00000000
     atom  320 type  1   force =     0.00000000    0.00000000    0.00000000
     atom  321 type  2   force =     0.00000000    0.00000000    0.00000000
     atom  322 type  2   force =     0.00000000    0.00000000    0.00000000
     atom  323 type  2   force =     0.00000000    0.00000000    0.00000000
     atom  324 type  2   force =     0.00000000    0.00000000    0.00000000
     atom  325 type  2   force =     0.00000000    0.00000000    0.00000000
     atom  326 type  2   force =     0.00000000    0.00000000    0.00000000
     atom  327 type  2   force =     0.00000000    0.00000000    0.00000000
     atom  328 type  2   force =     0.00000000    0.00000000    0.00000000
     atom  329 type  3   force =     0.00000000    0.00000000    0.00000000
     atom  330 type  3   force =     0.00000000    0.00000000    0.00000000
     atom  331 type  3   force =     0.00000000    0.00000000    0.00000000
     atom  332 type  3   force =     0.00000000    0.00000000    0.00000000
     atom  333 type  3   force =     0.00000000    0.00000000    0.00000000
     atom  334 type  3   force =     0.00000000    0.00000000    0.00000000
     atom  335 type  3   force =     0.00000000    0.00000000    0.00000000
     atom  336 type  3   force =     0.00000000    0.00000000    0.00000000
     atom  337 type  1   force =     0.00000000    0.00000000    0.00000000
     atom  338 type  1   force =     0.00000000    0.00000000    0.00000000
     atom  339 type  1   force =     0.00000000    0.00000000    0.00000000
     atom  340 type  1   force =     0.00000000    0.00000000    0.00000000
     atom  341 type  1   force =     0.00000000    0.00000000    0.00000000
     atom  342 type  1   force =     0.00000000    0.00000000    0.00000000
     atom  343 type  1   force =     0.00000000    0.00000000    0.00000000
     atom  344 type  1   force =     0.00000000    0.00000000    0.00000000
     atom  345 type  2   force =     0.00000000    0.00000000    0.00000000
     atom  346 type  2   force =     0.00000000    0.00000000    0.00000000
     atom  347 type  2   force =     0.00000000    0.00000000    0.00000000
     atom  348 type  2   force =     0.00000000    0.00000000    0.00000000
     atom  349 type  2   force =     0.00000000    0.00000000    0.00000000
     atom  350 type  2   force =     0.00000000    0.00000000    0.00000000
     atom  351 type  2   force =     0.00000000    0.00000000    0.00000000
     atom  352 type  2   force =     0.00000000    0.00000000    0.00000000
     atom  353 type  3   force =     0.00000000    0.00000000    0.00000000
     atom  354 type  3   force =     0.00000000    0.00000000    0.00000000
     atom  355 type  3   force =     0.00000000    0.00000000    0.00000000
     atom  356 type  3   force =     0.00000000    0.00000000    0.00000000
     atom  357 type  3   force =     0.00000000    0.00000000    0.00000000
     atom  358 type  3   force =     0.00000000    0.00000000    0.00000000
     atom  359 type  3   force =     0.00000000    0.00000000    0.00000000
     atom  360 type  3   force =     0.00000000    0.00000000    0.00000000
     atom  361 type  1   force =     0.00000000    0.00000000    0.00000000
     atom  362 type  1   force =     0.00000000    0.00000000    0.00000000
     atom  363 type  1   force =     0.00000000    0.00000000    0.00000000
     atom  364 type  1   force =     0.00000000    0.00000000    0.00000000
     atom  365 type  1   force =     0.00000000    0.00000000    0.00000000
     atom  366 type  1   force =     0.00000000    0.00000000    0.00000000
     atom  367 type  1   force =     0.00000000    0.00000000    0.00000000
     atom  368 type  1   force =     0.00000000    0.00000000    0.00000000
     atom  369 type  1   force =     0.00000000    0.00000000    0.00000000
     atom  370 type  1   force =     0.00000000    0.00000000    0.00000000
     atom  371 type  1   force =     0.00000000    0.00000000    0.00000000
     atom  372 type  1   force =     0.00000000    0.00000000    0.00000000
     atom  373 type  1   force =     0.00000000    0.00000000    0.00000000
     atom  374 type  1   force =     0.00000000    0.00000000    0.00000000
     atom  375 type  1   force =     0.00000000    0.00000000    0.00000000
     atom  376 type  1   force =     0.00000000    0.00000000    0.00000000
     atom  377 type  2   force =     0.00000000    0.00000000    0.00000000
     atom  378 type  2   force =     0.00000000    0.00000000    0.00000000
     atom  379 type  2   force =     0.00000000    0.00000000    0.00000000
     atom  380 type  2   force =     0.00000000    0.00000000    0.00000000
     atom  381 type  2   force =     0.00000000    0.00000000    0.00000000
     atom  382 type  2   force =     0.00000000    0.00000000    0.00000000
     atom  383 type  2   force =     0.00000000    0.00000000    0.00000000
     atom  384 type  2   force =     0.00000000    0.00000000    0.00000000
     atom  385 type  2   force =     0.00000000    0.00000000    0.00000000
     atom  386 type  2   force =     0.00000000    0.00000000    0.00000000
     atom  387 type  2   force =     0.00000000    0.00000000    0.00000000
     atom  388 type  2   force =     0.00000000    0.00000000    0.00000000
     atom  389 type  2   force =     0.00000000    0.00000000    0.00000000
     atom  390 type  2   force =     0.00000000    0.00000000    0.00000000
     atom  391 type  2   force =     0.00000000    0.00000000    0.00000000
     atom  392 type  2   force =     0.00000000    0.00000000    0.00000000
     atom  393 type  2   force =     0.00000000    0.00000000    0.00000000
     atom  394 type  2   force =     0.00000000    0.00000000    0.00000000
     atom  395 type  2   force =     0.00000000    0.00000000    0.00000000
     atom  396 type  2   force =     0.00000000    0.00000000    0.00000000
     atom  397 type  2   force =     0.00000000    0.00000000    0.00000000
     atom  398 type  2   force =     0.00000000    0.00000000    0.00000000
     atom  399 type  2   force =     0.00000000    0.00000000    0.00000000
     atom  400 type  2   force =     0.00000000    0.00000000    0.00000000
     atom  401 type  3   force =     0.00000000    0.00000000    0.00000000
     atom  402 type  3   force =     0.00000000    0.00000000    0.00000000
     atom  403 type  3   force =     0.00000000    0.00000000    0.00000000
     atom  404 type  3   force =     0.00000000    0.00000000    0.00000000
     atom  405 type  3   force =     0.00000000    0.00000000    0.00000000
     atom  406 type  3   force =     0.00000000    0.00000000    0.00000000
     atom  407 type  3   force =     0.00000000    0.00000000    0.00000000
     atom  408 type  3   force =     0.00000000    0.00000000    0.00000000
     atom  409 type  2   force =     0.00000000    0.00000000    0.00000000
     atom  410 type  2   force =     0.00000000    0.00000000    0.00000000
     atom  411 type  2   force =     0.00000000    0.00000000    0.00000000
     atom  412 type  2   force =     0.00000000    0.00000000    0.00000000
     atom  413 type  2   force =     0.00000000    0.00000000    0.00000000
     atom  414 type  2   force =     0.00000000    0.00000000    0.00000000
     atom  415 type  2   force =     0.00000000    0.00000000    0.00000000
     atom  416 type  2   force =     0.00000000    0.00000000    0.00000000
     atom  417 type  3   force =     0.00000000    0.00000000    0.00000000
     atom  418 type  3   force =     0.00000000    0.00000000    0.00000000
     atom  419 type  3   force =     0.00000000    0.00000000    0.00000000
     atom  420 type  3   force =     0.00000000    0.00000000    0.00000000
     atom  421 type  3   force =     0.00000000    0.00000000    0.00000000
     atom  422 type  3   force =     0.00000000    0.00000000    0.00000000
     atom  423 type  3   force =     0.00000000    0.00000000    0.00000000
     atom  424 type  3   force =     0.00000000    0.00000000    0.00000000
     atom  425 type  1   force =     0.00000000    0.00000000    0.00000000
     atom  426 type  1   force =     0.00000000    0.00000000    0.00000000
     atom  427 type  1   force =     0.00000000    0.00000000    0.00000000
     atom  428 type  1   force =     0.00000000    0.00000000    0.00000000
     atom  429 type  1   force =     0.00000000    0.00000000    0.00000000
     atom  430 type  1   force =     0.00000000    0.00000000    0.00000000
     atom  431 type  1   force =     0.00000000    0.00000000    0.00000000
     atom  432 type  1   force =     0.00000000    0.00000000    0.00000000
     atom  433 type  1   force =     0.00000000    0.00000000    0.00000000
     atom  434 type  1   force =     0.00000000    0.00000000    0.00000000
     atom  435 type  1   force =     0.00000000    0.00000000    0.00000000
     atom  436 type  1   force =     0.00000000    0.00000000    0.00000000
     atom  437 type  1   force =     0.00000000    0.00000000    0.00000000
     atom  438 type  1   force =     0.00000000    0.00000000    0.00000000
     atom  439 type  1   force =     0.00000000    0.00000000    0.00000000
     atom  440 type  1   force =     0.00000000    0.00000000    0.00000000
     atom  441 type  2   force =     0.00000000    0.00000000    0.00000000
     atom  442 type  2   force =     0.00000000    0.00000000    0.00000000
     atom  443 type  2   force =     0.00000000    0.00000000    0.00000000
     atom  444 type  2   force =     0.00000000    0.00000000    0.00000000
     atom  445 type  2   force =     0.00000000    0.00000000    0.00000000
     atom  446 type  2   force =     0.00000000    0.00000000    0.00000000
     atom  447 type  2   force =     0.00000000    0.00000000    0.00000000
     atom  448 type  2   force =     0.00000000    0.00000000    0.00000000
     atom  449 type  3   force =     0.00000000    0.00000000    0.00000000
     atom  450 type  3   force =     0.00000000    0.00000000    0.00000000
     atom  451 type  3   force =     0.00000000    0.00000000    0.00000000
     atom  452 type  3   force =     0.00000000    0.00000000    0.00000000
     atom  453 type  3   force =     0.00000000    0.00000000    0.00000000
     atom  454 type  3   force =     0.00000000    0.00000000    0.00000000
     atom  455 type  3   force =     0.00000000    0.00000000    0.00000000
     atom  456 type  3   force =     0.00000000    0.00000000    0.00000000
     atom  457 type  1   force =     0.00000000    0.00000000    0.00000000
     atom  458 type  1   force =     0.00000000    0.00000000    0.00000000
     atom  459 type  1   force =     0.00000000    0.00000000    0.00000000
     atom  460 type  1   force =     0.00000000    0.00000000    0.00000000
     atom  461 type  1   force =     0.00000000    0.00000000    0.00000000
     atom  462 type  1   force =     0.00000000    0.00000000    0.00000000
     atom  463 type  1   force =     0.00000000    0.00000000    0.00000000
     atom  464 type  1   force =     0.00000000    0.00000000    0.00000000
     atom  465 type  2   force =     0.00000000    0.00000000    0.00000000
     atom  466 type  2   force =     0.00000000    0.00000000    0.00000000
     atom  467 type  2   force =     0.00000000    0.00000000    0.00000000
     atom  468 type  2   force =     0.00000000    0.00000000    0.00000000
     atom  469 type  2   force =     0.00000000    0.00000000    0.00000000
     atom  470 type  2   force =     0.00000000    0.00000000    0.00000000
     atom  471 type  2   force =     0.00000000    0.00000000    0.00000000
     atom  472 type  2   force =     0.00000000    0.00000000    0.00000000
     atom  473 type  3   force =     0.00000000    0.00000000    0.00000000
     atom  474 type  3   force =     0.00000000    0.00000000    0.00000000
     atom  475 type  3   force =     0.00000000    0.00000000    0.00000000
     atom  476 type  3   force =     0.00000000    0.00000000    0.00000000
     atom  477 type  3   force =     0.00000000    0.00000000    0.00000000
     atom  478 type  3   force =     0.00000000    0.00000000    0.00000000
     atom  479 type  3   force =     0.00000000    0.00000000    0.00000000
     atom  480 type  3   force =     0.00000000    0.00000000    0.00000000
     atom  481 type  4   force =     0.00000000    0.00000000    0.00000000
     atom  482 type  4   force =     0.00000000    0.00000000    0.00000000
     atom  483 type  4   force =     0.00000000    0.00000000    0.00000000
     atom  484 type  4   force =     0.00000000    0.00000000    0.00000000
     atom  485 type  4   force =     0.00000000    0.00000000    0.00000000
     atom  486 type  4   force =     0.00000000    0.00000000    0.00000000
     atom  487 type  4   force =     0.00000000    0.00000000    0.00000000
     atom  488 type  4   force =     0.00000000    0.00000000    0.00000000
     atom  489 type  4   force =     0.00000000    0.00000000    0.00000000
     atom  490 type  4   force =     0.00000000    0.00000000    0.00000000
     atom  491 type  4   force =     0.00000000    0.00000000    0.00000000
     atom  492 type  4   force =     0.00000000    0.00000000    0.00000000
     atom  493 type  4   force =     0.00000000    0.00000000    0.00000000
     atom  494 type  4   force =     0.00000000    0.00000000    0.00000000
     atom  495 type  4   force =     0.00000000    0.00000000    0.00000000
     atom  496 type  4   force =     0.00000000    0.00000000    0.00000000
     The SCF correction term to forces
     atom    1 type  1   force =    -0.00000016    0.00000416    0.00000149
     atom    2 type  1   force =    -0.00000820    0.00000175    0.00000001
     atom    3 type  1   force =    -0.00000238    0.00000226    0.00000077
     atom    4 type  1   force =    -0.00000180    0.00000398    0.00000212
     atom    5 type  1   force =    -0.00000329    0.00000232    0.00000108
     atom    6 type  1   force =    -0.00000334    0.00000339    0.00000145
     atom    7 type  1   force =    -0.00000294    0.00000356    0.00000140
     atom    8 type  1   force =    -0.00000374    0.00000350    0.00000168
     atom    9 type  1   force =    -0.00000885   -0.00000021   -0.00000015
     atom   10 type  1   force =    -0.00000394   -0.00000065   -0.00000061
     atom   11 type  1   force =    -0.00000574    0.00000067    0.00000059
     atom   12 type  1   force =    -0.00000529   -0.00000227   -0.00000092
     atom   13 type  1   force =    -0.00000506   -0.00000081   -0.00000036
     atom   14 type  1   force =    -0.00000484   -0.00000347   -0.00000166
     atom   15 type  1   force =    -0.00000723   -0.00000085   -0.00000024
     atom   16 type  1   force =    -0.00000509   -0.00000048   -0.00000027
     atom   17 type  2   force =     0.00000066   -0.00000912   -0.00000181
     atom   18 type  2   force =    -0.00000315   -0.00000692   -0.00000159
     atom   19 type  2   force =    -0.00000149   -0.00000669   -0.00000129
     atom   20 type  2   force =    -0.00000134   -0.00000860   -0.00000204
     atom   21 type  2   force =    -0.00000082   -0.00000639   -0.00000134
     atom   22 type  2   force =    -0.00000129   -0.00000842   -0.00000163
     atom   23 type  2   force =    -0.00000002   -0.00000732   -0.00000156
     atom   24 type  2   force =    -0.00000128   -0.00000609   -0.00000165
     atom   25 type  2   force =     0.00000070   -0.00000908   -0.00000526
     atom   26 type  2   force =     0.00000321   -0.00000607   -0.00000335
     atom   27 type  2   force =     0.00000244   -0.00000604   -0.00000318
     atom   28 type  2   force =     0.00000291   -0.00000912   -0.00000503
     atom   29 type  2   force =     0.00000224   -0.00000639   -0.00000354
     atom   30 type  2   force =     0.00000282   -0.00000955   -0.00000492
     atom   31 type  2   force =     0.00000222   -0.00000771   -0.00000437
     atom   32 type  2   force =     0.00000242   -0.00000600   -0.00000360
     atom   33 type  2   force =     0.00000488   -0.00000297   -0.00000209
     atom   34 type  2   force =     0.00000526   -0.00000393   -0.00000229
     atom   35 type  2   force =     0.00000767   -0.00000312   -0.00000242
     atom   36 type  2   force =     0.00000433   -0.00000285   -0.00000232
     atom   37 type  2   force =     0.00000755   -0.00000345   -0.00000275
     atom   38 type  2   force =     0.00000244   -0.00000360   -0.00000217
     atom   39 type  2   force =     0.00000456   -0.00000328   -0.00000202
     atom   40 type  2   force =     0.00000499   -0.00000412   -0.00000259
     atom   41 type  3   force =     0.00000062    0.00000077   -0.00000096
     atom   42 type  3   force =     0.00000068    0.00000090   -0.00000102
     atom   43 type  3   force =     0.00000100    0.00000108   -0.00000110
     atom   44 type  3   force =     0.00000055    0.00000071   -0.00000099
     atom   45 type  3   force =     0.00000083    0.00000126   -0.00000119
     atom   46 type  3   force =     0.00000013    0.00000072   -0.00000093
     atom   47 type  3   force =     0.00000047    0.00000075   -0.00000094
     atom   48 type  3   force =     0.00000057    0.00000082   -0.00000108
     atom   49 type  2   force =     0.00000095   -0.00000162    0.00000205
     atom   50 type  2   force =     0.00000062   -0.00000349    0.00000221
     atom   51 type  2   force =     0.00000158   -0.00000222    0.00000219
     atom   52 type  2   force =     0.00000087   -0.00000155    0.00000194
     atom   53 type  2   force =     0.00000044   -0.00000502    0.00000209
     atom   54 type  2   force =    -0.00000020   -0.00000264    0.00000208
     atom   55 type  2   force =     0.00000053   -0.00000181    0.00000209
     atom   56 type  2   force =     0.00000043   -0.00000309    0.00000199
     atom   57 type  3   force =    -0.00000110   -0.00000016    0.00000060
     atom   58 type  3   force =    -0.00000124   -0.00000047    0.00000064
     atom   59 type  3   force =    -0.00000134   -0.00000012    0.00000061
     atom   60 type  3   force =    -0.00000096   -0.00000016    0.00000058
     atom   61 type  3   force =    -0.00000172   -0.00000054    0.00000060
     atom   62 type  3   force =    -0.00000105   -0.00000037    0.00000063
     atom   63 type  3   force =    -0.00000121   -0.00000020    0.00000062
     atom   64 type  3   force =    -0.00000134   -0.00000041    0.00000059
     atom   65 type  1   force =    -0.00000464   -0.00001279   -0.00000874
     atom   66 type  1   force =     0.00000363   -0.00001183   -0.00000694
     atom   67 type  1   force =     0.00000092   -0.00001176   -0.00000720
     atom   68 type  1   force =     0.00000146   -0.00001367   -0.00000842
     atom   69 type  1   force =     0.00000164   -0.00001117   -0.00000699
     atom   70 type  1   force =     0.00000286   -0.00001417   -0.00000817
     atom   71 type  1   force =     0.00000037   -0.00001316   -0.00000853
     atom   72 type  1   force =     0.00000166   -0.00001116   -0.00000726
     atom   73 type  1   force =    -0.00001724   -0.00001673   -0.00001235
     atom   74 type  1   force =    -0.00000887   -0.00001246   -0.00000924
     atom   75 type  1   force =    -0.00001096   -0.00001243   -0.00000910
     atom   76 type  1   force =    -0.00001296   -0.00001564   -0.00001137
     atom   77 type  1   force =    -0.00001080   -0.00001356   -0.00001026
     atom   78 type  1   force =    -0.00001320   -0.00001699   -0.00001223
     atom   79 type  1   force =    -0.00001383   -0.00001495   -0.00001111
     atom   80 type  1   force =    -0.00001026   -0.00001328   -0.00001022
     atom   81 type  2   force =     0.00000756   -0.00000526    0.00000108
     atom   82 type  2   force =     0.00000183   -0.00000198    0.00000047
     atom   83 type  2   force =     0.00000307   -0.00000235    0.00000100
     atom   84 type  2   force =     0.00000337   -0.00000344    0.00000042
     atom   85 type  2   force =     0.00000343   -0.00000183    0.00000120
     atom   86 type  2   force =     0.00000427   -0.00000288    0.00000101
     atom   87 type  2   force =     0.00000610   -0.00000295    0.00000138
     atom   88 type  2   force =     0.00000281   -0.00000172    0.00000086
     atom   89 type  3   force =     0.00000059    0.00000000   -0.00000010
     atom   90 type  3   force =     0.00000109   -0.00000058    0.00000013
     atom   91 type  3   force =     0.00000080   -0.00000023   -0.00000014
     atom   92 type  3   force =     0.00000067   -0.00000020    0.00000009
     atom   93 type  3   force =     0.00000086    0.00000000    0.00000008
     atom   94 type  3   force =     0.00000072   -0.00000011    0.00000024
     atom   95 type  3   force =     0.00000058   -0.00000013    0.00000011
     atom   96 type  3   force =     0.00000101   -0.00000024    0.00000028
     atom   97 type  1   force =     0.00000348    0.00000060    0.00000304
     atom   98 type  1   force =     0.00000938    0.00000022    0.00000291
     atom   99 type  1   force =     0.00000553    0.00000092    0.00000288
     atom  100 type  1   force =     0.00000544    0.00000172    0.00000297
     atom  101 type  1   force =     0.00000651    0.00000112    0.00000346
     atom  102 type  1   force =     0.00000608    0.00000170    0.00000313
     atom  103 type  1   force =     0.00000555    0.00000170    0.00000295
     atom  104 type  1   force =     0.00000959    0.00000238    0.00000327
     atom  105 type  2   force =    -0.00000575    0.00000602    0.00000055
     atom  106 type  2   force =    -0.00000760    0.00000768   -0.00000004
     atom  107 type  2   force =    -0.00000705    0.00000700    0.00000046
     atom  108 type  2   force =    -0.00000530    0.00000560    0.00000014
     atom  109 type  2   force =    -0.00000744    0.00000827    0.00000026
     atom  110 type  2   force =    -0.00000586    0.00000643   -0.00000012
     atom  111 type  2   force =    -0.00000541    0.00000593    0.00000039
     atom  112 type  2   force =    -0.00000667    0.00000762    0.00000009
     atom  113 type  3   force =     0.00000028   -0.00000086    0.00000013
     atom  114 type  3   force =     0.00000032   -0.00000101    0.00000002
     atom  115 type  3   force =     0.00000037   -0.00000121    0.00000014
     atom  116 type  3   force =     0.00000026   -0.00000080    0.00000005
     atom  117 type  3   force =     0.00000037   -0.00000127    0.00000002
     atom  118 type  3   force =     0.00000014   -0.00000082   -0.00000001
     atom  119 type  3   force =     0.00000016   -0.00000100    0.00000011
     atom  120 type  3   force =     0.00000019   -0.00000112   -0.00000000
     atom  121 type  1   force =     0.00000445   -0.00000205    0.00000004
     atom  122 type  1   force =     0.00000208   -0.00000303    0.00000118
     atom  123 type  1   force =     0.00000675   -0.00000092   -0.00000017
     atom  124 type  1   force =     0.00000432   -0.00000344    0.00000124
     atom  125 type  1   force =     0.00000208   -0.00000203    0.00000112
     atom  126 type  1   force =     0.00000126   -0.00000535    0.00000223
     atom  127 type  1   force =     0.00000155   -0.00000397    0.00000134
     atom  128 type  1   force =     0.00000250   -0.00000441    0.00000221
     atom  129 type  1   force =     0.00000420    0.00000328   -0.00000209
     atom  130 type  1   force =     0.00000606    0.00000196   -0.00000090
     atom  131 type  1   force =     0.00000602    0.00000421   -0.00000204
     atom  132 type  1   force =     0.00000452    0.00000183   -0.00000108
     atom  133 type  1   force =     0.00000543    0.00000251   -0.00000064
     atom  134 type  1   force =     0.00000551   -0.00000151    0.00000064
     atom  135 type  1   force =     0.00000444    0.00000073   -0.00000045
     atom  136 type  1   force =     0.00000741   -0.00000132    0.00000078
     atom  137 type  2   force =     0.00000173    0.00000731   -0.00000169
     atom  138 type  2   force =     0.00000147    0.00000831   -0.00000175
     atom  139 type  2   force =     0.00000067    0.00000972   -0.00000208
     atom  140 type  2   force =     0.00000140    0.00000641   -0.00000149
     atom  141 type  2   force =     0.00000045    0.00000750   -0.00000195
     atom  142 type  2   force =     0.00000183    0.00000543   -0.00000135
     atom  143 type  2   force =     0.00000148    0.00000666   -0.00000179
     atom  144 type  2   force =     0.00000030    0.00000668   -0.00000142
     atom  145 type  2   force =    -0.00000200    0.00000797   -0.00000442
     atom  146 type  2   force =    -0.00000294    0.00000851   -0.00000438
     atom  147 type  2   force =    -0.00000135    0.00001076   -0.00000578
     atom  148 type  2   force =    -0.00000178    0.00000688   -0.00000393
     atom  149 type  2   force =    -0.00000289    0.00000877   -0.00000495
     atom  150 type  2   force =    -0.00000305    0.00000438   -0.00000267
     atom  151 type  2   force =    -0.00000315    0.00000691   -0.00000417
     atom  152 type  2   force =    -0.00000244    0.00000586   -0.00000337
     atom  153 type  2   force =    -0.00000668    0.00000334   -0.00000241
     atom  154 type  2   force =    -0.00000369    0.00000286   -0.00000207
     atom  155 type  2   force =    -0.00000451    0.00000327   -0.00000214
     atom  156 type  2   force =    -0.00000666    0.00000311   -0.00000251
     atom  157 type  2   force =    -0.00000370    0.00000343   -0.00000215
     atom  158 type  2   force =    -0.00000518    0.00000422   -0.00000242
     atom  159 type  2   force =    -0.00000613    0.00000403   -0.00000267
     atom  160 type  2   force =    -0.00000418    0.00000302   -0.00000236
     atom  161 type  3   force =    -0.00000094   -0.00000094   -0.00000104
     atom  162 type  3   force =    -0.00000034   -0.00000071   -0.00000089
     atom  163 type  3   force =    -0.00000055   -0.00000075   -0.00000094
     atom  164 type  3   force =    -0.00000073   -0.00000099   -0.00000106
     atom  165 type  3   force =    -0.00000045   -0.00000070   -0.00000096
     atom  166 type  3   force =    -0.00000065   -0.00000077   -0.00000107
     atom  167 type  3   force =    -0.00000074   -0.00000105   -0.00000115
     atom  168 type  3   force =    -0.00000042   -0.00000078   -0.00000100
     atom  169 type  2   force =    -0.00000103    0.00000135    0.00000235
     atom  170 type  2   force =    -0.00000128    0.00000283    0.00000170
     atom  171 type  2   force =    -0.00000121    0.00000196    0.00000212
     atom  172 type  2   force =    -0.00000072    0.00000124    0.00000182
     atom  173 type  2   force =    -0.00000052    0.00000414    0.00000231
     atom  174 type  2   force =    -0.00000064    0.00000222    0.00000171
     atom  175 type  2   force =    -0.00000044    0.00000211    0.00000210
     atom  176 type  2   force =    -0.00000046    0.00000292    0.00000194
     atom  177 type  3   force =     0.00000094    0.00000022    0.00000066
     atom  178 type  3   force =     0.00000141    0.00000045    0.00000052
     atom  179 type  3   force =     0.00000119    0.00000025    0.00000058
     atom  180 type  3   force =     0.00000096    0.00000018    0.00000055
     atom  181 type  3   force =     0.00000145    0.00000054    0.00000068
     atom  182 type  3   force =     0.00000117    0.00000024    0.00000056
     atom  183 type  3   force =     0.00000102    0.00000026    0.00000062
     atom  184 type  3   force =     0.00000143    0.00000037    0.00000062
     atom  185 type  1   force =    -0.00000251    0.00001246   -0.00000738
     atom  186 type  1   force =    -0.00000181    0.00001374   -0.00000779
     atom  187 type  1   force =     0.00000009    0.00001482   -0.00000873
     atom  188 type  1   force =    -0.00000229    0.00001162   -0.00000703
     atom  189 type  1   force =    -0.00000182    0.00001421   -0.00000886
     atom  190 type  1   force =    -0.00000220    0.00001023   -0.00000676
     atom  191 type  1   force =    -0.00000243    0.00001231   -0.00000779
     atom  192 type  1   force =    -0.00000006    0.00001138   -0.00000782
     atom  193 type  1   force =     0.00001119    0.00001606   -0.00001169
     atom  194 type  1   force =     0.00001283    0.00001518   -0.00001078
     atom  195 type  1   force =     0.00001541    0.00001931   -0.00001335
     atom  196 type  1   force =     0.00001112    0.00001484   -0.00001105
     atom  197 type  1   force =     0.00001284    0.00001560   -0.00001104
     atom  198 type  1   force =     0.00000905    0.00001136   -0.00000909
     atom  199 type  1   force =     0.00001079    0.00001367   -0.00001029
     atom  200 type  1   force =     0.00001228    0.00001238   -0.00000982
     atom  201 type  2   force =    -0.00000202    0.00000212    0.00000062
     atom  202 type  2   force =    -0.00000362    0.00000305    0.00000053
     atom  203 type  2   force =    -0.00000474    0.00000425    0.00000065
     atom  204 type  2   force =    -0.00000330    0.00000206    0.00000094
     atom  205 type  2   force =    -0.00000419    0.00000296    0.00000087
     atom  206 type  2   force =    -0.00000261    0.00000120    0.00000085
     atom  207 type  2   force =    -0.00000252    0.00000155    0.00000084
     atom  208 type  2   force =    -0.00000584    0.00000295    0.00000122
     atom  209 type  3   force =    -0.00000048    0.00000009    0.00000002
     atom  210 type  3   force =    -0.00000091    0.00000017   -0.00000007
     atom  211 type  3   force =    -0.00000083    0.00000027   -0.00000002
     atom  212 type  3   force =    -0.00000065    0.00000012    0.00000017
     atom  213 type  3   force =    -0.00000075    0.00000029    0.00000003
     atom  214 type  3   force =    -0.00000067    0.00000001    0.00000012
     atom  215 type  3   force =    -0.00000068   -0.00000003    0.00000009
     atom  216 type  3   force =    -0.00000106    0.00000027    0.00000022
     atom  217 type  1   force =    -0.00000429   -0.00000103    0.00000291
     atom  218 type  1   force =    -0.00000614   -0.00000094    0.00000274
     atom  219 type  1   force =    -0.00000685   -0.00000066    0.00000318
     atom  220 type  1   force =    -0.00000602   -0.00000149    0.00000270
     atom  221 type  1   force =    -0.00000752   -0.00000183    0.00000315
     atom  222 type  1   force =    -0.00000516   -0.00000176    0.00000292
     atom  223 type  1   force =    -0.00000528   -0.00000207    0.00000336
     atom  224 type  1   force =    -0.00000943   -0.00000146    0.00000286
     atom  225 type  2   force =     0.00000618   -0.00000596    0.00000044
     atom  226 type  2   force =     0.00000685   -0.00000752    0.00000020
     atom  227 type  2   force =     0.00000860   -0.00000759    0.00000046
     atom  228 type  2   force =     0.00000571   -0.00000559    0.00000017
     atom  229 type  2   force =     0.00000862   -0.00000887    0.00000018
     atom  230 type  2   force =     0.00000479   -0.00000614    0.00000012
     atom  231 type  2   force =     0.00000590   -0.00000656    0.00000043
     atom  232 type  2   force =     0.00000635   -0.00000772    0.00000008
     atom  233 type  3   force =    -0.00000014    0.00000094    0.00000014
     atom  234 type  3   force =    -0.00000018    0.00000127   -0.00000001
     atom  235 type  3   force =    -0.00000013    0.00000115    0.00000013
     atom  236 type  3   force =    -0.00000012    0.00000087    0.00000005
     atom  237 type  3   force =    -0.00000030    0.00000113    0.00000004
     atom  238 type  3   force =    -0.00000027    0.00000092   -0.00000004
     atom  239 type  3   force =    -0.00000025    0.00000080    0.00000010
     atom  240 type  3   force =    -0.00000026    0.00000108    0.00000001
     atom  241 type  1   force =     0.00000193    0.00000238   -0.00000084
     atom  242 type  1   force =     0.00000439    0.00000133   -0.00000245
     atom  243 type  1   force =     0.00000323    0.00000179   -0.00000069
     atom  244 type  1   force =     0.00000358    0.00000196   -0.00000147
     atom  245 type  1   force =     0.00000285    0.00000426   -0.00000054
     atom  246 type  1   force =     0.00000334    0.00000366   -0.00000168
     atom  247 type  1   force =     0.00000256    0.00000322   -0.00000120
     atom  248 type  1   force =     0.00000506    0.00000341   -0.00000242
     atom  249 type  1   force =    -0.00000500    0.00000382    0.00000235
     atom  250 type  1   force =     0.00000122    0.00000496   -0.00000154
     atom  251 type  1   force =    -0.00000315    0.00000356    0.00000182
     atom  252 type  1   force =    -0.00000172    0.00000541    0.00000071
     atom  253 type  1   force =    -0.00000037    0.00000543    0.00000065
     atom  254 type  1   force =     0.00000077    0.00000787   -0.00000067
     atom  255 type  1   force =    -0.00000180    0.00000660    0.00000090
     atom  256 type  1   force =     0.00000222    0.00000693   -0.00000108
     atom  257 type  2   force =    -0.00000929    0.00000223    0.00000191
     atom  258 type  2   force =    -0.00000528    0.00000165    0.00000141
     atom  259 type  2   force =    -0.00000713    0.00000253    0.00000246
     atom  260 type  2   force =    -0.00000772    0.00000134    0.00000168
     atom  261 type  2   force =    -0.00000702    0.00000073    0.00000144
     atom  262 type  2   force =    -0.00000745    0.00000011    0.00000147
     atom  263 type  2   force =    -0.00000859    0.00000091    0.00000175
     atom  264 type  2   force =    -0.00000556    0.00000045    0.00000094
     atom  265 type  2   force =    -0.00001046   -0.00000300    0.00000532
     atom  266 type  2   force =    -0.00000504   -0.00000287    0.00000299
     atom  267 type  2   force =    -0.00000825   -0.00000303    0.00000508
     atom  268 type  2   force =    -0.00000736   -0.00000272    0.00000398
     atom  269 type  2   force =    -0.00000658   -0.00000151    0.00000387
     atom  270 type  2   force =    -0.00000652   -0.00000230    0.00000353
     atom  271 type  2   force =    -0.00000853   -0.00000242    0.00000458
     atom  272 type  2   force =    -0.00000416   -0.00000174    0.00000234
     atom  273 type  2   force =    -0.00000511   -0.00000429    0.00000255
     atom  274 type  2   force =    -0.00000238   -0.00000376    0.00000200
     atom  275 type  2   force =    -0.00000358   -0.00000366    0.00000279
     atom  276 type  2   force =    -0.00000377   -0.00000543    0.00000227
     atom  277 type  2   force =    -0.00000274   -0.00000456    0.00000213
     atom  278 type  2   force =    -0.00000316   -0.00000633    0.00000240
     atom  279 type  2   force =    -0.00000412   -0.00000577    0.00000258
     atom  280 type  2   force =    -0.00000245   -0.00000522    0.00000200
     atom  281 type  3   force =     0.00000058   -0.00000063    0.00000120
     atom  282 type  3   force =     0.00000079   -0.00000039    0.00000084
     atom  283 type  3   force =     0.00000066   -0.00000047    0.00000108
     atom  284 type  3   force =     0.00000090   -0.00000064    0.00000101
     atom  285 type  3   force =     0.00000084   -0.00000052    0.00000097
     atom  286 type  3   force =     0.00000103   -0.00000070    0.00000102
     atom  287 type  3   force =     0.00000085   -0.00000070    0.00000114
     atom  288 type  3   force =     0.00000080   -0.00000057    0.00000094
     atom  289 type  2   force =    -0.00000286   -0.00000021   -0.00000228
     atom  290 type  2   force =    -0.00000094   -0.00000060   -0.00000191
     atom  291 type  2   force =    -0.00000132   -0.00000013   -0.00000183
     atom  292 type  2   force =    -0.00000297   -0.00000052   -0.00000229
     atom  293 type  2   force =    -0.00000262   -0.00000062   -0.00000238
     atom  294 type  2   force =    -0.00000296   -0.00000114   -0.00000180
     atom  295 type  2   force =    -0.00000349   -0.00000073   -0.00000210
     atom  296 type  2   force =    -0.00000255   -0.00000136   -0.00000200
     atom  297 type  3   force =    -0.00000035    0.00000115   -0.00000066
     atom  298 type  3   force =    -0.00000010    0.00000096   -0.00000056
     atom  299 type  3   force =    -0.00000014    0.00000111   -0.00000062
     atom  300 type  3   force =    -0.00000044    0.00000130   -0.00000065
     atom  301 type  3   force =    -0.00000026    0.00000114   -0.00000071
     atom  302 type  3   force =    -0.00000040    0.00000134   -0.00000052
     atom  303 type  3   force =    -0.00000046    0.00000138   -0.00000063
     atom  304 type  3   force =    -0.00000035    0.00000113   -0.00000057
     atom  305 type  1   force =    -0.00001611   -0.00000389    0.00000892
     atom  306 type  1   force =    -0.00001049   -0.00000150    0.00000688
     atom  307 type  1   force =    -0.00001352   -0.00000409    0.00000827
     atom  308 type  1   force =    -0.00001297   -0.00000280    0.00000785
     atom  309 type  1   force =    -0.00001101   -0.00000010    0.00000727
     atom  310 type  1   force =    -0.00001164    0.00000088    0.00000806
     atom  311 type  1   force =    -0.00001379   -0.00000097    0.00000893
     atom  312 type  1   force =    -0.00001008   -0.00000009    0.00000667
     atom  313 type  1   force =    -0.00001820    0.00001227    0.00001241
     atom  314 type  1   force =    -0.00001172    0.00000967    0.00000874
     atom  315 type  1   force =    -0.00001582    0.00001097    0.00001155
     atom  316 type  1   force =    -0.00001478    0.00001109    0.00001076
     atom  317 type  1   force =    -0.00001357    0.00001149    0.00001051
     atom  318 type  1   force =    -0.00001342    0.00001308    0.00001011
     atom  319 type  1   force =    -0.00001552    0.00001344    0.00001172
     atom  320 type  1   force =    -0.00001144    0.00001058    0.00000916
     atom  321 type  2   force =    -0.00000251   -0.00000233   -0.00000074
     atom  322 type  2   force =    -0.00000146   -0.00000223   -0.00000076
     atom  323 type  2   force =    -0.00000148   -0.00000134   -0.00000009
     atom  324 type  2   force =    -0.00000262   -0.00000441   -0.00000091
     atom  325 type  2   force =    -0.00000300   -0.00000371   -0.00000097
     atom  326 type  2   force =    -0.00000361   -0.00000546   -0.00000106
     atom  327 type  2   force =    -0.00000371   -0.00000462   -0.00000089
     atom  328 type  2   force =    -0.00000244   -0.00000498   -0.00000148
     atom  329 type  3   force =     0.00000013   -0.00000067    0.00000002
     atom  330 type  3   force =    -0.00000014   -0.00000053   -0.00000005
     atom  331 type  3   force =     0.00000008   -0.00000045    0.00000011
     atom  332 type  3   force =    -0.00000005   -0.00000094   -0.00000011
     atom  333 type  3   force =    -0.00000021   -0.00000077   -0.00000007
     atom  334 type  3   force =    -0.00000035   -0.00000105   -0.00000014
     atom  335 type  3   force =    -0.00000024   -0.00000096   -0.00000001
     atom  336 type  3   force =    -0.00000026   -0.00000094   -0.00000033
     atom  337 type  1   force =     0.00000096   -0.00000389   -0.00000348
     atom  338 type  1   force =     0.00000176   -0.00000472   -0.00000284
     atom  339 type  1   force =     0.00000171   -0.00000385   -0.00000274
     atom  340 type  1   force =     0.00000102   -0.00000668   -0.00000333
     atom  341 type  1   force =     0.00000102   -0.00000545   -0.00000319
     atom  342 type  1   force =     0.00000127   -0.00000773   -0.00000283
     atom  343 type  1   force =     0.00000078   -0.00000681   -0.00000329
     atom  344 type  1   force =     0.00000151   -0.00000803   -0.00000305
     atom  345 type  2   force =     0.00000724    0.00000664   -0.00000024
     atom  346 type  2   force =     0.00000656    0.00000626   -0.00000051
     atom  347 type  2   force =     0.00000602    0.00000561    0.00000022
     atom  348 type  2   force =     0.00000754    0.00000679   -0.00000040
     atom  349 type  2   force =     0.00000603    0.00000583   -0.00000049
     atom  350 type  2   force =     0.00000793    0.00000791   -0.00000040
     atom  351 type  2   force =     0.00000759    0.00000679   -0.00000004
     atom  352 type  2   force =     0.00000604    0.00000579   -0.00000005
     atom  353 type  3   force =    -0.00000098   -0.00000034   -0.00000003
     atom  354 type  3   force =    -0.00000080   -0.00000006   -0.00000011
     atom  355 type  3   force =    -0.00000081   -0.00000013    0.00000003
     atom  356 type  3   force =    -0.00000105   -0.00000018   -0.00000009
     atom  357 type  3   force =    -0.00000081   -0.00000035   -0.00000011
     atom  358 type  3   force =    -0.00000119   -0.00000020   -0.00000006
     atom  359 type  3   force =    -0.00000116   -0.00000030    0.00000002
     atom  360 type  3   force =    -0.00000099   -0.00000028   -0.00000006
     atom  361 type  1   force =    -0.00000115   -0.00000252   -0.00000117
     atom  362 type  1   force =    -0.00000352   -0.00000304   -0.00000071
     atom  363 type  1   force =    -0.00000200   -0.00000359   -0.00000062
     atom  364 type  1   force =    -0.00000334   -0.00000340   -0.00000177
     atom  365 type  1   force =    -0.00000386   -0.00000212   -0.00000119
     atom  366 type  1   force =    -0.00000343   -0.00000462   -0.00000126
     atom  367 type  1   force =    -0.00000256   -0.00000490   -0.00000032
     atom  368 type  1   force =    -0.00000590   -0.00000275   -0.00000263
     atom  369 type  1   force =     0.00000196   -0.00000420    0.00000077
     atom  370 type  1   force =    -0.00000016   -0.00000746   -0.00000064
     atom  371 type  1   force =     0.00000435   -0.00000487    0.00000156
     atom  372 type  1   force =     0.00000221   -0.00000369    0.00000158
     atom  373 type  1   force =     0.00000345   -0.00000612    0.00000253
     atom  374 type  1   force =    -0.00000323   -0.00000714   -0.00000180
     atom  375 type  1   force =     0.00000055   -0.00000508    0.00000060
     atom  376 type  1   force =     0.00000132   -0.00000688    0.00000056
     atom  377 type  2   force =     0.00000753   -0.00000071    0.00000180
     atom  378 type  2   force =     0.00000704   -0.00000053    0.00000115
     atom  379 type  2   force =     0.00000886   -0.00000106    0.00000182
     atom  380 type  2   force =     0.00000655   -0.00000136    0.00000221
     atom  381 type  2   force =     0.00000861   -0.00000081    0.00000190
     atom  382 type  2   force =     0.00000497   -0.00000129    0.00000084
     atom  383 type  2   force =     0.00000668   -0.00000193    0.00000206
     atom  384 type  2   force =     0.00000766   -0.00000097    0.00000140
     atom  385 type  2   force =     0.00000779    0.00000186    0.00000449
     atom  386 type  2   force =     0.00000594    0.00000219    0.00000300
     atom  387 type  2   force =     0.00001013    0.00000314    0.00000506
     atom  388 type  2   force =     0.00000741    0.00000237    0.00000472
     atom  389 type  2   force =     0.00000884    0.00000215    0.00000518
     atom  390 type  2   force =     0.00000340    0.00000190    0.00000209
     atom  391 type  2   force =     0.00000686    0.00000255    0.00000429
     atom  392 type  2   force =     0.00000728    0.00000200    0.00000386
     atom  393 type  2   force =     0.00000296    0.00000482    0.00000225
     atom  394 type  2   force =     0.00000329    0.00000568    0.00000220
     atom  395 type  2   force =     0.00000444    0.00000582    0.00000240
     atom  396 type  2   force =     0.00000297    0.00000427    0.00000282
     atom  397 type  2   force =     0.00000384    0.00000626    0.00000249
     atom  398 type  2   force =     0.00000210    0.00000437    0.00000181
     atom  399 type  2   force =     0.00000318    0.00000445    0.00000252
     atom  400 type  2   force =     0.00000362    0.00000516    0.00000235
     atom  401 type  3   force =    -0.00000085    0.00000059    0.00000099
     atom  402 type  3   force =    -0.00000092    0.00000064    0.00000099
     atom  403 type  3   force =    -0.00000069    0.00000083    0.00000110
     atom  404 type  3   force =    -0.00000071    0.00000052    0.00000107
     atom  405 type  3   force =    -0.00000102    0.00000076    0.00000113
     atom  406 type  3   force =    -0.00000092    0.00000033    0.00000085
     atom  407 type  3   force =    -0.00000074    0.00000053    0.00000104
     atom  408 type  3   force =    -0.00000090    0.00000054    0.00000104
     atom  409 type  2   force =     0.00000265    0.00000095   -0.00000223
     atom  410 type  2   force =     0.00000312    0.00000026   -0.00000233
     atom  411 type  2   force =     0.00000158    0.00000074   -0.00000175
     atom  412 type  2   force =     0.00000256    0.00000087   -0.00000204
     atom  413 type  2   force =     0.00000166    0.00000079   -0.00000227
     atom  414 type  2   force =     0.00000359    0.00000085   -0.00000229
     atom  415 type  2   force =     0.00000312    0.00000096   -0.00000200
     atom  416 type  2   force =     0.00000128    0.00000074   -0.00000170
     atom  417 type  3   force =     0.00000041   -0.00000128   -0.00000063
     atom  418 type  3   force =     0.00000025   -0.00000130   -0.00000068
     atom  419 type  3   force =     0.00000017   -0.00000109   -0.00000057
     atom  420 type  3   force =     0.00000033   -0.00000128   -0.00000058
     atom  421 type  3   force =     0.00000019   -0.00000110   -0.00000064
     atom  422 type  3   force =     0.00000041   -0.00000138   -0.00000068
     atom  423 type  3   force =     0.00000047   -0.00000120   -0.00000059
     atom  424 type  3   force =     0.00000014   -0.00000105   -0.00000053
     atom  425 type  1   force =     0.00001186    0.00000136    0.00000766
     atom  426 type  1   force =     0.00001195    0.00000013    0.00000773
     atom  427 type  1   force =     0.00001520    0.00000282    0.00000904
     atom  428 type  1   force =     0.00001206    0.00000322    0.00000775
     atom  429 type  1   force =     0.00001370    0.00000242    0.00000944
     atom  430 type  1   force =     0.00000931   -0.00000016    0.00000635
     atom  431 type  1   force =     0.00001228    0.00000180    0.00000814
     atom  432 type  1   force =     0.00001229    0.00000098    0.00000761
     atom  433 type  1   force =     0.00001493   -0.00001126    0.00001101
     atom  434 type  1   force =     0.00001348   -0.00001159    0.00000966
     atom  435 type  1   force =     0.00001724   -0.00001288    0.00001209
     atom  436 type  1   force =     0.00001517   -0.00001088    0.00001141
     atom  437 type  1   force =     0.00001732   -0.00001336    0.00001374
     atom  438 type  1   force =     0.00001040   -0.00001039    0.00000813
     atom  439 type  1   force =     0.00001362   -0.00001130    0.00001068
     atom  440 type  1   force =     0.00001548   -0.00001292    0.00001118
     atom  441 type  2   force =     0.00000329    0.00000418   -0.00000066
     atom  442 type  2   force =     0.00000292    0.00000450   -0.00000150
     atom  443 type  2   force =     0.00000328    0.00000324   -0.00000077
     atom  444 type  2   force =     0.00000166    0.00000267   -0.00000060
     atom  445 type  2   force =     0.00000362    0.00000538   -0.00000086
     atom  446 type  2   force =     0.00000175    0.00000398   -0.00000152
     atom  447 type  2   force =     0.00000193    0.00000227   -0.00000028
     atom  448 type  2   force =     0.00000293    0.00000433   -0.00000110
     atom  449 type  3   force =     0.00000020    0.00000069    0.00000003
     atom  450 type  3   force =    -0.00000003    0.00000062   -0.00000012
     atom  451 type  3   force =     0.00000026    0.00000073    0.00000003
     atom  452 type  3   force =     0.00000021    0.00000089   -0.00000024
     atom  453 type  3   force =     0.00000008    0.00000059    0.00000006
     atom  454 type  3   force =     0.00000012    0.00000093   -0.00000017
     atom  455 type  3   force =     0.00000023    0.00000097   -0.00000005
     atom  456 type  3   force =     0.00000012    0.00000082   -0.00000032
     atom  457 type  1   force =    -0.00000119    0.00000571   -0.00000296
     atom  458 type  1   force =    -0.00000220    0.00000526   -0.00000290
     atom  459 type  1   force =    -0.00000087    0.00000560   -0.00000289
     atom  460 type  1   force =    -0.00000137    0.00000718   -0.00000366
     atom  461 type  1   force =    -0.00000183    0.00000507   -0.00000249
     atom  462 type  1   force =    -0.00000124    0.00000680   -0.00000327
     atom  463 type  1   force =    -0.00000100    0.00000765   -0.00000321
     atom  464 type  1   force =    -0.00000201    0.00000675   -0.00000344
     atom  465 type  2   force =    -0.00000727   -0.00000621   -0.00000025
     atom  466 type  2   force =    -0.00000511   -0.00000501   -0.00000032
     atom  467 type  2   force =    -0.00000572   -0.00000515    0.00000019
     atom  468 type  2   force =    -0.00000715   -0.00000671   -0.00000042
     atom  469 type  2   force =    -0.00000629   -0.00000605   -0.00000049
     atom  470 type  2   force =    -0.00000779   -0.00000735   -0.00000022
     atom  471 type  2   force =    -0.00000809   -0.00000718   -0.00000009
     atom  472 type  2   force =    -0.00000660   -0.00000655   -0.00000031
     atom  473 type  3   force =     0.00000114    0.00000012   -0.00000001
     atom  474 type  3   force =     0.00000083    0.00000040   -0.00000013
     atom  475 type  3   force =     0.00000086    0.00000022    0.00000005
     atom  476 type  3   force =     0.00000114    0.00000027   -0.00000010
     atom  477 type  3   force =     0.00000096    0.00000009   -0.00000011
     atom  478 type  3   force =     0.00000112    0.00000038   -0.00000010
     atom  479 type  3   force =     0.00000111    0.00000023    0.00000003
     atom  480 type  3   force =     0.00000091    0.00000015   -0.00000004
     atom  481 type  4   force =     0.00000589   -0.00000183   -0.00000330
     atom  482 type  4   force =    -0.00000731   -0.00000404   -0.00000144
     atom  483 type  4   force =     0.00000533   -0.00000184   -0.00000020
     atom  484 type  4   force =     0.00000534   -0.00000338    0.00000127
     atom  485 type  4   force =    -0.00000153    0.00000283    0.00000274
     atom  486 type  4   force =    -0.00000452    0.00000058    0.00000041
     atom  487 type  4   force =    -0.00000228   -0.00000201   -0.00000038
     atom  488 type  4   force =    -0.00000115    0.00000181    0.00000157
     atom  489 type  4   force =    -0.00000645    0.00000179    0.00000168
     atom  490 type  4   force =     0.00000098   -0.00000137   -0.00000005
     atom  491 type  4   force =    -0.00000123   -0.00000279   -0.00000136
     atom  492 type  4   force =     0.00000063    0.00000001    0.00000136
     atom  493 type  4   force =    -0.00000146    0.00000050   -0.00000025
     atom  494 type  4   force =     0.00000267    0.00000178    0.00000530
     atom  495 type  4   force =     0.00000038    0.00000054    0.00000178
     atom  496 type  4   force =    -0.00000214    0.00000141    0.00000010

     Total force =     0.017606     Total SCF correction =     0.000192


     Computing stress (Cartesian axis) and pressure

          total   stress  (Ry/bohr**3)                   (kbar)     P=       -2.03
  -0.00001459   0.00000007  -0.00000005           -2.15        0.01       -0.01
   0.00000007  -0.00001457  -0.00000007            0.01       -2.14       -0.01
  -0.00000005  -0.00000007  -0.00001225           -0.01       -0.01       -1.80

     kinetic stress (kbar)  10030.27      0.01      0.02
                                0.01  10030.38      0.02
                                0.02      0.02  10716.55

     local   stress (kbar) -23379.22     -0.14      0.35
                               -0.14 -23378.39      0.39
                                0.35      0.39  -2297.04

     nonloc. stress (kbar)   2420.51     -0.01      0.00
                               -0.01   2420.50     -0.00
                                0.00     -0.00   2341.31

     hartree stress (kbar)  13178.57      0.05     -0.11
                                0.05  13178.38     -0.12
                               -0.11     -0.12   6149.22

     exc-cor stress (kbar)  -1776.01      0.00     -0.00
                                0.00  -1776.01     -0.00
                               -0.00     -0.00  -1797.58

     corecor stress (kbar)  -1052.43      0.00     -0.00
                                0.00  -1052.43      0.00
                               -0.00      0.00  -1036.21

     ewald   stress (kbar)    576.16      0.10     -0.28
                                0.10    575.43     -0.29
                               -0.28     -0.29 -14078.06

     hubbard stress (kbar)      0.00      0.00      0.00
                                0.00      0.00      0.00
                                0.00      0.00      0.00

     DFT-D   stress (kbar)      0.00      0.00      0.00
                                0.00      0.00      0.00
                                0.00      0.00      0.00

     XDM     stress (kbar)      0.00      0.00      0.00
                                0.00      0.00      0.00
                                0.00      0.00      0.00

     dft-nl  stress (kbar)      0.00      0.00      0.00
                                0.00      0.00      0.00
                                0.00      0.00      0.00

     TS-vdW  stress (kbar)      0.00      0.00      0.00
                                0.00      0.00      0.00
                                0.00      0.00      0.00

     MDB     stress (kbar)      0.00      0.00      0.00
                                0.00      0.00      0.00
                                0.00      0.00      0.00

     3D-RISM stress (kbar)      0.00      0.00      0.00
                                0.00      0.00      0.00
                                0.00      0.00      0.00


     init_run     :    379.64s CPU    390.62s WALL (       1 calls)
     electrons    :  14225.86s CPU  14562.10s WALL (       1 calls)
     forces       :    171.98s CPU    178.68s WALL (       1 calls)
     stress       :   4101.45s CPU   4193.12s WALL (       1 calls)

     Called by init_run:
     wfcinit      :    357.98s CPU    367.10s WALL (       1 calls)
     wfcinit:atom :      0.40s CPU      0.68s WALL (       1 calls)
     wfcinit:wfcr :    353.59s CPU    361.67s WALL (       1 calls)
     potinit      :      8.81s CPU      8.95s WALL (       1 calls)
     hinit0       :      7.69s CPU      7.76s WALL (       1 calls)

     Called by electrons:
     c_bands      :  13047.80s CPU  13316.10s WALL (      17 calls)
     sum_band     :   1075.45s CPU   1121.53s WALL (      17 calls)
     v_of_rho     :     13.46s CPU     14.06s WALL (      18 calls)
     v_h          :      0.89s CPU      0.95s WALL (      18 calls)
     v_xc         :     13.88s CPU     14.50s WALL (      20 calls)
     newd         :     66.86s CPU     89.21s WALL (      18 calls)
     PAW_pot      :     22.79s CPU     22.91s WALL (      18 calls)
     mix_rho      :      3.33s CPU      3.62s WALL (      17 calls)

     Called by c_bands:
     init_us_2    :     22.84s CPU     29.06s WALL (      35 calls)
     init_us_2:cp :     22.84s CPU     29.06s WALL (      35 calls)
     cegterg      :  12990.67s CPU  13254.84s WALL (      17 calls)

     Called by sum_band:
     sum_band:wei :      0.00s CPU      0.00s WALL (      17 calls)
     sum_band:loo :   1014.27s CPU   1039.18s WALL (      17 calls)
     sum_band:buf :      0.00s CPU      0.00s WALL (      17 calls)
     sum_band:ini :     11.26s CPU     13.78s WALL (      17 calls)
     sum_band:cal :    542.87s CPU    552.19s WALL (      17 calls)
     sum_band:bec :      0.72s CPU      0.72s WALL (      17 calls)
     addusdens    :     49.26s CPU     70.10s WALL (      17 calls)
                                        0.00s GPU  (      17 calls)
     addusd:skk   :     12.09s CPU     23.00s WALL (      68 calls)
                                        0.00s GPU  (      68 calls)

     Called by *egterg:
     cdiaghg      :    842.47s CPU    850.37s WALL (      97 calls)
     cegterg:over :   1637.77s CPU   1660.35s WALL (      80 calls)
     cegterg:upda :    822.90s CPU    839.30s WALL (      80 calls)
     cegterg:last :   1899.26s CPU   1929.00s WALL (      42 calls)
     cdiaghg:chol :     18.68s CPU     18.79s WALL (      97 calls)
     cdiaghg:inve :      7.33s CPU      7.36s WALL (      97 calls)
     cdiaghg:para :     89.65s CPU     92.30s WALL (     194 calls)
     h_psi        :   6079.06s CPU   6233.62s WALL (      98 calls)
     s_psi        :   1494.63s CPU   1512.86s WALL (      98 calls)
     g_psi        :      6.10s CPU      6.33s WALL (      80 calls)

     Called by h_psi:
     h_psi:calbec :   1765.77s CPU   1801.78s WALL (      98 calls)
     vloc_psi     :   2794.21s CPU   2881.26s WALL (      98 calls)
     add_vuspsi   :   1513.64s CPU   1539.72s WALL (      98 calls)

     General routines
     calbec       :   2466.25s CPU   2513.50s WALL (     120 calls)
     fft          :     23.33s CPU     24.08s WALL (     257 calls)
     ffts         :      1.71s CPU      1.81s WALL (      35 calls)
     fftw         :   2997.19s CPU   3092.75s WALL (  124970 calls)
     interpolate  :      1.75s CPU      1.86s WALL (      18 calls)

     Parallel routines

     PAW routines
     PAW_pot      :     22.79s CPU     22.91s WALL (      18 calls)

     PWSCF        :      5h14m CPU      5h22m WALL


   This run was terminated on:   8:16:43  19May2025            

=------------------------------------------------------------------------------=
   JOB DONE.
=------------------------------------------------------------------------------=
