
     Program PWSCF v.7.2 starts on 25May2025 at  0: 3:34 

     This program is part of the open-source Quantum ESPRESSO suite
     for quantum simulation of materials; please cite
         "P. Giannozzi et al., J. Phys.:Condens. Matter 21 395502 (2009);
         "P. Giannozzi et al., J. Phys.:Condens. Matter 29 465901 (2017);
         "P. Giannozzi et al., J. Chem. Phys. 152 154105 (2020);
          URL http://www.quantum-espresso.org", 
     in publications or presentations arising from this work. More details at
     http://www.quantum-espresso.org/quote

     Parallel version (MPI), running on    32 processors

     MPI processes distributed on     1 nodes
     172537 MiB available memory on the printing compute node when the environment starts

     Waiting for input...
     Reading input from standard input

     Current dimensions of program PWSCF are:
     Max number of different atomic species (ntypx) = 10
     Max number of k-points (npk) =  40000
     Max angular momentum in pseudopotentials (lmaxx) =  4
     file C.pbesol-n-kjpaw_psl.1.0.0.UPF: wavefunction(s)  2S 2P renormalized

     R & G space division:  proc/nbgrp/npool/nimage =      32
     Subspace diagonalization in iterative solution of the eigenvalue problem:
     one sub-group per band group will be used
     custom distributed-memory algorithm (size of sub-group:  5*  5 procs)


     Parallelization info
     --------------------
     sticks:   dense  smooth     PW     G-vecs:    dense   smooth      PW
     Min         878     844    211                80117    75361    9423
     Max         882     845    212                80120    75364    9425
     Sum       28159   27021   6771              2563819  2411581  301561

     Using Slab Decomposition



     bravais-lattice index     =            0
     lattice parameter (alat)  =      37.6381  a.u.
     unit-cell volume          =   38409.3354 (a.u.)^3
     number of atoms/cell      =          496
     number of atomic types    =            4
     number of electrons       =      2016.00
     number of Kohn-Sham states=         1008
     kinetic-energy cutoff     =      60.0000  Ry
     charge density cutoff     =     250.0000  Ry
     scf convergence threshold =      1.2E-08
     mixing beta               =       0.4000
     number of iterations used =            8  plain     mixing
     Exchange-correlation= SLA  PW   PSX  PSC
                           (   1   4  10   8   0   0   0)

     celldm(1)=  37.638096  celldm(2)=   0.000000  celldm(3)=   0.000000
     celldm(4)=   0.000000  celldm(5)=   0.000000  celldm(6)=   0.000000

     crystal axes: (cart. coord. in units of alat)
               a(1) = (  -0.509774   0.509774   0.693009 )  
               a(2) = (   0.509774  -0.509774   0.693009 )  
               a(3) = (   0.509774   0.509774  -0.693009 )  

     reciprocal axes: (cart. coord. in units 2 pi/alat)
               b(1) = (  0.000000  0.980827  0.721491 )  
               b(2) = (  0.980827  0.000000  0.721491 )  
               b(3) = (  0.980827  0.980827  0.000000 )  


     PseudoPot. # 1 for N  read from file:
     ./pseudo/N.pbesol-theos.UPF
     MD5 check sum: 1b64827339d390a5a22afef3ff345c9d
     Pseudo is Ultrasoft + core correction, Zval =  5.0
     Generated using "atomic" code by A. Dal Corso  v.5.1
     Using radial grid of 1085 points,  4 beta functions with: 
                l(1) =   0
                l(2) =   0
                l(3) =   1
                l(4) =   1
     Q(r) pseudized with 0 coefficients 


     PseudoPot. # 2 for C  read from file:
     ./pseudo/C.pbesol-n-kjpaw_psl.1.0.0.UPF
     MD5 check sum: 5f3a56537b2bcef3348431d8311bb923
     Pseudo is Projector augmented-wave + core cor, Zval =  4.0
     Generated using "atomic" code by A. Dal Corso  v.6.0 svn rev. 13079
     Shape of augmentation charge: PSQ
     Using radial grid of 1073 points,  4 beta functions with: 
                l(1) =   0
                l(2) =   0
                l(3) =   1
                l(4) =   1
     Q(r) pseudized with 0 coefficients 


     PseudoPot. # 3 for H  read from file:
     ./pseudo/H.pbesol-rrkjus_psl.1.0.0.UPF
     MD5 check sum: 0324ed591cc0147dc3d88cad0d33f665
     Pseudo is Ultrasoft, Zval =  1.0
     Generated using "atomic" code by A. Dal Corso  v.6.0 svn rev. 13079
     Using radial grid of  929 points,  2 beta functions with: 
                l(1) =   0
                l(2) =   0
     Q(r) pseudized with 0 coefficients 


     PseudoPot. # 4 for Zn read from file:
     ./pseudo/zn_pbesol_v1.uspp.F.UPF
     MD5 check sum: 7d8615e52efe7c1e2b1899de8658bae2
     Pseudo is Ultrasoft, Zval = 20.0
     Generated by new atomic code, or converted to UPF format
     Using radial grid of  943 points,  6 beta functions with: 
                l(1) =   0
                l(2) =   0
                l(3) =   1
                l(4) =   1
                l(5) =   2
                l(6) =   2
     Q(r) pseudized with  8 coefficients,  rinner =    1.100   1.100   1.100
                                                       1.100   1.100

     atomic species   valence    mass     pseudopotential
        N              5.00    14.00670     N ( 1.00)
        C              4.00    12.01070     C ( 1.00)
        H              1.00     1.00794     H ( 1.00)
        Zn            20.00    65.38000     Zn( 1.00)

     No symmetry found


                                    s                        frac. trans.

      isym =  1     identity                                     

 cryst.   s( 1) = (     1          0          0      )
                  (     0          1          0      )
                  (     0          0          1      )

 cart.    s( 1) = (  1.0000000  0.0000000  0.0000000 )
                  (  0.0000000  1.0000000  0.0000000 )
                  (  0.0000000  0.0000000  1.0000000 )


   Cartesian axes

     site n.     atom                  positions (alat units)
         1           N   tau(   1) = (   0.2710468  -0.0829864   0.1173636  )
         2           N   tau(   2) = (   0.0161599   0.1719005   0.4638680  )
         3           N   tau(   3) = (   0.5259337  -0.3378733   0.4638680  )
         4           N   tau(   4) = (   0.2710468  -0.0829864   0.8103725  )
         5           N   tau(   5) = (   0.5259337   0.1719005  -0.2291408  )
         6           N   tau(   6) = (   0.2710468   0.4267874   0.1173636  )
         7           N   tau(   7) = (   0.7808206  -0.0829864   0.1173636  )
         8           N   tau(   8) = (   0.5259337   0.1719005   0.4638680  )
         9           N   tau(   9) = (   0.0792892   0.1480962   0.4576515  )
        10           N   tau(  10) = (  -0.1755977   0.4029831   0.8041559  )
        11           N   tau(  11) = (   0.3341761  -0.1067907   0.8041559  )
        12           N   tau(  12) = (   0.0792892   0.1480962   1.1506604  )
        13           N   tau(  13) = (   0.3341761   0.4029831   0.1111471  )
        14           N   tau(  14) = (   0.0792892   0.6578701   0.4576515  )
        15           N   tau(  15) = (   0.5890630   0.1480962   0.4576515  )
        16           N   tau(  16) = (   0.3341761   0.4029831   0.8041559  )
        17           C   tau(  17) = (  -0.0968335   0.1355948   0.4273593  )
        18           C   tau(  18) = (  -0.3517204   0.3904817   0.7738637  )
        19           C   tau(  19) = (   0.1580534  -0.1192921   0.7738637  )
        20           C   tau(  20) = (  -0.0968335   0.1355948   1.1203682  )
        21           C   tau(  21) = (   0.1580534   0.3904817   0.0808549  )
        22           C   tau(  22) = (  -0.0968335   0.6453687   0.4273593  )
        23           C   tau(  23) = (   0.4129403   0.1355948   0.4273593  )
        24           C   tau(  24) = (   0.1580534   0.3904817   0.7738637  )
        25           C   tau(  25) = (  -0.0244840   0.1283983   0.4318794  )
        26           C   tau(  26) = (  -0.2793710   0.3832852   0.7783839  )
        27           C   tau(  27) = (   0.2304029  -0.1264886   0.7783839  )
        28           C   tau(  28) = (  -0.0244840   0.1283983   1.1248883  )
        29           C   tau(  29) = (   0.2304029   0.3832852   0.0853750  )
        30           C   tau(  30) = (  -0.0244840   0.6381721   0.4318794  )
        31           C   tau(  31) = (   0.4852898   0.1283983   0.4318794  )
        32           C   tau(  32) = (   0.2304029   0.3832852   0.7783839  )
        33           C   tau(  33) = (   0.1135697   0.3364209   0.0858899  )
        34           C   tau(  34) = (  -0.1413172   0.5913078   0.4323944  )
        35           C   tau(  35) = (   0.3684566   0.0815340   0.4323944  )
        36           C   tau(  36) = (   0.1135697   0.3364209   0.7788988  )
        37           C   tau(  37) = (   0.3684566   0.5913078  -0.2606145  )
        38           C   tau(  38) = (   0.1135697   0.8461947   0.0858899  )
        39           C   tau(  39) = (   0.6233435   0.3364209   0.0858899  )
        40           C   tau(  40) = (   0.3684566   0.5913078   0.4323944  )
        41           H   tau(  41) = (   0.1320089   0.2848859   0.0919123  )
        42           H   tau(  42) = (  -0.1228780   0.5397728   0.4384168  )
        43           H   tau(  43) = (   0.3868958   0.0299990   0.4384168  )
        44           H   tau(  44) = (   0.1320089   0.2848859   0.7849212  )
        45           H   tau(  45) = (   0.3868958   0.5397728  -0.2545921  )
        46           H   tau(  46) = (   0.1320089   0.7946597   0.0919123  )
        47           H   tau(  47) = (   0.6417827   0.2848859   0.0919123  )
        48           H   tau(  48) = (   0.3868958   0.5397728   0.4384168  )
        49           C   tau(  49) = (   0.0234072   0.4166034   0.0803957  )
        50           C   tau(  50) = (  -0.2314797   0.6714904   0.4269002  )
        51           C   tau(  51) = (   0.2782941   0.1617165   0.4269002  )
        52           C   tau(  52) = (   0.0234072   0.4166034   0.7734046  )
        53           C   tau(  53) = (   0.2782941   0.6714904  -0.2661087  )
        54           C   tau(  54) = (   0.0234072   0.9263773   0.0803957  )
        55           C   tau(  55) = (   0.5331811   0.4166034   0.0803957  )
        56           C   tau(  56) = (   0.2782941   0.6714904   0.4269002  )
        57           H   tau(  57) = (  -0.0300067   0.4299903   0.0814174  )
        58           H   tau(  58) = (  -0.2848936   0.6848772   0.4279218  )
        59           H   tau(  59) = (   0.2248802   0.1751034   0.4279218  )
        60           H   tau(  60) = (  -0.0300067   0.4299903   0.7744263  )
        61           H   tau(  61) = (   0.2248802   0.6848772  -0.2650870  )
        62           H   tau(  62) = (  -0.0300067   0.9397641   0.0814174  )
        63           H   tau(  63) = (   0.4797671   0.4299903   0.0814174  )
        64           H   tau(  64) = (   0.2248802   0.6848772   0.4279218  )
        65           N   tau(  65) = (   0.0137429   0.0791523   0.4063605  )
        66           N   tau(  66) = (  -0.2411440   0.3340392   0.7528650  )
        67           N   tau(  67) = (   0.2686298  -0.1757347   0.7528650  )
        68           N   tau(  68) = (   0.0137429   0.0791523   1.0993694  )
        69           N   tau(  69) = (   0.2686298   0.3340392   0.0598561  )
        70           N   tau(  70) = (   0.0137429   0.5889261   0.4063605  )
        71           N   tau(  71) = (   0.5235167   0.0791523   0.4063605  )
        72           N   tau(  72) = (   0.2686298   0.3340392   0.7528650  )
        73           N   tau(  73) = (   0.0778636   0.0929680   0.4236992  )
        74           N   tau(  74) = (  -0.1770233   0.3478549   0.7702037  )
        75           N   tau(  75) = (   0.3327505  -0.1619189   0.7702037  )
        76           N   tau(  76) = (   0.0778636   0.0929680   1.1167081  )
        77           N   tau(  77) = (   0.3327505   0.3478549   0.0771948  )
        78           N   tau(  78) = (   0.0778636   0.6027418   0.4236992  )
        79           N   tau(  79) = (   0.5876374   0.0929680   0.4236992  )
        80           N   tau(  80) = (   0.3327505   0.3478549   0.7702037  )
        81           C   tau(  81) = (  -0.1238286   0.2001118   0.4205514  )
        82           C   tau(  82) = (  -0.3787155   0.4549987   0.7670558  )
        83           C   tau(  83) = (   0.1310583  -0.0547751   0.7670558  )
        84           C   tau(  84) = (  -0.1238286   0.2001118   1.1135603  )
        85           C   tau(  85) = (   0.1310583   0.4549987   0.0740469  )
        86           C   tau(  86) = (  -0.1238286   0.7098857   0.4205514  )
        87           C   tau(  87) = (   0.3859452   0.2001118   0.4205514  )
        88           C   tau(  88) = (   0.1310583   0.4549987   0.7670558  )
        89           H   tau(  89) = (   0.1645114  -0.0114933   0.0672613  )
        90           H   tau(  90) = (  -0.0903755   0.2433936   0.4137658  )
        91           H   tau(  91) = (   0.4193983  -0.2663802   0.4137658  )
        92           H   tau(  92) = (   0.1645114  -0.0114933   0.7602702  )
        93           H   tau(  93) = (   0.4193983   0.2433936  -0.2792431  )
        94           H   tau(  94) = (   0.1645114   0.4982805   0.0672613  )
        95           H   tau(  95) = (   0.6742852  -0.0114933   0.0672613  )
        96           H   tau(  96) = (   0.4193983   0.2433936   0.4137658  )
        97           N   tau(  97) = (   0.0658052  -0.0414701   0.0746064  )
        98           N   tau(  98) = (  -0.1890817   0.2134168   0.4211109  )
        99           N   tau(  99) = (   0.3206921  -0.2963571   0.4211109  )
       100           N   tau( 100) = (   0.0658052  -0.0414701   0.7676153  )
       101           N   tau( 101) = (   0.3206921   0.2134168  -0.2718980  )
       102           N   tau( 102) = (   0.0658052   0.4683037   0.0746064  )
       103           N   tau( 103) = (   0.5755790  -0.0414701   0.0746064  )
       104           N   tau( 104) = (   0.3206921   0.2134168   0.4211109  )
       105           C   tau( 105) = (  -0.0451994   0.1596322   0.0850839  )
       106           C   tau( 106) = (  -0.3000863   0.4145191   0.4315883  )
       107           C   tau( 107) = (   0.2096875  -0.0952547   0.4315883  )
       108           C   tau( 108) = (  -0.0451994   0.1596322   0.7780928  )
       109           C   tau( 109) = (   0.2096875   0.4145191  -0.2614205  )
       110           C   tau( 110) = (  -0.0451994   0.6694060   0.0850839  )
       111           C   tau( 111) = (   0.4645744   0.1596322   0.0850839  )
       112           C   tau( 112) = (   0.2096875   0.4145191   0.4315883  )
       113           H   tau( 113) = (   0.0084776   0.3100745   0.0891455  )
       114           H   tau( 114) = (  -0.2466802   0.5646905   0.4360182  )
       115           H   tau( 115) = (   0.2630936   0.0549167   0.4360182  )
       116           H   tau( 116) = (   0.0082067   0.3098036   0.7825226  )
       117           H   tau( 117) = (   0.2630936   0.5646905  -0.2569907  )
       118           H   tau( 118) = (   0.0082067   0.8195774   0.0895138  )
       119           H   tau( 119) = (   0.5179805   0.3098036   0.0895138  )
       120           H   tau( 120) = (   0.2630936   0.5646905   0.4360182  )
       121           N   tau( 121) = (   0.2387270   0.0829864   0.1173636  )
       122           N   tau( 122) = (  -0.0161599   0.3378733   0.4638680  )
       123           N   tau( 123) = (   0.4936139  -0.1719005   0.4638680  )
       124           N   tau( 124) = (   0.2387270   0.0829864   0.8103725  )
       125           N   tau( 125) = (   0.4936139   0.3378733  -0.2291408  )
       126           N   tau( 126) = (   0.2387270   0.5927603   0.1173636  )
       127           N   tau( 127) = (   0.7485008   0.0829864   0.1173636  )
       128           N   tau( 128) = (   0.4936139   0.3378733   0.4638680  )
       129           N   tau( 129) = (   0.1755977   0.1067907   0.1111471  )
       130           N   tau( 130) = (  -0.0792892   0.3616776   0.4576515  )
       131           N   tau( 131) = (   0.4304846  -0.1480962   0.4576515  )
       132           N   tau( 132) = (   0.1755977   0.1067907   0.8041559  )
       133           N   tau( 133) = (   0.4304846   0.3616776  -0.2353574  )
       134           N   tau( 134) = (   0.1755977   0.6165645   0.1111471  )
       135           N   tau( 135) = (   0.6853715   0.1067907   0.1111471  )
       136           N   tau( 136) = (   0.4304846   0.3616776   0.4576515  )
       137           C   tau( 137) = (   0.3517204   0.1192921   0.0808549  )
       138           C   tau( 138) = (   0.0968335   0.3741790   0.4273593  )
       139           C   tau( 139) = (   0.6066073  -0.1355948   0.4273593  )
       140           C   tau( 140) = (   0.3517204   0.1192921   0.7738637  )
       141           C   tau( 141) = (   0.6066073   0.3741790  -0.2656496  )
       142           C   tau( 142) = (   0.3517204   0.6290659   0.0808549  )
       143           C   tau( 143) = (   0.8614942   0.1192921   0.0808549  )
       144           C   tau( 144) = (   0.6066073   0.3741790   0.4273593  )
       145           C   tau( 145) = (   0.2793710   0.1264886   0.0853750  )
       146           C   tau( 146) = (   0.0244840   0.3813755   0.4318794  )
       147           C   tau( 147) = (   0.5342579  -0.1283983   0.4318794  )
       148           C   tau( 148) = (   0.2793710   0.1264886   0.7783839  )
       149           C   tau( 149) = (   0.5342579   0.3813755  -0.2611294  )
       150           C   tau( 150) = (   0.2793710   0.6362624   0.0853750  )
       151           C   tau( 151) = (   0.7891448   0.1264886   0.0853750  )
       152           C   tau( 152) = (   0.5342579   0.3813755   0.4318794  )
       153           C   tau( 153) = (   0.1413172  -0.0815340   0.4323944  )
       154           C   tau( 154) = (  -0.1135697   0.1733530   0.7788988  )
       155           C   tau( 155) = (   0.3962041  -0.3364209   0.7788988  )
       156           C   tau( 156) = (   0.1413172  -0.0815340   1.1254033  )
       157           C   tau( 157) = (   0.3962041   0.1733530   0.0858899  )
       158           C   tau( 158) = (   0.1413172   0.4282399   0.4323944  )
       159           C   tau( 159) = (   0.6510910  -0.0815340   0.4323944  )
       160           C   tau( 160) = (   0.3962041   0.1733530   0.7788988  )
       161           H   tau( 161) = (   0.1228780  -0.0299990   0.4384168  )
       162           H   tau( 162) = (  -0.1320089   0.2248879   0.7849212  )
       163           H   tau( 163) = (   0.3777649  -0.2848859   0.7849212  )
       164           H   tau( 164) = (   0.1228780  -0.0299990   1.1314256  )
       165           H   tau( 165) = (   0.3777649   0.2248879   0.0919123  )
       166           H   tau( 166) = (   0.1228780   0.4797748   0.4384168  )
       167           H   tau( 167) = (   0.6326518  -0.0299990   0.4384168  )
       168           H   tau( 168) = (   0.3777649   0.2248879   0.7849212  )
       169           C   tau( 169) = (  -0.0234072   0.0931704   0.0803957  )
       170           C   tau( 170) = (  -0.2782942   0.3480573   0.4269002  )
       171           C   tau( 171) = (   0.2314797  -0.1617165   0.4269002  )
       172           C   tau( 172) = (  -0.0234072   0.0931704   0.7734046  )
       173           C   tau( 173) = (   0.2314797   0.3480573  -0.2661087  )
       174           C   tau( 174) = (  -0.0234072   0.6029442   0.0803957  )
       175           C   tau( 175) = (   0.4863666   0.0931704   0.0803957  )
       176           C   tau( 176) = (   0.2314797   0.3480573   0.4269002  )
       177           H   tau( 177) = (   0.0300067   0.0797836   0.0814174  )
       178           H   tau( 178) = (  -0.2248802   0.3346705   0.4279218  )
       179           H   tau( 179) = (   0.2848936  -0.1751034   0.4279218  )
       180           H   tau( 180) = (   0.0300067   0.0797836   0.7744263  )
       181           H   tau( 181) = (   0.2848936   0.3346705  -0.2650870  )
       182           H   tau( 182) = (   0.0300067   0.5895574   0.0814174  )
       183           H   tau( 183) = (   0.5397805   0.0797836   0.0814174  )
       184           H   tau( 184) = (   0.2848936   0.3346705   0.4279218  )
       185           N   tau( 185) = (   0.2411440   0.1757347   0.0598561  )
       186           N   tau( 186) = (  -0.0137429   0.4306216   0.4063605  )
       187           N   tau( 187) = (   0.4960309  -0.0791523   0.4063605  )
       188           N   tau( 188) = (   0.2411440   0.1757347   0.7528650  )
       189           N   tau( 189) = (   0.4960309   0.4306216  -0.2866484  )
       190           N   tau( 190) = (   0.2411440   0.6855085   0.0598561  )
       191           N   tau( 191) = (   0.7509178   0.1757347   0.0598561  )
       192           N   tau( 192) = (   0.4960309   0.4306216   0.4063605  )
       193           N   tau( 193) = (   0.1770233   0.1619189   0.0771948  )
       194           N   tau( 194) = (  -0.0778636   0.4168059   0.4236992  )
       195           N   tau( 195) = (   0.4319102  -0.0929680   0.4236992  )
       196           N   tau( 196) = (   0.1770233   0.1619189   0.7702037  )
       197           N   tau( 197) = (   0.4319102   0.4168059  -0.2693096  )
       198           N   tau( 198) = (   0.1770233   0.6716928   0.0771948  )
       199           N   tau( 199) = (   0.6867971   0.1619189   0.0771948  )
       200           N   tau( 200) = (   0.4319102   0.4168059   0.4236992  )
       201           C   tau( 201) = (   0.3787155   0.0547751   0.0740469  )
       202           C   tau( 202) = (   0.1238286   0.3096620   0.4205514  )
       203           C   tau( 203) = (   0.6336024  -0.2001118   0.4205514  )
       204           C   tau( 204) = (   0.3787155   0.0547751   0.7670558  )
       205           C   tau( 205) = (   0.6336024   0.3096620  -0.2724575  )
       206           C   tau( 206) = (   0.3787155   0.5645489   0.0740469  )
       207           C   tau( 207) = (   0.8884893   0.0547751   0.0740469  )
       208           C   tau( 208) = (   0.6336024   0.3096620   0.4205514  )
       209           H   tau( 209) = (   0.3452624   0.0114933   0.0672613  )
       210           H   tau( 210) = (   0.0903755   0.2663802   0.4137658  )
       211           H   tau( 211) = (   0.6001493  -0.2433936   0.4137658  )
       212           H   tau( 212) = (   0.3452624   0.0114933   0.7602702  )
       213           H   tau( 213) = (   0.6001493   0.2663802  -0.2792431  )
       214           H   tau( 214) = (   0.3452624   0.5212672   0.0672613  )
       215           H   tau( 215) = (   0.8550362   0.0114933   0.0672613  )
       216           H   tau( 216) = (   0.6001493   0.2663802   0.4137658  )
       217           N   tau( 217) = (   0.4439686   0.0414701   0.0746064  )
       218           N   tau( 218) = (   0.1890817   0.2963571   0.4211109  )
       219           N   tau( 219) = (   0.6988555  -0.2134168   0.4211109  )
       220           N   tau( 220) = (   0.4439686   0.0414701   0.7676153  )
       221           N   tau( 221) = (   0.6988555   0.2963571  -0.2718980  )
       222           N   tau( 222) = (   0.4439686   0.5512440   0.0746064  )
       223           N   tau( 223) = (   0.9537424   0.0414701   0.0746064  )
       224           N   tau( 224) = (   0.6988555   0.2963571   0.4211109  )
       225           C   tau( 225) = (   0.0451994   0.3501416   0.0850839  )
       226           C   tau( 226) = (  -0.2096875   0.6050285   0.4315883  )
       227           C   tau( 227) = (   0.3000863   0.0952547   0.4315883  )
       228           C   tau( 228) = (   0.0451994   0.3501416   0.7780928  )
       229           C   tau( 229) = (   0.3000863   0.6050285  -0.2614205  )
       230           C   tau( 230) = (   0.0451994   0.8599154   0.0850839  )
       231           C   tau( 231) = (   0.5549732   0.3501416   0.0850839  )
       232           C   tau( 232) = (   0.3000863   0.6050285   0.4315883  )
       233           H   tau( 233) = (  -0.0082067   0.1999702   0.0895138  )
       234           H   tau( 234) = (  -0.2630936   0.4548571   0.4360182  )
       235           H   tau( 235) = (   0.2466802  -0.0549167   0.4360182  )
       236           H   tau( 236) = (  -0.0082067   0.1999702   0.7825226  )
       237           H   tau( 237) = (   0.2466802   0.4548571  -0.2569907  )
       238           H   tau( 238) = (  -0.0082067   0.7097440   0.0895138  )
       239           H   tau( 239) = (   0.5015671   0.1999702   0.0895138  )
       240           H   tau( 240) = (   0.2466802   0.4548571   0.4360182  )
       241           N   tau( 241) = (   0.1719005  -0.0161599   0.2291408  )
       242           N   tau( 242) = (  -0.0829864   0.2387270   0.5756453  )
       243           N   tau( 243) = (   0.4267874  -0.2710468   0.5756453  )
       244           N   tau( 244) = (   0.1719005  -0.0161599   0.9221497  )
       245           N   tau( 245) = (   0.4267874   0.2387270  -0.1173636  )
       246           N   tau( 246) = (   0.1719005   0.4936139   0.2291408  )
       247           N   tau( 247) = (   0.6816743  -0.0161599   0.2291408  )
       248           N   tau( 248) = (   0.4267874   0.2387270   0.5756453  )
       249           N   tau( 249) = (   0.1480962  -0.0792892   0.2353574  )
       250           N   tau( 250) = (  -0.1067907   0.1755977   0.5818618  )
       251           N   tau( 251) = (   0.4029831  -0.3341761   0.5818618  )
       252           N   tau( 252) = (   0.1480962  -0.0792892   0.9283662  )
       253           N   tau( 253) = (   0.4029831   0.1755977  -0.1111471  )
       254           N   tau( 254) = (   0.1480962   0.4304846   0.2353574  )
       255           N   tau( 255) = (   0.6578701  -0.0792892   0.2353574  )
       256           N   tau( 256) = (   0.4029831   0.1755977   0.5818618  )
       257           C   tau( 257) = (   0.1355948   0.0968335   0.2656496  )
       258           C   tau( 258) = (  -0.1192921   0.3517204   0.6121540  )
       259           C   tau( 259) = (   0.3904817  -0.1580534   0.6121540  )
       260           C   tau( 260) = (   0.1355948   0.0968335   0.9586584  )
       261           C   tau( 261) = (   0.3904817   0.3517204  -0.0808549  )
       262           C   tau( 262) = (   0.1355948   0.6066073   0.2656496  )
       263           C   tau( 263) = (   0.6453687   0.0968335   0.2656496  )
       264           C   tau( 264) = (   0.3904817   0.3517204   0.6121540  )
       265           C   tau( 265) = (   0.1283983   0.0244840   0.2611294  )
       266           C   tau( 266) = (  -0.1264886   0.2793710   0.6076339  )
       267           C   tau( 267) = (   0.3832852  -0.2304029   0.6076339  )
       268           C   tau( 268) = (   0.1283983   0.0244840   0.9541383  )
       269           C   tau( 269) = (   0.3832852   0.2793710  -0.0853750  )
       270           C   tau( 270) = (   0.1283983   0.5342579   0.2611294  )
       271           C   tau( 271) = (   0.6381721   0.0244840   0.2611294  )
       272           C   tau( 272) = (   0.3832852   0.2793710   0.6076339  )
       273           C   tau( 273) = (   0.0815340   0.1413172   0.2606145  )
       274           C   tau( 274) = (  -0.1733530   0.3962041   0.6071189  )
       275           C   tau( 275) = (   0.3364209  -0.1135697   0.6071189  )
       276           C   tau( 276) = (   0.0815340   0.1413172   0.9536234  )
       277           C   tau( 277) = (   0.3364209   0.3962041  -0.0858899  )
       278           C   tau( 278) = (   0.0815340   0.6510910   0.2606145  )
       279           C   tau( 279) = (   0.5913078   0.1413172   0.2606145  )
       280           C   tau( 280) = (   0.3364209   0.3962041   0.6071189  )
       281           H   tau( 281) = (   0.0299990   0.1228780   0.2545921  )
       282           H   tau( 282) = (  -0.2248879   0.3777649   0.6010965  )
       283           H   tau( 283) = (   0.2848859  -0.1320089   0.6010965  )
       284           H   tau( 284) = (   0.0299990   0.1228780   0.9476010  )
       285           H   tau( 285) = (   0.2848859   0.3777649  -0.0919123  )
       286           H   tau( 286) = (   0.0299990   0.6326518   0.2545921  )
       287           H   tau( 287) = (   0.5397728   0.1228780   0.2545921  )
       288           H   tau( 288) = (   0.2848859   0.3777649   0.6010965  )
       289           C   tau( 289) = (   0.1617165   0.2314797   0.2661087  )
       290           C   tau( 290) = (  -0.0931704   0.4863666   0.6126131  )
       291           C   tau( 291) = (   0.4166034  -0.0234072   0.6126131  )
       292           C   tau( 292) = (   0.1617165   0.2314797   0.9591176  )
       293           C   tau( 293) = (   0.4166034   0.4863666  -0.0803957  )
       294           C   tau( 294) = (   0.1617165   0.7412535   0.2661087  )
       295           C   tau( 295) = (   0.6714904   0.2314797   0.2661087  )
       296           C   tau( 296) = (   0.4166034   0.4863666   0.6126131  )
       297           H   tau( 297) = (   0.1751034   0.2848936   0.2650870  )
       298           H   tau( 298) = (  -0.0797836   0.5397805   0.6115915  )
       299           H   tau( 299) = (   0.4299903   0.0300067   0.6115915  )
       300           H   tau( 300) = (   0.1751034   0.2848936   0.9580959  )
       301           H   tau( 301) = (   0.4299903   0.5397805  -0.0814174  )
       302           H   tau( 302) = (   0.1751034   0.7946674   0.2650870  )
       303           H   tau( 303) = (   0.6848772   0.2848936   0.2650870  )
       304           H   tau( 304) = (   0.4299903   0.5397805   0.6115915  )
       305           N   tau( 305) = (   0.0791523  -0.0137429   0.2866484  )
       306           N   tau( 306) = (  -0.1757347   0.2411440   0.6331528  )
       307           N   tau( 307) = (   0.3340392  -0.2686298   0.6331528  )
       308           N   tau( 308) = (   0.0791523  -0.0137429   0.9796572  )
       309           N   tau( 309) = (   0.3340392   0.2411440  -0.0598561  )
       310           N   tau( 310) = (   0.0791523   0.4960309   0.2866484  )
       311           N   tau( 311) = (   0.5889261  -0.0137429   0.2866484  )
       312           N   tau( 312) = (   0.3340392   0.2411440   0.6331528  )
       313           N   tau( 313) = (   0.0929680  -0.0778636   0.2693096  )
       314           N   tau( 314) = (  -0.1619189   0.1770233   0.6158141  )
       315           N   tau( 315) = (   0.3478549  -0.3327505   0.6158141  )
       316           N   tau( 316) = (   0.0929680  -0.0778636   0.9623185  )
       317           N   tau( 317) = (   0.3478549   0.1770233  -0.0771948  )
       318           N   tau( 318) = (   0.0929680   0.4319102   0.2693096  )
       319           N   tau( 319) = (   0.6027418  -0.0778636   0.2693096  )
       320           N   tau( 320) = (   0.3478549   0.1770233   0.6158141  )
       321           C   tau( 321) = (   0.2001118   0.1238286   0.2724575  )
       322           C   tau( 322) = (  -0.0547751   0.3787155   0.6189619  )
       323           C   tau( 323) = (   0.4549987  -0.1310583   0.6189619  )
       324           C   tau( 324) = (   0.2001118   0.1238286   0.9654664  )
       325           C   tau( 325) = (   0.4549987   0.3787155  -0.0740469  )
       326           C   tau( 326) = (   0.2001118   0.6336024   0.2724575  )
       327           C   tau( 327) = (   0.7098857   0.1238286   0.2724575  )
       328           C   tau( 328) = (   0.4549987   0.3787155   0.6189619  )
       329           H   tau( 329) = (   0.2433936   0.0903755   0.2792431  )
       330           H   tau( 330) = (  -0.0114933   0.3452624   0.6257475  )
       331           H   tau( 331) = (   0.4982805  -0.1645114   0.6257475  )
       332           H   tau( 332) = (   0.2433936   0.0903755   0.9722520  )
       333           H   tau( 333) = (   0.4982805   0.3452624  -0.0672613  )
       334           H   tau( 334) = (   0.2433936   0.6001493   0.2792431  )
       335           H   tau( 335) = (   0.7531674   0.0903755   0.2792431  )
       336           H   tau( 336) = (   0.4982805   0.3452624   0.6257475  )
       337           N   tau( 337) = (   0.2134168   0.1890817   0.2718980  )
       338           N   tau( 338) = (  -0.0414701   0.4439686   0.6184024  )
       339           N   tau( 339) = (   0.4683037  -0.0658052   0.6184024  )
       340           N   tau( 340) = (   0.2134168   0.1890817   0.9649069  )
       341           N   tau( 341) = (   0.4683037   0.4439686  -0.0746064  )
       342           N   tau( 342) = (   0.2134168   0.6988555   0.2718980  )
       343           N   tau( 343) = (   0.7231906   0.1890817   0.2718980  )
       344           N   tau( 344) = (   0.4683037   0.4439686   0.6184024  )
       345           C   tau( 345) = (  -0.0952547   0.3000863   0.2614205  )
       346           C   tau( 346) = (  -0.3501416   0.5549732   0.6079250  )
       347           C   tau( 347) = (   0.1596322   0.0451994   0.6079250  )
       348           C   tau( 348) = (  -0.0952547   0.3000863   0.9544294  )
       349           C   tau( 349) = (   0.1596322   0.5549732  -0.0850839  )
       350           C   tau( 350) = (  -0.0952547   0.8098601   0.2614205  )
       351           C   tau( 351) = (   0.4145191   0.3000863   0.2614205  )
       352           C   tau( 352) = (   0.1596322   0.5549732   0.6079250  )
       353           H   tau( 353) = (   0.0549167   0.2466802   0.2569907  )
       354           H   tau( 354) = (  -0.1999702   0.5015671   0.6034951  )
       355           H   tau( 355) = (   0.3098036  -0.0082067   0.6034951  )
       356           H   tau( 356) = (   0.0549167   0.2466802   0.9499995  )
       357           H   tau( 357) = (   0.3098036   0.5015671  -0.0895138  )
       358           H   tau( 358) = (   0.0549167   0.7564540   0.2569907  )
       359           H   tau( 359) = (   0.5646905   0.2466802   0.2569907  )
       360           H   tau( 360) = (   0.3098036   0.5015671   0.6034951  )
       361           N   tau( 361) = (   0.3378733   0.0161599   0.2291408  )
       362           N   tau( 362) = (   0.0829864   0.2710468   0.5756453  )
       363           N   tau( 363) = (   0.5927603  -0.2387270   0.5756453  )
       364           N   tau( 364) = (   0.3378733   0.0161599   0.9221497  )
       365           N   tau( 365) = (   0.5927603   0.2710468  -0.1173636  )
       366           N   tau( 366) = (   0.3378733   0.5259337   0.2291408  )
       367           N   tau( 367) = (   0.8476472   0.0161599   0.2291408  )
       368           N   tau( 368) = (   0.5927603   0.2710468   0.5756453  )
       369           N   tau( 369) = (   0.1067907   0.3341761  -0.1111471  )
       370           N   tau( 370) = (  -0.1480962   0.5890630   0.2353574  )
       371           N   tau( 371) = (   0.3616776   0.0792892   0.2353574  )
       372           N   tau( 372) = (   0.1067907   0.3341761   0.5818618  )
       373           N   tau( 373) = (   0.3616776   0.5890630  -0.4576515  )
       374           N   tau( 374) = (   0.1067907   0.8439499  -0.1111471  )
       375           N   tau( 375) = (   0.6165645   0.3341761  -0.1111471  )
       376           N   tau( 376) = (   0.3616776   0.5890630   0.2353574  )
       377           C   tau( 377) = (   0.1192921   0.1580534  -0.0808549  )
       378           C   tau( 378) = (  -0.1355948   0.4129403   0.2656496  )
       379           C   tau( 379) = (   0.3741790  -0.0968335   0.2656496  )
       380           C   tau( 380) = (   0.1192921   0.1580534   0.6121540  )
       381           C   tau( 381) = (   0.3741790   0.4129403  -0.4273593  )
       382           C   tau( 382) = (   0.1192921   0.6678273  -0.0808549  )
       383           C   tau( 383) = (   0.6290659   0.1580534  -0.0808549  )
       384           C   tau( 384) = (   0.3741790   0.4129403   0.2656496  )
       385           C   tau( 385) = (   0.1264886   0.2304029  -0.0853750  )
       386           C   tau( 386) = (  -0.1283983   0.4852898   0.2611294  )
       387           C   tau( 387) = (   0.3813755  -0.0244840   0.2611294  )
       388           C   tau( 388) = (   0.1264886   0.2304029   0.6076339  )
       389           C   tau( 389) = (   0.3813755   0.4852898  -0.4318794  )
       390           C   tau( 390) = (   0.1264886   0.7401767  -0.0853750  )
       391           C   tau( 391) = (   0.6362624   0.2304029  -0.0853750  )
       392           C   tau( 392) = (   0.3813755   0.4852898   0.2611294  )
       393           C   tau( 393) = (   0.1733530   0.1135697  -0.0858899  )
       394           C   tau( 394) = (  -0.0815340   0.3684566   0.2606145  )
       395           C   tau( 395) = (   0.4282399  -0.1413172   0.2606145  )
       396           C   tau( 396) = (   0.1733530   0.1135697   0.6071189  )
       397           C   tau( 397) = (   0.4282399   0.3684566  -0.4323944  )
       398           C   tau( 398) = (   0.1733530   0.6233435  -0.0858899  )
       399           C   tau( 399) = (   0.6831268   0.1135697  -0.0858899  )
       400           C   tau( 400) = (   0.4282399   0.3684566   0.2606145  )
       401           H   tau( 401) = (   0.2248879   0.1320089  -0.0919123  )
       402           H   tau( 402) = (  -0.0299990   0.3868958   0.2545921  )
       403           H   tau( 403) = (   0.4797748  -0.1228780   0.2545921  )
       404           H   tau( 404) = (   0.2248879   0.1320089   0.6010965  )
       405           H   tau( 405) = (   0.4797748   0.3868958  -0.4384168  )
       406           H   tau( 406) = (   0.2248879   0.6417827  -0.0919123  )
       407           H   tau( 407) = (   0.7346617   0.1320089  -0.0919123  )
       408           H   tau( 408) = (   0.4797748   0.3868958   0.2545921  )
       409           C   tau( 409) = (  -0.1617165   0.2782942   0.2661087  )
       410           C   tau( 410) = (  -0.4166034   0.5331811   0.6126131  )
       411           C   tau( 411) = (   0.0931704   0.0234072   0.6126131  )
       412           C   tau( 412) = (  -0.1617165   0.2782942   0.9591176  )
       413           C   tau( 413) = (   0.0931704   0.5331811  -0.0803957  )
       414           C   tau( 414) = (  -0.1617165   0.7880680   0.2661087  )
       415           C   tau( 415) = (   0.3480573   0.2782942   0.2661087  )
       416           C   tau( 416) = (   0.0931704   0.5331811   0.6126131  )
       417           H   tau( 417) = (  -0.1751034   0.2248802   0.2650870  )
       418           H   tau( 418) = (  -0.4299903   0.4797671   0.6115915  )
       419           H   tau( 419) = (   0.0797836  -0.0300067   0.6115915  )
       420           H   tau( 420) = (  -0.1751034   0.2248802   0.9580959  )
       421           H   tau( 421) = (   0.0797836   0.4797671  -0.0814174  )
       422           H   tau( 422) = (  -0.1751034   0.7346540   0.2650870  )
       423           H   tau( 423) = (   0.3346705   0.2248802   0.2650870  )
       424           H   tau( 424) = (   0.0797836   0.4797671   0.6115915  )
       425           N   tau( 425) = (   0.1757347   0.2686298  -0.0598561  )
       426           N   tau( 426) = (  -0.0791523   0.5235167   0.2866484  )
       427           N   tau( 427) = (   0.4306216   0.0137429   0.2866484  )
       428           N   tau( 428) = (   0.1757347   0.2686298   0.6331528  )
       429           N   tau( 429) = (   0.4306216   0.5235167  -0.4063605  )
       430           N   tau( 430) = (   0.1757347   0.7784037  -0.0598561  )
       431           N   tau( 431) = (   0.6855085   0.2686298  -0.0598561  )
       432           N   tau( 432) = (   0.4306216   0.5235167   0.2866484  )
       433           N   tau( 433) = (   0.1619189   0.3327505  -0.0771948  )
       434           N   tau( 434) = (  -0.0929680   0.5876374   0.2693096  )
       435           N   tau( 435) = (   0.4168059   0.0778636   0.2693096  )
       436           N   tau( 436) = (   0.1619189   0.3327505   0.6158141  )
       437           N   tau( 437) = (   0.4168059   0.5876374  -0.4236992  )
       438           N   tau( 438) = (   0.1619189   0.8425243  -0.0771948  )
       439           N   tau( 439) = (   0.6716928   0.3327505  -0.0771948  )
       440           N   tau( 440) = (   0.4168059   0.5876374   0.2693096  )
       441           C   tau( 441) = (   0.0547751   0.1310583  -0.0740469  )
       442           C   tau( 442) = (  -0.2001118   0.3859452   0.2724575  )
       443           C   tau( 443) = (   0.3096620  -0.1238286   0.2724575  )
       444           C   tau( 444) = (   0.0547751   0.1310583   0.6189619  )
       445           C   tau( 445) = (   0.3096620   0.3859452  -0.4205514  )
       446           C   tau( 446) = (   0.0547751   0.6408321  -0.0740469  )
       447           C   tau( 447) = (   0.5645489   0.1310583  -0.0740469  )
       448           C   tau( 448) = (   0.3096620   0.3859452   0.2724575  )
       449           H   tau( 449) = (   0.2663802  -0.0903755   0.2792431  )
       450           H   tau( 450) = (   0.0114933   0.1645114   0.6257475  )
       451           H   tau( 451) = (   0.5212672  -0.3452624   0.6257475  )
       452           H   tau( 452) = (   0.2663802  -0.0903755   0.9722520  )
       453           H   tau( 453) = (   0.5212672   0.1645114  -0.0672613  )
       454           H   tau( 454) = (   0.2663802   0.4193983   0.2792431  )
       455           H   tau( 455) = (   0.7761541  -0.0903755   0.2792431  )
       456           H   tau( 456) = (   0.5212672   0.1645114   0.6257475  )
       457           N   tau( 457) = (   0.2963571  -0.1890817   0.2718980  )
       458           N   tau( 458) = (   0.0414701   0.0658052   0.6184024  )
       459           N   tau( 459) = (   0.5512440  -0.4439686   0.6184024  )
       460           N   tau( 460) = (   0.2963571  -0.1890817   0.9649069  )
       461           N   tau( 461) = (   0.5512440   0.0658052  -0.0746064  )
       462           N   tau( 462) = (   0.2963571   0.3206921   0.2718980  )
       463           N   tau( 463) = (   0.8061309  -0.1890817   0.2718980  )
       464           N   tau( 464) = (   0.5512440   0.0658052   0.6184024  )
       465           C   tau( 465) = (   0.0952547   0.2096875   0.2614205  )
       466           C   tau( 466) = (  -0.1596322   0.4645744   0.6079250  )
       467           C   tau( 467) = (   0.3501416  -0.0451994   0.6079250  )
       468           C   tau( 468) = (   0.0952547   0.2096875   0.9544294  )
       469           C   tau( 469) = (   0.3501416   0.4645744  -0.0850839  )
       470           C   tau( 470) = (   0.0952547   0.7194613   0.2614205  )
       471           C   tau( 471) = (   0.6050285   0.2096875   0.2614205  )
       472           C   tau( 472) = (   0.3501416   0.4645744   0.6079250  )
       473           H   tau( 473) = (  -0.0549167   0.2630936   0.2569907  )
       474           H   tau( 474) = (  -0.3098036   0.5179805   0.6034951  )
       475           H   tau( 475) = (   0.1999702   0.0082067   0.6034951  )
       476           H   tau( 476) = (  -0.0549167   0.2630936   0.9499995  )
       477           H   tau( 477) = (   0.1999702   0.5179805  -0.0895138  )
       478           H   tau( 478) = (  -0.0549167   0.7728675   0.2569907  )
       479           H   tau( 479) = (   0.4548571   0.2630936   0.2569907  )
       480           H   tau( 480) = (   0.1999702   0.5179805   0.6034951  )
       481           Zn  tau( 481) = (   0.2548869   0.0000000   0.1732522  )
       482           Zn  tau( 482) = (   0.0000000   0.2548869   0.5197567  )
       483           Zn  tau( 483) = (   0.5097738  -0.2548869   0.5197567  )
       484           Zn  tau( 484) = (   0.2548869   0.0000000   0.8662611  )
       485           Zn  tau( 485) = (   0.5097738   0.2548869  -0.1732522  )
       486           Zn  tau( 486) = (   0.2548869   0.5097738   0.1732522  )
       487           Zn  tau( 487) = (   0.7646607   0.0000000   0.1732522  )
       488           Zn  tau( 488) = (   0.5097738   0.2548869   0.5197567  )
       489           Zn  tau( 489) = (   0.0000000   0.0000000   0.3465044  )
       490           Zn  tau( 490) = (  -0.2548869   0.2548869   0.6930089  )
       491           Zn  tau( 491) = (   0.2548869  -0.2548869   0.6930089  )
       492           Zn  tau( 492) = (   0.0000000   0.0000000   1.0395133  )
       493           Zn  tau( 493) = (   0.2548869   0.2548869   0.0000000  )
       494           Zn  tau( 494) = (   0.0000000   0.5097738   0.3465044  )
       495           Zn  tau( 495) = (   0.5097738   0.0000000   0.3465044  )
       496           Zn  tau( 496) = (   0.2548869   0.2548869   0.6930089  )

   Crystallographic axes

     site n.     atom                  positions (cryst. coord.)
         1           N   tau(   1) = (  0.0032815  0.3505269  0.1844547  )
         2           N   tau(   2) = (  0.5032815  0.3505269  0.1844547  )
         3           N   tau(   3) = (  0.0032815  0.8505269  0.1844547  )
         4           N   tau(   4) = (  0.5032815  0.8505269  0.1844547  )
         5           N   tau(   5) = (  0.0032815  0.3505269  0.6844547  )
         6           N   tau(   6) = (  0.5032815  0.3505269  0.6844547  )
         7           N   tau(   7) = (  0.0032815  0.8505269  0.6844547  )
         8           N   tau(   8) = (  0.5032815  0.8505269  0.6844547  )
         9           N   tau(   9) = (  0.4754485  0.4079607  0.2230258  )
        10           N   tau(  10) = (  0.9754485  0.4079607  0.2230258  )
        11           N   tau(  11) = (  0.4754485  0.9079607  0.2230258  )
        12           N   tau(  12) = (  0.9754485  0.9079607  0.2230258  )
        13           N   tau(  13) = (  0.4754485  0.4079607  0.7230258  )
        14           N   tau(  14) = (  0.9754485  0.4079607  0.7230258  )
        15           N   tau(  15) = (  0.4754485  0.9079607  0.7230258  )
        16           N   tau(  16) = (  0.9754485  0.9079607  0.7230258  )
        17           C   tau(  17) = (  0.4413312  0.2133592  0.0380182  )
        18           C   tau(  18) = (  0.9413312  0.2133592  0.0380182  )
        19           C   tau(  19) = (  0.4413312  0.7133592  0.0380182  )
        20           C   tau(  20) = (  0.9413312  0.7133592  0.0380182  )
        21           C   tau(  21) = (  0.4413312  0.2133592  0.5380182  )
        22           C   tau(  22) = (  0.9413312  0.2133592  0.5380182  )
        23           C   tau(  23) = (  0.4413312  0.7133592  0.5380182  )
        24           C   tau(  24) = (  0.9413312  0.7133592  0.5380182  )
        25           C   tau(  25) = (  0.4375339  0.2875827  0.1019219  )
        26           C   tau(  26) = (  0.9375339  0.2875827  0.1019219  )
        27           C   tau(  27) = (  0.4375339  0.7875827  0.1019219  )
        28           C   tau(  28) = (  0.9375339  0.7875827  0.1019219  )
        29           C   tau(  29) = (  0.4375339  0.2875827  0.6019219  )
        30           C   tau(  30) = (  0.9375339  0.2875827  0.6019219  )
        31           C   tau(  31) = (  0.4375339  0.7875827  0.6019219  )
        32           C   tau(  32) = (  0.9375339  0.7875827  0.6019219  )
        33           C   tau(  33) = (  0.3919396  0.1733611  0.4413630  )
        34           C   tau(  34) = (  0.8919396  0.1733611  0.4413630  )
        35           C   tau(  35) = (  0.3919396  0.6733611  0.4413630  )
        36           C   tau(  36) = (  0.8919396  0.6733611  0.4413630  )
        37           C   tau(  37) = (  0.3919396  0.1733611  0.9413630  )
        38           C   tau(  38) = (  0.8919396  0.1733611  0.9413630  )
        39           C   tau(  39) = (  0.3919396  0.6733611  0.9413630  )
        40           C   tau(  40) = (  0.8919396  0.6733611  0.9413630  )
        41           H   tau(  41) = (  0.3457378  0.1957919  0.4089018  )
        42           H   tau(  42) = (  0.8457378  0.1957919  0.4089018  )
        43           H   tau(  43) = (  0.3457378  0.6957919  0.4089018  )
        44           H   tau(  44) = (  0.8457378  0.6957919  0.4089018  )
        45           H   tau(  45) = (  0.3457378  0.1957919  0.9089018  )
        46           H   tau(  46) = (  0.8457378  0.1957919  0.9089018  )
        47           H   tau(  47) = (  0.3457378  0.6957919  0.9089018  )
        48           H   tau(  48) = (  0.8457378  0.6957919  0.9089018  )
        49           C   tau(  49) = (  0.4666208  0.0809633  0.4315744  )
        50           C   tau(  50) = (  0.9666208  0.0809633  0.4315744  )
        51           C   tau(  51) = (  0.4666208  0.5809633  0.4315744  )
        52           C   tau(  52) = (  0.9666208  0.5809633  0.4315744  )
        53           C   tau(  53) = (  0.4666208  0.0809633  0.9315744  )
        54           C   tau(  54) = (  0.9666208  0.0809633  0.9315744  )
        55           C   tau(  55) = (  0.4666208  0.5809633  0.9315744  )
        56           C   tau(  56) = (  0.9666208  0.5809633  0.9315744  )
        57           H   tau(  57) = (  0.4804881  0.0293106  0.3923147  )
        58           H   tau(  58) = (  0.9804881  0.0293106  0.3923147  )
        59           H   tau(  59) = (  0.4804881  0.5293106  0.3923147  )
        60           H   tau(  60) = (  0.9804881  0.5293106  0.3923147  )
        61           H   tau(  61) = (  0.4804881  0.0293106  0.8923147  )
        62           H   tau(  62) = (  0.9804881  0.0293106  0.8923147  )
        63           H   tau(  63) = (  0.4804881  0.5293106  0.8923147  )
        64           H   tau(  64) = (  0.9804881  0.5293106  0.8923147  )
        65           N   tau(  65) = (  0.3708203  0.3066651  0.0911141  )
        66           N   tau(  66) = (  0.8708203  0.3066651  0.0911141  )
        67           N   tau(  67) = (  0.3708203  0.8066651  0.0911141  )
        68           N   tau(  68) = (  0.8708203  0.8066651  0.0911141  )
        69           N   tau(  69) = (  0.3708203  0.3066651  0.5911141  )
        70           N   tau(  70) = (  0.8708203  0.3066651  0.5911141  )
        71           N   tau(  71) = (  0.3708203  0.8066651  0.5911141  )
        72           N   tau(  72) = (  0.8708203  0.8066651  0.5911141  )
        73           N   tau(  73) = (  0.3968809  0.3820661  0.1675562  )
        74           N   tau(  74) = (  0.8968809  0.3820661  0.1675562  )
        75           N   tau(  75) = (  0.3968809  0.8820661  0.1675562  )
        76           N   tau(  76) = (  0.8968809  0.8820661  0.1675562  )
        77           N   tau(  77) = (  0.3968809  0.3820661  0.6675562  )
        78           N   tau(  78) = (  0.8968809  0.3820661  0.6675562  )
        79           N   tau(  79) = (  0.3968809  0.8820661  0.6675562  )
        80           N   tau(  80) = (  0.8968809  0.8820661  0.6675562  )
        81           C   tau(  81) = (  0.4996994  0.1819698  0.0748207  )
        82           C   tau(  82) = (  0.9996994  0.1819698  0.0748207  )
        83           C   tau(  83) = (  0.4996994  0.6819698  0.0748207  )
        84           C   tau(  84) = (  0.9996994  0.6819698  0.0748207  )
        85           C   tau(  85) = (  0.4996994  0.1819698  0.5748207  )
        86           C   tau(  86) = (  0.9996994  0.1819698  0.5748207  )
        87           C   tau(  87) = (  0.4996994  0.6819698  0.5748207  )
        88           C   tau(  88) = (  0.9996994  0.6819698  0.5748207  )
        89           H   tau(  89) = (  0.0372555  0.2098857  0.1500843  )
        90           H   tau(  90) = (  0.5372555  0.2098857  0.1500843  )
        91           H   tau(  91) = (  0.0372555  0.7098857  0.1500843  )
        92           H   tau(  92) = (  0.5372555  0.7098857  0.1500843  )
        93           H   tau(  93) = (  0.0372555  0.2098857  0.6500843  )
        94           H   tau(  94) = (  0.5372555  0.2098857  0.6500843  )
        95           H   tau(  95) = (  0.0372555  0.7098857  0.6500843  )
        96           H   tau(  96) = (  0.5372555  0.7098857  0.6500843  )
        97           N   tau(  97) = (  0.0131529  0.1183715  0.0238685  )
        98           N   tau(  98) = (  0.5131529  0.1183715  0.0238685  )
        99           N   tau(  99) = (  0.0131529  0.6183715  0.0238685  )
       100           N   tau( 100) = (  0.5131529  0.6183715  0.0238685  )
       101           N   tau( 101) = (  0.0131529  0.1183715  0.5238685  )
       102           N   tau( 102) = (  0.5131529  0.1183715  0.5238685  )
       103           N   tau( 103) = (  0.0131529  0.6183715  0.5238685  )
       104           N   tau( 104) = (  0.5131529  0.6183715  0.5238685  )
       105           C   tau( 105) = (  0.2179589  0.0170545  0.1122388  )
       106           C   tau( 106) = (  0.7179589  0.0170545  0.1122388  )
       107           C   tau( 107) = (  0.2179589  0.5170545  0.1122388  )
       108           C   tau( 108) = (  0.7179589  0.5170545  0.1122388  )
       109           C   tau( 109) = (  0.2179589  0.0170545  0.6122388  )
       110           C   tau( 110) = (  0.7179589  0.0170545  0.6122388  )
       111           C   tau( 111) = (  0.2179589  0.5170545  0.6122388  )
       112           C   tau( 112) = (  0.7179589  0.5170545  0.6122388  )
       113           H   tau( 113) = (  0.3684472  0.0726328  0.3124445  )
       114           H   tau( 114) = (  0.8684472  0.0726328  0.3119132  )
       115           H   tau( 115) = (  0.3684472  0.5726328  0.3119132  )
       116           H   tau( 116) = (  0.8684472  0.5726328  0.3119132  )
       117           H   tau( 117) = (  0.3684472  0.0726328  0.8119132  )
       118           H   tau( 118) = (  0.8684472  0.0726328  0.8119132  )
       119           H   tau( 119) = (  0.3684472  0.5726328  0.8119132  )
       120           H   tau( 120) = (  0.8684472  0.5726328  0.8119132  )
       121           N   tau( 121) = (  0.1660722  0.3188268  0.3155453  )
       122           N   tau( 122) = (  0.6660722  0.3188268  0.3155453  )
       123           N   tau( 123) = (  0.1660722  0.8188268  0.3155453  )
       124           N   tau( 124) = (  0.6660722  0.8188268  0.3155453  )
       125           N   tau( 125) = (  0.1660722  0.3188268  0.8155453  )
       126           N   tau( 126) = (  0.6660722  0.3188268  0.8155453  )
       127           N   tau( 127) = (  0.1660722  0.8188268  0.8155453  )
       128           N   tau( 128) = (  0.6660722  0.8188268  0.8155453  )
       129           N   tau( 129) = (  0.1849349  0.2524227  0.2769742  )
       130           N   tau( 130) = (  0.6849349  0.2524227  0.2769742  )
       131           N   tau( 131) = (  0.1849349  0.7524227  0.2769742  )
       132           N   tau( 132) = (  0.6849349  0.7524227  0.2769742  )
       133           N   tau( 133) = (  0.1849349  0.2524227  0.7769742  )
       134           N   tau( 134) = (  0.6849349  0.2524227  0.7769742  )
       135           N   tau( 135) = (  0.1849349  0.7524227  0.7769742  )
       136           N   tau( 136) = (  0.6849349  0.7524227  0.7769742  )
       137           C   tau( 137) = (  0.1753410  0.4033130  0.4619818  )
       138           C   tau( 138) = (  0.6753410  0.4033130  0.4619818  )
       139           C   tau( 139) = (  0.1753410  0.9033130  0.4619818  )
       140           C   tau( 140) = (  0.6753410  0.9033130  0.4619818  )
       141           C   tau( 141) = (  0.1753410  0.4033130  0.9619818  )
       142           C   tau( 142) = (  0.6753410  0.4033130  0.9619818  )
       143           C   tau( 143) = (  0.1753410  0.9033130  0.9619818  )
       144           C   tau( 144) = (  0.6753410  0.9033130  0.9619818  )
       145           C   tau( 145) = (  0.1856608  0.3356120  0.3980781  )
       146           C   tau( 146) = (  0.6856608  0.3356120  0.3980781  )
       147           C   tau( 147) = (  0.1856608  0.8356120  0.3980781  )
       148           C   tau( 148) = (  0.6856608  0.8356120  0.3980781  )
       149           C   tau( 149) = (  0.1856608  0.3356120  0.8980781  )
       150           C   tau( 150) = (  0.6856608  0.3356120  0.8980781  )
       151           C   tau( 151) = (  0.1856608  0.8356120  0.8980781  )
       152           C   tau( 152) = (  0.6856608  0.8356120  0.8980781  )
       153           C   tau( 153) = (  0.2319981  0.4505766  0.0586370  )
       154           C   tau( 154) = (  0.7319981  0.4505766  0.0586370  )
       155           C   tau( 155) = (  0.2319981  0.9505766  0.0586370  )
       156           C   tau( 156) = (  0.7319981  0.9505766  0.0586370  )
       157           C   tau( 157) = (  0.2319981  0.4505766  0.5586370  )
       158           C   tau( 158) = (  0.7319981  0.4505766  0.5586370  )
       159           C   tau( 159) = (  0.2319981  0.9505766  0.5586370  )
       160           C   tau( 160) = (  0.7319981  0.9505766  0.5586370  )
       161           H   tau( 161) = (  0.2868901  0.4368360  0.0910982  )
       162           H   tau( 162) = (  0.7868901  0.4368360  0.0910982  )
       163           H   tau( 163) = (  0.2868901  0.9368360  0.0910982  )
       164           H   tau( 164) = (  0.7868901  0.9368360  0.0910982  )
       165           H   tau( 165) = (  0.2868901  0.4368360  0.5910982  )
       166           H   tau( 166) = (  0.7868901  0.4368360  0.5910982  )
       167           H   tau( 167) = (  0.2868901  0.9368360  0.5910982  )
       168           H   tau( 168) = (  0.7868901  0.9368360  0.5910982  )
       169           C   tau( 169) = (  0.1493889  0.0350464  0.0684256  )
       170           C   tau( 170) = (  0.6493889  0.0350464  0.0684256  )
       171           C   tau( 171) = (  0.1493889  0.5350464  0.0684256  )
       172           C   tau( 172) = (  0.6493889  0.5350464  0.0684256  )
       173           C   tau( 173) = (  0.1493889  0.0350464  0.5684256  )
       174           C   tau( 174) = (  0.6493889  0.0350464  0.5684256  )
       175           C   tau( 175) = (  0.1493889  0.5350464  0.5684256  )
       176           C   tau( 176) = (  0.6493889  0.5350464  0.5684256  )
       177           H   tau( 177) = (  0.1369958  0.0881734  0.1076853  )
       178           H   tau( 178) = (  0.6369958  0.0881734  0.1076853  )
       179           H   tau( 179) = (  0.1369958  0.5881734  0.1076853  )
       180           H   tau( 180) = (  0.6369958  0.5881734  0.1076853  )
       181           H   tau( 181) = (  0.1369958  0.0881734  0.6076853  )
       182           H   tau( 182) = (  0.6369958  0.0881734  0.6076853  )
       183           H   tau( 183) = (  0.1369958  0.5881734  0.6076853  )
       184           H   tau( 184) = (  0.6369958  0.5881734  0.6076853  )
       185           N   tau( 185) = (  0.2155510  0.2797062  0.4088859  )
       186           N   tau( 186) = (  0.7155510  0.2797062  0.4088859  )
       187           N   tau( 187) = (  0.2155510  0.7797062  0.4088859  )
       188           N   tau( 188) = (  0.7155510  0.7797062  0.4088859  )
       189           N   tau( 189) = (  0.2155510  0.2797062  0.9088859  )
       190           N   tau( 190) = (  0.7155510  0.2797062  0.9088859  )
       191           N   tau( 191) = (  0.2155510  0.7797062  0.9088859  )
       192           N   tau( 192) = (  0.7155510  0.7797062  0.9088859  )
       193           N   tau( 193) = (  0.2145099  0.2293247  0.3324438  )
       194           N   tau( 194) = (  0.7145099  0.2293247  0.3324438  )
       195           N   tau( 195) = (  0.2145099  0.7293247  0.3324438  )
       196           N   tau( 196) = (  0.7145099  0.7293247  0.3324438  )
       197           N   tau( 197) = (  0.2145099  0.2293247  0.8324438  )
       198           N   tau( 198) = (  0.7145099  0.2293247  0.8324438  )
       199           N   tau( 199) = (  0.2145099  0.7293247  0.8324438  )
       200           N   tau( 200) = (  0.7145099  0.7293247  0.8324438  )
       201           C   tau( 201) = (  0.1071491  0.4248787  0.4251793  )
       202           C   tau( 202) = (  0.6071491  0.4248787  0.4251793  )
       203           C   tau( 203) = (  0.1071491  0.9248787  0.4251793  )
       204           C   tau( 204) = (  0.6071491  0.9248787  0.4251793  )
       205           C   tau( 205) = (  0.1071491  0.4248787  0.9251793  )
       206           C   tau( 206) = (  0.6071491  0.4248787  0.9251793  )
       207           C   tau( 207) = (  0.1071491  0.9248787  0.9251793  )
       208           C   tau( 208) = (  0.6071491  0.9248787  0.9251793  )
       209           H   tau( 209) = (  0.0598014  0.3871712  0.3499157  )
       210           H   tau( 210) = (  0.5598014  0.3871712  0.3499157  )
       211           H   tau( 211) = (  0.0598014  0.8871712  0.3499157  )
       212           H   tau( 212) = (  0.5598014  0.8871712  0.3499157  )
       213           H   tau( 213) = (  0.0598014  0.3871712  0.8499157  )
       214           H   tau( 214) = (  0.5598014  0.3871712  0.8499157  )
       215           H   tau( 215) = (  0.0598014  0.8871712  0.8499157  )
       216           H   tau( 216) = (  0.5598014  0.8871712  0.8499157  )
       217           N   tau( 217) = (  0.0945030  0.4892844  0.4761315  )
       218           N   tau( 218) = (  0.5945030  0.4892844  0.4761315  )
       219           N   tau( 219) = (  0.0945030  0.9892844  0.4761315  )
       220           N   tau( 220) = (  0.5945030  0.9892844  0.4761315  )
       221           N   tau( 221) = (  0.0945030  0.4892844  0.9761315  )
       222           N   tau( 222) = (  0.5945030  0.4892844  0.9761315  )
       223           N   tau( 223) = (  0.0945030  0.9892844  0.9761315  )
       224           N   tau( 224) = (  0.5945030  0.9892844  0.9761315  )
       225           C   tau( 225) = (  0.4048157  0.1057201  0.3877612  )
       226           C   tau( 226) = (  0.9048157  0.1057201  0.3877612  )
       227           C   tau( 227) = (  0.4048157  0.6057201  0.3877612  )
       228           C   tau( 228) = (  0.9048157  0.6057201  0.3877612  )
       229           C   tau( 229) = (  0.4048157  0.1057201  0.8877612  )
       230           C   tau( 230) = (  0.9048157  0.1057201  0.8877612  )
       231           C   tau( 231) = (  0.4048157  0.6057201  0.8877612  )
       232           C   tau( 232) = (  0.9048157  0.6057201  0.8877612  )
       233           H   tau( 233) = (  0.2607196  0.0565340  0.1880868  )
       234           H   tau( 234) = (  0.7607196  0.0565340  0.1880868  )
       235           H   tau( 235) = (  0.2607196  0.5565340  0.1880868  )
       236           H   tau( 236) = (  0.7607196  0.5565340  0.1880868  )
       237           H   tau( 237) = (  0.2607196  0.0565340  0.6880868  )
       238           H   tau( 238) = (  0.7607196  0.0565340  0.6880868  )
       239           H   tau( 239) = (  0.2607196  0.5565340  0.6880868  )
       240           H   tau( 240) = (  0.7607196  0.5565340  0.6880868  )
       241           N   tau( 241) = (  0.1494731  0.3339278  0.1527546  )
       242           N   tau( 242) = (  0.6494731  0.3339278  0.1527546  )
       243           N   tau( 243) = (  0.1494731  0.8339278  0.1527546  )
       244           N   tau( 244) = (  0.6494731  0.8339278  0.1527546  )
       245           N   tau( 245) = (  0.1494731  0.3339278  0.6527546  )
       246           N   tau( 246) = (  0.6494731  0.3339278  0.6527546  )
       247           N   tau( 247) = (  0.1494731  0.8339278  0.6527546  )
       248           N   tau( 248) = (  0.6494731  0.8339278  0.6527546  )
       249           N   tau( 249) = (  0.0920393  0.3150651  0.0674878  )
       250           N   tau( 250) = (  0.5920393  0.3150651  0.0674878  )
       251           N   tau( 251) = (  0.0920393  0.8150651  0.0674878  )
       252           N   tau( 252) = (  0.5920393  0.8150651  0.0674878  )
       253           N   tau( 253) = (  0.0920393  0.3150651  0.5674878  )
       254           N   tau( 254) = (  0.5920393  0.3150651  0.5674878  )
       255           N   tau( 255) = (  0.0920393  0.8150651  0.5674878  )
       256           N   tau( 256) = (  0.5920393  0.8150651  0.5674878  )
       257           C   tau( 257) = (  0.2866408  0.3246590  0.2279720  )
       258           C   tau( 258) = (  0.7866408  0.3246590  0.2279720  )
       259           C   tau( 259) = (  0.2866408  0.8246590  0.2279720  )
       260           C   tau( 260) = (  0.7866408  0.8246590  0.2279720  )
       261           C   tau( 261) = (  0.2866408  0.3246590  0.7279720  )
       262           C   tau( 262) = (  0.7866408  0.3246590  0.7279720  )
       263           C   tau( 263) = (  0.2866408  0.8246590  0.7279720  )
       264           C   tau( 264) = (  0.7866408  0.8246590  0.7279720  )
       265           C   tau( 265) = (  0.2124173  0.3143392  0.1499511  )
       266           C   tau( 266) = (  0.7124173  0.3143392  0.1499511  )
       267           C   tau( 267) = (  0.2124173  0.8143392  0.1499511  )
       268           C   tau( 268) = (  0.7124173  0.8143392  0.1499511  )
       269           C   tau( 269) = (  0.2124173  0.3143392  0.6499511  )
       270           C   tau( 270) = (  0.7124173  0.3143392  0.6499511  )
       271           C   tau( 271) = (  0.2124173  0.8143392  0.6499511  )
       272           C   tau( 272) = (  0.7124173  0.8143392  0.6499511  )
       273           C   tau( 273) = (  0.3266389  0.2680019  0.2185785  )
       274           C   tau( 274) = (  0.8266389  0.2680019  0.2185785  )
       275           C   tau( 275) = (  0.3266389  0.7680019  0.2185785  )
       276           C   tau( 276) = (  0.8266389  0.7680019  0.2185785  )
       277           C   tau( 277) = (  0.3266389  0.2680019  0.7185785  )
       278           C   tau( 278) = (  0.8266389  0.2680019  0.7185785  )
       279           C   tau( 279) = (  0.3266389  0.7680019  0.7185785  )
       280           C   tau( 280) = (  0.8266389  0.7680019  0.7185785  )
       281           H   tau( 281) = (  0.3042081  0.2131099  0.1499459  )
       282           H   tau( 282) = (  0.8042081  0.2131099  0.1499459  )
       283           H   tau( 283) = (  0.3042081  0.7131099  0.1499459  )
       284           H   tau( 284) = (  0.8042081  0.7131099  0.1499459  )
       285           H   tau( 285) = (  0.3042081  0.2131099  0.6499459  )
       286           H   tau( 286) = (  0.8042081  0.2131099  0.6499459  )
       287           H   tau( 287) = (  0.3042081  0.7131099  0.6499459  )
       288           H   tau( 288) = (  0.8042081  0.7131099  0.6499459  )
       289           C   tau( 289) = (  0.4190367  0.3506111  0.3856575  )
       290           C   tau( 290) = (  0.9190367  0.3506111  0.3856575  )
       291           C   tau( 291) = (  0.4190367  0.8506111  0.3856575  )
       292           C   tau( 292) = (  0.9190367  0.8506111  0.3856575  )
       293           C   tau( 293) = (  0.4190367  0.3506111  0.8856575  )
       294           C   tau( 294) = (  0.9190367  0.3506111  0.8856575  )
       295           C   tau( 295) = (  0.4190367  0.8506111  0.8856575  )
       296           C   tau( 296) = (  0.9190367  0.8506111  0.8856575  )
       297           H   tau( 297) = (  0.4706894  0.3630042  0.4511775  )
       298           H   tau( 298) = (  0.9706894  0.3630042  0.4511775  )
       299           H   tau( 299) = (  0.4706894  0.8630042  0.4511775  )
       300           H   tau( 300) = (  0.9706894  0.8630042  0.4511775  )
       301           H   tau( 301) = (  0.4706894  0.3630042  0.9511775  )
       302           H   tau( 302) = (  0.9706894  0.3630042  0.9511775  )
       303           H   tau( 303) = (  0.4706894  0.8630042  0.9511775  )
       304           H   tau( 304) = (  0.9706894  0.8630042  0.9511775  )
       305           N   tau( 305) = (  0.1933349  0.2844490  0.0641553  )
       306           N   tau( 306) = (  0.6933349  0.2844490  0.0641553  )
       307           N   tau( 307) = (  0.1933349  0.7844490  0.0641553  )
       308           N   tau( 308) = (  0.6933349  0.7844490  0.0641553  )
       309           N   tau( 309) = (  0.1933349  0.2844490  0.5641553  )
       310           N   tau( 310) = (  0.6933349  0.2844490  0.5641553  )
       311           N   tau( 311) = (  0.1933349  0.7844490  0.5641553  )
       312           N   tau( 312) = (  0.6933349  0.7844490  0.5641553  )
       313           N   tau( 313) = (  0.1179339  0.2854901  0.0148148  )
       314           N   tau( 314) = (  0.6179339  0.2854901  0.0148148  )
       315           N   tau( 315) = (  0.1179339  0.7854901  0.0148148  )
       316           N   tau( 316) = (  0.6179339  0.7854901  0.0148148  )
       317           N   tau( 317) = (  0.1179339  0.2854901  0.5148148  )
       318           N   tau( 318) = (  0.6179339  0.2854901  0.5148148  )
       319           N   tau( 319) = (  0.1179339  0.7854901  0.5148148  )
       320           N   tau( 320) = (  0.6179339  0.7854901  0.5148148  )
       321           C   tau( 321) = (  0.3180302  0.3928509  0.3177296  )
       322           C   tau( 322) = (  0.8180302  0.3928509  0.3177296  )
       323           C   tau( 323) = (  0.3180302  0.8928509  0.3177296  )
       324           C   tau( 324) = (  0.8180302  0.8928509  0.3177296  )
       325           C   tau( 325) = (  0.3180302  0.3928509  0.8177296  )
       326           C   tau( 326) = (  0.8180302  0.3928509  0.8177296  )
       327           C   tau( 327) = (  0.3180302  0.8928509  0.8177296  )
       328           C   tau( 328) = (  0.8180302  0.8928509  0.8177296  )
       329           H   tau( 329) = (  0.2901143  0.4401986  0.3273698  )
       330           H   tau( 330) = (  0.7901143  0.4401986  0.3273698  )
       331           H   tau( 331) = (  0.2901143  0.9401986  0.3273698  )
       332           H   tau( 332) = (  0.7901143  0.9401986  0.3273698  )
       333           H   tau( 333) = (  0.2901143  0.4401986  0.8273698  )
       334           H   tau( 334) = (  0.7901143  0.4401986  0.8273698  )
       335           H   tau( 335) = (  0.2901143  0.9401986  0.8273698  )
       336           H   tau( 336) = (  0.7901143  0.9401986  0.8273698  )
       337           N   tau( 337) = (  0.3816285  0.4054970  0.3947814  )
       338           N   tau( 338) = (  0.8816285  0.4054970  0.3947814  )
       339           N   tau( 339) = (  0.3816285  0.9054970  0.3947814  )
       340           N   tau( 340) = (  0.8816285  0.9054970  0.3947814  )
       341           N   tau( 341) = (  0.3816285  0.4054970  0.8947814  )
       342           N   tau( 342) = (  0.8816285  0.4054970  0.8947814  )
       343           N   tau( 343) = (  0.3816285  0.9054970  0.8947814  )
       344           N   tau( 344) = (  0.8816285  0.9054970  0.8947814  )
       345           C   tau( 345) = (  0.4829455  0.0951843  0.2009044  )
       346           C   tau( 346) = (  0.9829455  0.0951843  0.2009044  )
       347           C   tau( 347) = (  0.4829455  0.5951843  0.2009044  )
       348           C   tau( 348) = (  0.9829455  0.5951843  0.2009044  )
       349           C   tau( 349) = (  0.4829455  0.0951843  0.7009044  )
       350           C   tau( 350) = (  0.9829455  0.0951843  0.7009044  )
       351           C   tau( 351) = (  0.4829455  0.5951843  0.7009044  )
       352           C   tau( 352) = (  0.9829455  0.5951843  0.7009044  )
       353           H   tau( 353) = (  0.4273672  0.2392804  0.2958144  )
       354           H   tau( 354) = (  0.9273672  0.2392804  0.2958144  )
       355           H   tau( 355) = (  0.4273672  0.7392804  0.2958144  )
       356           H   tau( 356) = (  0.9273672  0.7392804  0.2958144  )
       357           H   tau( 357) = (  0.4273672  0.2392804  0.7958144  )
       358           H   tau( 358) = (  0.9273672  0.2392804  0.7958144  )
       359           H   tau( 359) = (  0.4273672  0.7392804  0.7958144  )
       360           H   tau( 360) = (  0.9273672  0.7392804  0.7958144  )
       361           N   tau( 361) = (  0.1811732  0.4967185  0.3472454  )
       362           N   tau( 362) = (  0.6811732  0.4967185  0.3472454  )
       363           N   tau( 363) = (  0.1811732  0.9967185  0.3472454  )
       364           N   tau( 364) = (  0.6811732  0.9967185  0.3472454  )
       365           N   tau( 365) = (  0.1811732  0.4967185  0.8472454  )
       366           N   tau( 366) = (  0.6811732  0.4967185  0.8472454  )
       367           N   tau( 367) = (  0.1811732  0.9967185  0.8472454  )
       368           N   tau( 368) = (  0.6811732  0.9967185  0.8472454  )
       369           N   tau( 369) = (  0.2475773  0.0245515  0.4325122  )
       370           N   tau( 370) = (  0.7475773  0.0245515  0.4325122  )
       371           N   tau( 371) = (  0.2475773  0.5245515  0.4325122  )
       372           N   tau( 372) = (  0.7475773  0.5245515  0.4325122  )
       373           N   tau( 373) = (  0.2475773  0.0245515  0.9325122  )
       374           N   tau( 374) = (  0.7475773  0.0245515  0.9325122  )
       375           N   tau( 375) = (  0.2475773  0.5245515  0.9325122  )
       376           N   tau( 376) = (  0.7475773  0.5245515  0.9325122  )
       377           C   tau( 377) = (  0.0966870  0.0586688  0.2720280  )
       378           C   tau( 378) = (  0.5966870  0.0586688  0.2720280  )
       379           C   tau( 379) = (  0.0966870  0.5586688  0.2720280  )
       380           C   tau( 380) = (  0.5966870  0.5586688  0.2720280  )
       381           C   tau( 381) = (  0.0966870  0.0586688  0.7720280  )
       382           C   tau( 382) = (  0.5966870  0.0586688  0.7720280  )
       383           C   tau( 383) = (  0.0966870  0.5586688  0.7720280  )
       384           C   tau( 384) = (  0.5966870  0.5586688  0.7720280  )
       385           C   tau( 385) = (  0.1643880  0.0624661  0.3500489  )
       386           C   tau( 386) = (  0.6643880  0.0624661  0.3500489  )
       387           C   tau( 387) = (  0.1643880  0.5624661  0.3500489  )
       388           C   tau( 388) = (  0.6643880  0.5624661  0.3500489  )
       389           C   tau( 389) = (  0.1643880  0.0624661  0.8500489  )
       390           C   tau( 390) = (  0.6643880  0.0624661  0.8500489  )
       391           C   tau( 391) = (  0.1643880  0.5624661  0.8500489  )
       392           C   tau( 392) = (  0.6643880  0.5624661  0.8500489  )
       393           C   tau( 393) = (  0.0494234  0.1080604  0.2814215  )
       394           C   tau( 394) = (  0.5494234  0.1080604  0.2814215  )
       395           C   tau( 395) = (  0.0494234  0.6080604  0.2814215  )
       396           C   tau( 396) = (  0.5494234  0.6080604  0.2814215  )
       397           C   tau( 397) = (  0.0494234  0.1080604  0.7814215  )
       398           C   tau( 398) = (  0.5494234  0.1080604  0.7814215  )
       399           C   tau( 399) = (  0.0494234  0.6080604  0.7814215  )
       400           C   tau( 400) = (  0.5494234  0.6080604  0.7814215  )
       401           H   tau( 401) = (  0.0631640  0.1542622  0.3500541  )
       402           H   tau( 402) = (  0.5631640  0.1542622  0.3500541  )
       403           H   tau( 403) = (  0.0631640  0.6542622  0.3500541  )
       404           H   tau( 404) = (  0.5631640  0.6542622  0.3500541  )
       405           H   tau( 405) = (  0.0631640  0.1542622  0.8500541  )
       406           H   tau( 406) = (  0.5631640  0.1542622  0.8500541  )
       407           H   tau( 407) = (  0.0631640  0.6542622  0.8500541  )
       408           H   tau( 408) = (  0.5631640  0.6542622  0.8500541  )
       409           C   tau( 409) = (  0.4649536  0.0333792  0.1143425  )
       410           C   tau( 410) = (  0.9649536  0.0333792  0.1143425  )
       411           C   tau( 411) = (  0.4649536  0.5333792  0.1143425  )
       412           C   tau( 412) = (  0.9649536  0.5333792  0.1143425  )
       413           C   tau( 413) = (  0.4649536  0.0333792  0.6143425  )
       414           C   tau( 414) = (  0.9649536  0.0333792  0.6143425  )
       415           C   tau( 415) = (  0.4649536  0.5333792  0.6143425  )
       416           C   tau( 416) = (  0.9649536  0.5333792  0.6143425  )
       417           H   tau( 417) = (  0.4118266  0.0195119  0.0488225  )
       418           H   tau( 418) = (  0.9118266  0.0195119  0.0488225  )
       419           H   tau( 419) = (  0.4118266  0.5195119  0.0488225  )
       420           H   tau( 420) = (  0.9118266  0.5195119  0.0488225  )
       421           H   tau( 421) = (  0.4118266  0.0195119  0.5488225  )
       422           H   tau( 422) = (  0.9118266  0.0195119  0.5488225  )
       423           H   tau( 423) = (  0.4118266  0.5195119  0.5488225  )
       424           H   tau( 424) = (  0.9118266  0.5195119  0.5488225  )
       425           N   tau( 425) = (  0.2202938  0.1291797  0.4358447  )
       426           N   tau( 426) = (  0.7202938  0.1291797  0.4358447  )
       427           N   tau( 427) = (  0.2202938  0.6291797  0.4358447  )
       428           N   tau( 428) = (  0.7202938  0.6291797  0.4358447  )
       429           N   tau( 429) = (  0.2202938  0.1291797  0.9358447  )
       430           N   tau( 430) = (  0.7202938  0.1291797  0.9358447  )
       431           N   tau( 431) = (  0.2202938  0.6291797  0.9358447  )
       432           N   tau( 432) = (  0.7202938  0.6291797  0.9358447  )
       433           N   tau( 433) = (  0.2706753  0.1031191  0.4851852  )
       434           N   tau( 434) = (  0.7706753  0.1031191  0.4851852  )
       435           N   tau( 435) = (  0.2706753  0.6031191  0.4851852  )
       436           N   tau( 436) = (  0.7706753  0.6031191  0.4851852  )
       437           N   tau( 437) = (  0.2706753  0.1031191  0.9851852  )
       438           N   tau( 438) = (  0.7706753  0.1031191  0.9851852  )
       439           N   tau( 439) = (  0.2706753  0.6031191  0.9851852  )
       440           N   tau( 440) = (  0.7706753  0.6031191  0.9851852  )
       441           C   tau( 441) = (  0.0751213  0.0003006  0.1822704  )
       442           C   tau( 442) = (  0.5751213  0.0003006  0.1822704  )
       443           C   tau( 443) = (  0.0751213  0.5003006  0.1822704  )
       444           C   tau( 444) = (  0.5751213  0.5003006  0.1822704  )
       445           C   tau( 445) = (  0.0751213  0.0003006  0.6822704  )
       446           C   tau( 446) = (  0.5751213  0.0003006  0.6822704  )
       447           C   tau( 447) = (  0.0751213  0.5003006  0.6822704  )
       448           C   tau( 448) = (  0.5751213  0.5003006  0.6822704  )
       449           H   tau( 449) = (  0.1128288  0.4627445  0.1726302  )
       450           H   tau( 450) = (  0.6128288  0.4627445  0.1726302  )
       451           H   tau( 451) = (  0.1128288  0.9627445  0.1726302  )
       452           H   tau( 452) = (  0.6128288  0.9627445  0.1726302  )
       453           H   tau( 453) = (  0.1128288  0.4627445  0.6726302  )
       454           H   tau( 454) = (  0.6128288  0.4627445  0.6726302  )
       455           H   tau( 455) = (  0.1128288  0.9627445  0.6726302  )
       456           H   tau( 456) = (  0.6128288  0.9627445  0.6726302  )
       457           N   tau( 457) = (  0.0107156  0.4868471  0.1052186  )
       458           N   tau( 458) = (  0.5107156  0.4868471  0.1052186  )
       459           N   tau( 459) = (  0.0107156  0.9868471  0.1052186  )
       460           N   tau( 460) = (  0.5107156  0.9868471  0.1052186  )
       461           N   tau( 461) = (  0.0107156  0.4868471  0.6052186  )
       462           N   tau( 462) = (  0.5107156  0.4868471  0.6052186  )
       463           N   tau( 463) = (  0.0107156  0.9868471  0.6052186  )
       464           N   tau( 464) = (  0.5107156  0.9868471  0.6052186  )
       465           C   tau( 465) = (  0.3942799  0.2820411  0.2990956  )
       466           C   tau( 466) = (  0.8942799  0.2820411  0.2990956  )
       467           C   tau( 467) = (  0.3942799  0.7820411  0.2990956  )
       468           C   tau( 468) = (  0.8942799  0.7820411  0.2990956  )
       469           C   tau( 469) = (  0.3942799  0.2820411  0.7990956  )
       470           C   tau( 470) = (  0.8942799  0.2820411  0.7990956  )
       471           C   tau( 471) = (  0.3942799  0.7820411  0.7990956  )
       472           C   tau( 472) = (  0.8942799  0.7820411  0.7990956  )
       473           H   tau( 473) = (  0.4434660  0.1315528  0.2041856  )
       474           H   tau( 474) = (  0.9434660  0.1315528  0.2041856  )
       475           H   tau( 475) = (  0.4434660  0.6315528  0.2041856  )
       476           H   tau( 476) = (  0.9434660  0.6315528  0.2041856  )
       477           H   tau( 477) = (  0.4434660  0.1315528  0.7041856  )
       478           H   tau( 478) = (  0.9434660  0.1315528  0.7041856  )
       479           H   tau( 479) = (  0.4434660  0.6315528  0.7041856  )
       480           H   tau( 480) = (  0.9434660  0.6315528  0.7041856  )
       481           Zn  tau( 481) = (  0.1250000  0.3750000  0.2500000  )
       482           Zn  tau( 482) = (  0.6250000  0.3750000  0.2500000  )
       483           Zn  tau( 483) = (  0.1250000  0.8750000  0.2500000  )
       484           Zn  tau( 484) = (  0.6250000  0.8750000  0.2500000  )
       485           Zn  tau( 485) = (  0.1250000  0.3750000  0.7500000  )
       486           Zn  tau( 486) = (  0.6250000  0.3750000  0.7500000  )
       487           Zn  tau( 487) = (  0.1250000  0.8750000  0.7500000  )
       488           Zn  tau( 488) = (  0.6250000  0.8750000  0.7500000  )
       489           Zn  tau( 489) = (  0.2500000  0.2500000  0.0000000  )
       490           Zn  tau( 490) = (  0.7500000  0.2500000  0.0000000  )
       491           Zn  tau( 491) = (  0.2500000  0.7500000  0.0000000  )
       492           Zn  tau( 492) = (  0.7500000  0.7500000  0.0000000  )
       493           Zn  tau( 493) = (  0.2500000  0.2500000  0.5000000  )
       494           Zn  tau( 494) = (  0.7500000  0.2500000  0.5000000  )
       495           Zn  tau( 495) = (  0.2500000  0.7500000  0.5000000  )
       496           Zn  tau( 496) = (  0.7500000  0.7500000  0.5000000  )

     number of k points=     1
                       cart. coord. in units 2pi/alat
        k(    1) = (   0.0000000   0.0000000   0.0000000), wk =   2.0000000

                       cryst. coord.
        k(    1) = (   0.0000000   0.0000000   0.0000000), wk =   2.0000000

     Dense  grid:  2563819 G-vectors     FFT dimensions: ( 192, 192, 192)

     Smooth grid:  2411581 G-vectors     FFT dimensions: ( 192, 192, 192)

     Dynamical RAM for                 wfc:     144.89 MB

     Dynamical RAM for     wfc (w. buffer):     144.89 MB

     Dynamical RAM for           str. fact:       4.89 MB

     Dynamical RAM for           local pot:       0.00 MB

     Dynamical RAM for          nlocal pot:     482.96 MB

     Dynamical RAM for                qrad:       5.08 MB

     Dynamical RAM for          rho,v,vnew:       8.73 MB

     Dynamical RAM for               rhoin:       2.91 MB

     Dynamical RAM for            rho*nmix:      19.56 MB

     Dynamical RAM for           G-vectors:       5.16 MB

     Dynamical RAM for          h,s,v(r/c):       7.43 MB

     Dynamical RAM for          <psi|beta>:      51.68 MB

     Dynamical RAM for                 psi:     289.78 MB

     Dynamical RAM for                hpsi:     289.78 MB

     Dynamical RAM for                spsi:     289.78 MB

     Dynamical RAM for      wfcinit/wfcrot:     570.99 MB

     Dynamical RAM for           addusdens:     462.11 MB

     Dynamical RAM for          addusforce:     930.48 MB

     Dynamical RAM for         addusstress:     245.73 MB

     Estimated static dynamical RAM per process >     669.17 MB

     Estimated max dynamical RAM per process >       1.58 GB

     Estimated total dynamical RAM >      50.60 GB

     Check: negative core charge=   -0.000014

     Initial potential from superposition of free atoms

     starting charge    2015.9874, renormalised to    2016.0000
     Starting wfcs are 1744 randomized atomic wfcs
     Checking if some PAW data can be deallocated... 
       PAW data deallocated on   10 nodes for type:  2

     total cpu time spent up to now is      155.1 secs

     Self-consistent Calculation

     iteration #  1     ecut=    60.00 Ry     beta= 0.40
     Davidson diagonalization with overlap

---- Real-time Memory Report at c_bands before calling an iterative solver
          1337 MiB given to the printing process from OS
             0 MiB allocation reported by mallinfo(arena+hblkhd)
        143985 MiB available memory on the node where the printing process lives
------------------
     ethr =  1.00E-02,  avg # of iterations =  3.0

     total cpu time spent up to now is      509.2 secs

     total energy              =  -14223.11899223 Ry
     estimated scf accuracy    <      42.09532865 Ry

     iteration #  2     ecut=    60.00 Ry     beta= 0.40
     Davidson diagonalization with overlap

---- Real-time Memory Report at c_bands before calling an iterative solver
          1720 MiB given to the printing process from OS
             0 MiB allocation reported by mallinfo(arena+hblkhd)
        144537 MiB available memory on the node where the printing process lives
------------------
     ethr =  2.09E-03,  avg # of iterations =  2.0

     total cpu time spent up to now is      796.6 secs

     total energy              =  -14223.75053030 Ry
     estimated scf accuracy    <       7.72142409 Ry

     iteration #  3     ecut=    60.00 Ry     beta= 0.40
     Davidson diagonalization with overlap

---- Real-time Memory Report at c_bands before calling an iterative solver
          1745 MiB given to the printing process from OS
             0 MiB allocation reported by mallinfo(arena+hblkhd)
        145245 MiB available memory on the node where the printing process lives
------------------
     ethr =  3.83E-04,  avg # of iterations =  4.0

     total cpu time spent up to now is     1130.0 secs

     total energy              =  -14225.17443182 Ry
     estimated scf accuracy    <       0.85060988 Ry

     iteration #  4     ecut=    60.00 Ry     beta= 0.40
     Davidson diagonalization with overlap

---- Real-time Memory Report at c_bands before calling an iterative solver
          1749 MiB given to the printing process from OS
             0 MiB allocation reported by mallinfo(arena+hblkhd)
        137290 MiB available memory on the node where the printing process lives
------------------
     ethr =  4.22E-05,  avg # of iterations =  4.0

     total cpu time spent up to now is     1436.0 secs

     total energy              =  -14225.24899117 Ry
     estimated scf accuracy    <       0.17094685 Ry

     iteration #  5     ecut=    60.00 Ry     beta= 0.40
     Davidson diagonalization with overlap

---- Real-time Memory Report at c_bands before calling an iterative solver
          1753 MiB given to the printing process from OS
             0 MiB allocation reported by mallinfo(arena+hblkhd)
        139415 MiB available memory on the node where the printing process lives
------------------
     ethr =  8.48E-06,  avg # of iterations =  5.0

     total cpu time spent up to now is     1785.0 secs

     total energy              =  -14225.27770246 Ry
     estimated scf accuracy    <       0.03024406 Ry

     iteration #  6     ecut=    60.00 Ry     beta= 0.40
     Davidson diagonalization with overlap

---- Real-time Memory Report at c_bands before calling an iterative solver
          1764 MiB given to the printing process from OS
             0 MiB allocation reported by mallinfo(arena+hblkhd)
        139317 MiB available memory on the node where the printing process lives
------------------
     ethr =  1.50E-06,  avg # of iterations =  5.0

     total cpu time spent up to now is     2160.7 secs

     total energy              =  -14225.28459134 Ry
     estimated scf accuracy    <       0.00819075 Ry

     iteration #  7     ecut=    60.00 Ry     beta= 0.40
     Davidson diagonalization with overlap

---- Real-time Memory Report at c_bands before calling an iterative solver
          1764 MiB given to the printing process from OS
             0 MiB allocation reported by mallinfo(arena+hblkhd)
        136283 MiB available memory on the node where the printing process lives
------------------
     ethr =  4.06E-07,  avg # of iterations =  5.0

     total cpu time spent up to now is     2547.8 secs

     total energy              =  -14225.28692658 Ry
     estimated scf accuracy    <       0.00174828 Ry

     iteration #  8     ecut=    60.00 Ry     beta= 0.40
     Davidson diagonalization with overlap

---- Real-time Memory Report at c_bands before calling an iterative solver
          1764 MiB given to the printing process from OS
             0 MiB allocation reported by mallinfo(arena+hblkhd)
        134859 MiB available memory on the node where the printing process lives
------------------
     ethr =  8.67E-08,  avg # of iterations =  5.0

     total cpu time spent up to now is     2879.8 secs

     total energy              =  -14225.28734474 Ry
     estimated scf accuracy    <       0.00013468 Ry

     iteration #  9     ecut=    60.00 Ry     beta= 0.40
     Davidson diagonalization with overlap

---- Real-time Memory Report at c_bands before calling an iterative solver
          1768 MiB given to the printing process from OS
             0 MiB allocation reported by mallinfo(arena+hblkhd)
        146258 MiB available memory on the node where the printing process lives
------------------
     ethr =  6.68E-09,  avg # of iterations =  6.0

     total cpu time spent up to now is     3322.1 secs

     total energy              =  -14225.28740715 Ry
     estimated scf accuracy    <       0.00004869 Ry

     iteration # 10     ecut=    60.00 Ry     beta= 0.40
     Davidson diagonalization with overlap

---- Real-time Memory Report at c_bands before calling an iterative solver
          1772 MiB given to the printing process from OS
             0 MiB allocation reported by mallinfo(arena+hblkhd)
        140921 MiB available memory on the node where the printing process lives
------------------
     ethr =  2.42E-09,  avg # of iterations =  4.0

     total cpu time spent up to now is     3590.4 secs

     total energy              =  -14225.28740538 Ry
     estimated scf accuracy    <       0.00001330 Ry

     iteration # 11     ecut=    60.00 Ry     beta= 0.40
     Davidson diagonalization with overlap

---- Real-time Memory Report at c_bands before calling an iterative solver
          1776 MiB given to the printing process from OS
             0 MiB allocation reported by mallinfo(arena+hblkhd)
        138475 MiB available memory on the node where the printing process lives
------------------
     ethr =  6.60E-10,  avg # of iterations =  6.0

     total cpu time spent up to now is     4073.8 secs

     total energy              =  -14225.28741283 Ry
     estimated scf accuracy    <       0.00001604 Ry

     iteration # 12     ecut=    60.00 Ry     beta= 0.40
     Davidson diagonalization with overlap

---- Real-time Memory Report at c_bands before calling an iterative solver
          1776 MiB given to the printing process from OS
             0 MiB allocation reported by mallinfo(arena+hblkhd)
        146787 MiB available memory on the node where the printing process lives
------------------
     ethr =  6.60E-10,  avg # of iterations =  2.0

     total cpu time spent up to now is     4322.2 secs

     total energy              =  -14225.28740983 Ry
     estimated scf accuracy    <       0.00000644 Ry

     iteration # 13     ecut=    60.00 Ry     beta= 0.40
     Davidson diagonalization with overlap

---- Real-time Memory Report at c_bands before calling an iterative solver
          1776 MiB given to the printing process from OS
             0 MiB allocation reported by mallinfo(arena+hblkhd)
        142303 MiB available memory on the node where the printing process lives
------------------
     ethr =  3.20E-10,  avg # of iterations =  6.0

     total cpu time spent up to now is     4756.2 secs

     total energy              =  -14225.28741252 Ry
     estimated scf accuracy    <       0.00000414 Ry

     iteration # 14     ecut=    60.00 Ry     beta= 0.40
     Davidson diagonalization with overlap

---- Real-time Memory Report at c_bands before calling an iterative solver
          1776 MiB given to the printing process from OS
             0 MiB allocation reported by mallinfo(arena+hblkhd)
        147413 MiB available memory on the node where the printing process lives
------------------
     ethr =  2.05E-10,  avg # of iterations =  5.0

     total cpu time spent up to now is     5038.6 secs

     total energy              =  -14225.28741298 Ry
     estimated scf accuracy    <       0.00000029 Ry

     iteration # 15     ecut=    60.00 Ry     beta= 0.40
     Davidson diagonalization with overlap

---- Real-time Memory Report at c_bands before calling an iterative solver
          1776 MiB given to the printing process from OS
             0 MiB allocation reported by mallinfo(arena+hblkhd)
        143317 MiB available memory on the node where the printing process lives
------------------
     ethr =  1.42E-11,  avg # of iterations =  6.0

     total cpu time spent up to now is     5463.3 secs

     total energy              =  -14225.28741315 Ry
     estimated scf accuracy    <       0.00000004 Ry

     iteration # 16     ecut=    60.00 Ry     beta= 0.40
     Davidson diagonalization with overlap

---- Real-time Memory Report at c_bands before calling an iterative solver
          1776 MiB given to the printing process from OS
             0 MiB allocation reported by mallinfo(arena+hblkhd)
        137878 MiB available memory on the node where the printing process lives
------------------
     ethr =  2.00E-12,  avg # of iterations =  6.0

     total cpu time spent up to now is     5867.9 secs

     total energy              =  -14225.28741314 Ry
     estimated scf accuracy    <       0.00000011 Ry

     iteration # 17     ecut=    60.00 Ry     beta= 0.40
     Davidson diagonalization with overlap

---- Real-time Memory Report at c_bands before calling an iterative solver
          1776 MiB given to the printing process from OS
             0 MiB allocation reported by mallinfo(arena+hblkhd)
        161221 MiB available memory on the node where the printing process lives
------------------
     ethr =  2.00E-12,  avg # of iterations =  5.0

     total cpu time spent up to now is     6195.3 secs

     total energy              =  -14225.28741313 Ry
     estimated scf accuracy    <       0.00000002 Ry

     iteration # 18     ecut=    60.00 Ry     beta= 0.40
     Davidson diagonalization with overlap

---- Real-time Memory Report at c_bands before calling an iterative solver
          1776 MiB given to the printing process from OS
             0 MiB allocation reported by mallinfo(arena+hblkhd)
        150009 MiB available memory on the node where the printing process lives
------------------
     ethr =  8.67E-13,  avg # of iterations =  6.0

     total cpu time spent up to now is     6638.4 secs

     End of self-consistent calculation

          k = 0.0000 0.0000 0.0000 (301561 PWs)   bands (ev):

  -122.8789-122.8787-122.8787-122.8787-122.8787-122.8787-122.8787-122.8786
  -122.8413-122.8412-122.8412-122.8412-122.8412-122.8412-122.8412-122.8411
   -77.2239 -77.2236 -77.2236 -77.2236 -77.2236 -77.2236 -77.2236 -77.2235
   -77.2191 -77.2191 -77.2189 -77.2189 -77.2189 -77.2189 -77.2189 -77.2189
   -77.2189 -77.2189 -77.2189 -77.2189 -77.2188 -77.2188 -77.2187 -77.2187
   -77.1924 -77.1924 -77.1923 -77.1923 -77.1923 -77.1923 -77.1923 -77.1923
   -77.1923 -77.1923 -77.1923 -77.1923 -77.1923 -77.1923 -77.1922 -77.1922
   -77.1650 -77.1649 -77.1649 -77.1648 -77.1648 -77.1648 -77.1648 -77.1648
   -21.8270 -21.8201 -21.8200 -21.8200 -21.8200 -21.8142 -21.8142 -21.8136
   -21.8135 -21.8119 -21.8098 -21.8059 -21.8059 -21.8059 -21.8059 -21.8008
   -21.8007 -21.8007 -21.8006 -21.8006 -21.8006 -21.8006 -21.8005 -21.7990
   -21.7990 -21.7964 -21.7963 -21.7963 -21.7963 -21.7962 -21.7961 -21.7945
   -16.7493 -16.7476 -16.7476 -16.7466 -16.7465 -16.7465 -16.7464 -16.7421
   -16.7142 -16.7071 -16.7070 -16.7070 -16.7069 -16.7005 -16.6995 -16.6995
   -16.6923 -16.6922 -16.6852 -16.6852 -16.6851 -16.6850 -16.6821 -16.6820
   -16.6803 -16.6802 -16.6785 -16.6785 -16.6784 -16.6784 -16.6784 -16.6782
   -16.5790 -16.5401 -16.5401 -16.5401 -16.5400 -16.5181 -16.5181 -16.5063
   -16.4943 -16.4942 -16.4921 -16.4682 -16.4682 -16.4682 -16.4682 -16.4374
   -16.4374 -16.4365 -16.4364 -16.4364 -16.4364 -16.4349 -16.4348 -16.4335
   -16.4335 -16.4248 -16.4247 -16.4247 -16.4247 -16.4232 -16.4231 -16.4199
   -15.4995 -15.4988 -15.4969 -15.4938 -15.4937 -15.4937 -15.4936 -15.4917
   -15.4878 -15.4877 -15.4877 -15.4876 -15.4875 -15.4874 -15.4870 -15.4870
   -15.4811 -15.4810 -15.4802 -15.4801 -15.4800 -15.4800 -15.4800 -15.4799
   -15.4788 -15.4788 -15.4787 -15.4787 -15.4763 -15.4763 -15.4748 -15.4748
   -13.2306 -13.2197 -13.2123 -13.2122 -13.2122 -13.2122 -13.2097 -13.2096
   -13.2075 -13.2043 -13.2042 -13.2035 -13.2034 -13.2034 -13.2034 -13.1950
   -13.1918 -13.1917 -13.1908 -13.1908 -13.1908 -13.1907 -13.1795 -13.1795
   -13.1794 -13.1794 -13.1782 -13.1781 -13.1778 -13.1778 -13.1778 -13.1777
   -12.1902 -12.1896 -12.1896 -12.1896 -12.1884 -12.1882 -12.1841 -12.1802
   -12.1800 -12.1721 -12.1694 -12.1690 -12.1690 -12.1689 -12.1528 -12.1524
   -12.1522 -12.1521 -12.1505 -12.1501 -12.1500 -12.1500 -12.1497 -12.1497
   -12.1336 -12.1256 -12.1253 -12.1211 -12.1182 -12.1178 -12.1178 -12.1177
    -9.9199  -9.9013  -9.8902  -9.8862  -9.8862  -9.8861  -9.8861  -9.8770
    -9.8609  -9.8609  -9.8609  -9.8608  -9.8574  -9.8573  -9.8498  -9.8497
    -9.8266  -9.8265  -9.8265  -9.8264  -9.8245  -9.8244  -9.8063  -9.8063
    -9.8054  -9.8054  -9.7973  -9.7973  -9.7973  -9.7972  -9.7957  -9.7956
    -9.6803  -9.6659  -9.6659  -9.6644  -9.6644  -9.6644  -9.6643  -9.6485
    -9.6484  -9.6470  -9.6470  -9.6470  -9.6469  -9.6448  -9.6448  -9.6386
    -9.6386  -9.6153  -9.6152  -9.6152  -9.6152  -9.6021  -9.6021  -9.5861
    -9.5827  -9.5597  -9.5596  -9.5456  -9.5456  -9.5455  -9.5455  -9.5260
    -8.5895  -8.5638  -8.5514  -8.5509  -8.5483  -8.5393  -8.5384  -8.5384
    -8.5384  -8.5303  -8.5296  -8.5296  -8.5296  -8.5123  -8.5118  -8.5116
    -8.4964  -8.4956  -8.4955  -8.4955  -8.4932  -8.4929  -8.4637  -8.4629
    -8.4626  -8.4623  -8.4622  -8.4622  -8.4503  -8.4497  -8.4496  -8.4495
    -8.4234  -8.4175  -8.4174  -8.4122  -8.4121  -8.4120  -8.4120  -8.3747
    -8.3698  -8.3698  -8.3698  -8.3697  -8.3631  -8.3631  -8.3625  -8.3625
    -8.3611  -8.3595  -8.3594  -8.3572  -8.3572  -8.3317  -8.3317  -8.3316
    -8.3316  -8.3227  -8.3222  -8.3222  -8.3221  -8.3221  -8.3124  -8.3124
    -7.0585  -6.9056  -6.8987  -6.8983  -6.8980  -6.8980  -6.8980  -6.7921
    -6.7920  -6.7587  -6.7583  -6.7144  -6.7138  -6.7138  -6.7138  -6.6759
    -6.6021  -6.6019  -6.5988  -6.5983  -6.5982  -6.5982  -6.5713  -6.5709
    -6.5616  -6.5610  -6.5610  -6.5609  -6.4885  -6.4881  -6.4862  -6.4859
    -5.8778  -5.8311  -5.8310  -5.8310  -5.8310  -5.8291  -5.7984  -5.7984
    -5.7835  -5.7835  -5.7760  -5.7759  -5.7759  -5.7759  -5.7635  -5.7634
    -5.7373  -5.7373  -5.7373  -5.7372  -5.7301  -5.7300  -5.7279  -5.7245
    -5.6855  -5.6855  -5.6855  -5.6855  -5.6452  -5.6451  -5.6349  -5.6323
    -5.6323  -5.6093  -5.6046  -5.6046  -5.5958  -5.5958  -5.5957  -5.5957
    -5.5810  -5.5602  -5.5453  -5.5453  -5.5422  -5.5422  -5.5421  -5.5421
    -5.5375  -5.5375  -5.5365  -5.5364  -5.5123  -5.5122  -5.5030  -5.5030
    -5.5012  -5.5011  -5.5011  -5.5011  -5.4826  -5.4825  -5.4825  -5.4825
    -5.0614  -5.0613  -5.0475  -5.0475  -5.0474  -5.0474  -5.0443  -5.0443
    -5.0303  -5.0302  -5.0298  -5.0298  -5.0298  -5.0297  -5.0261  -5.0180
    -5.0180  -5.0034  -4.9990  -4.9948  -4.9947  -4.9947  -4.9946  -4.9786
    -4.9785  -4.9661  -4.9660  -4.9660  -4.9659  -4.9569  -4.9535  -4.9534
    -4.9460  -4.8944  -4.8917  -4.8915  -4.8682  -4.8679  -4.8679  -4.8679
    -4.8624  -4.8520  -4.8519  -4.8447  -4.8441  -4.8441  -4.8441  -4.8342
    -4.8341  -4.8302  -4.8299  -4.8299  -4.8298  -4.8269  -4.8261  -4.8260
    -4.8038  -4.8037  -4.7994  -4.7992  -4.7929  -4.7925  -4.7925  -4.7925
    -4.7804  -4.7802  -4.7583  -4.7580  -4.7580  -4.7580  -4.7435  -4.7433
    -4.7411  -4.7410  -4.7219  -4.7216  -4.7216  -4.7216  -4.7133  -4.7132
    -4.7116  -4.7115  -4.7115  -4.7114  -4.6865  -4.6863  -4.6690  -4.6690
    -4.6477  -4.6135  -4.6133  -4.5881  -4.5880  -4.5880  -4.5880  -4.5016
    -4.3230  -4.2810  -4.2810  -4.2809  -4.2809  -4.2188  -4.2127  -4.2078
    -4.2077  -4.1876  -4.1876  -4.1413  -4.1413  -4.1412  -4.1412  -4.1410
    -4.1410  -4.1365  -4.1138  -4.1078  -4.1077  -4.1077  -4.1077  -4.1035
    -4.0976  -4.0976  -4.0854  -4.0854  -4.0854  -4.0853  -4.0653  -4.0572
    -3.9879  -3.9560  -3.9556  -3.8270  -3.8258  -3.8257  -3.8257  -3.7678
    -3.7663  -3.7662  -3.7662  -3.7312  -3.7113  -3.7100  -3.7100  -3.7100
    -3.6720  -3.6564  -3.6558  -3.6271  -3.5770  -3.5756  -3.5739  -3.5732
    -3.5605  -3.5596  -3.5049  -3.5039  -3.4274  -3.4254  -3.4254  -3.4253
    -3.4238  -3.4238  -3.3750  -3.3749  -3.3650  -3.3646  -3.3646  -3.3645
    -3.3645  -3.2780  -3.2779  -3.2779  -3.2779  -3.2413  -3.2410  -3.2410
    -3.2409  -3.2344  -3.2309  -3.2307  -3.2306  -3.2290  -3.2288  -3.2099
    -3.2099  -3.1857  -3.1763  -3.1761  -3.1761  -3.1760  -3.1713  -3.0957
    -3.0956  -3.0948  -3.0947  -3.0901  -3.0899  -3.0869  -3.0868  -3.0868
    -3.0868  -3.0454  -3.0453  -3.0452  -3.0451  -3.0178  -3.0056  -3.0055
    -2.9782  -2.9742  -2.9740  -2.9740  -2.9740  -2.9688  -2.9382  -2.9380
    -2.9351  -2.9349  -2.9349  -2.9349  -2.9293  -2.9292  -2.8984  -2.8836
    -2.8834  -2.7759  -2.7758  -2.7615  -2.7611  -2.7611  -2.7611  -2.7263
    -2.7262  -2.7175  -2.7175  -2.7028  -2.7027  -2.7009  -2.7008  -2.7008
    -2.7008  -2.6120  -2.6120  -2.6119  -2.6119  -2.5572  -2.4829  -2.4417
    -2.4416  -2.3679  -2.3679  -2.2688  -2.2681  -2.2681  -2.2681  -2.1963
    -2.1962  -2.1603  -2.0959  -2.0767  -2.0614  -2.0609  -2.0609  -2.0608
    -2.0138  -2.0134  -2.0133  -2.0133  -2.0066  -2.0062  -2.0058  -1.9948
    -1.9944  -1.9544  -1.9538  -1.9538  -1.9538  -1.9486  -1.9483  -1.9180
    -1.9180  -1.8925  -1.8920  -1.8711  -1.8709  -1.8708  -1.8708  -1.7604
    -1.7602  -1.6298  -1.6296  -1.6296  -1.6296  -1.5897  -1.5896  -1.5192
    -1.4437  -1.4437  -1.4437  -1.4437  -1.4242  -1.4242  -1.4184  -1.4184
    -1.4155  -1.4089  -1.4089  -1.3813  -1.3745  -1.3745  -1.3745  -1.3744
    -1.3635  -1.3635  -1.3635  -1.3634  -1.3624  -1.3624  -1.3484  -1.3484
    -1.3470  -1.3470  -1.3470  -1.3470  -1.3403  -1.3403  -1.3374  -1.3333
    -1.2995  -1.2995  -1.2969  -1.2813  -1.2813  -1.2813  -1.2812  -1.2535
    -1.2534  -1.2417  -1.2416  -1.2416  -1.2415  -1.2337  -1.2299  -1.2299
    -1.2200  -1.2200  -1.2098  -1.2098  -1.2090  -1.2090  -1.2090  -1.2090
    -1.1525  -1.1525  -1.1525  -1.1525  -1.1478  -1.1478  -1.0928  -1.0681
    -1.0405  -0.9019  -0.9019  -0.9019  -0.9019  -0.9012  -0.9012  -0.8037
    -0.8036  -0.8018  -0.7826  -0.7826  -0.7826  -0.7825  -0.7795  -0.7795
    -0.7695  -0.7626  -0.7625  -0.7285  -0.7285  -0.7285  -0.7285  -0.7178
    -0.7178  -0.7143  -0.7124  -0.7124  -0.7123  -0.7123  -0.6637  -0.6636
    -0.6294  -0.6294  -0.5996  -0.5995  -0.5995  -0.5995  -0.5722  -0.5722
    -0.4878  -0.4241  -0.4240  -0.4240  -0.4240  -0.4158  -0.4157  -0.4004
    -0.3839  -0.3838  -0.3633  -0.3633  -0.3633  -0.3632  -0.3471  -0.3407
    -0.3407  -0.3361  -0.3361  -0.3361  -0.3360  -0.3312  -0.3311  -0.3287
    -0.3287  -0.3267  -0.2970  -0.2969  -0.2846  -0.2846  -0.2845  -0.2845
    -0.2801  -0.2800  -0.2760  -0.2760  -0.2759  -0.2759  -0.2727  -0.2431
    -0.2431  -0.2431  -0.2430  -0.2400  -0.2400  -0.2399  -0.2215  -0.2214
    -0.2209  -0.2209  -0.2209  -0.2208  -0.2185  -0.2081  -0.2081  -0.2076
    -0.2036  -0.2036  -0.1908  -0.1908  -0.1907  -0.1907  -0.1907  -0.1906
     0.3864   0.4185   0.4185   0.4185   0.4185   0.4350   0.4350   0.4859
     0.4860   0.4867   0.4948   0.4948   0.4949   0.4949   0.5126   0.5127
     0.5145   0.5145   0.5240   0.5272   0.5272   0.5272   0.5273   0.5738
     0.5738   0.5762   0.5763   0.6100   0.6101   0.6101   0.6101   0.6263
     1.0983   1.0984   1.1046   1.1047   1.1159   1.1159   1.1160   1.1161
     1.1374   1.1374   1.1375   1.1375   1.1548   1.1618   1.1618   1.1636
     1.1636   1.1645   1.1737   1.1737   1.1737   1.1738   1.1846   1.1846
     1.2169   1.2206   1.2421   1.2421   1.2421   1.2422   1.2427   1.2427

     occupation numbers 
     1.0000   1.0000   1.0000   1.0000   1.0000   1.0000   1.0000   1.0000
     1.0000   1.0000   1.0000   1.0000   1.0000   1.0000   1.0000   1.0000
     1.0000   1.0000   1.0000   1.0000   1.0000   1.0000   1.0000   1.0000
     1.0000   1.0000   1.0000   1.0000   1.0000   1.0000   1.0000   1.0000
     1.0000   1.0000   1.0000   1.0000   1.0000   1.0000   1.0000   1.0000
     1.0000   1.0000   1.0000   1.0000   1.0000   1.0000   1.0000   1.0000
     1.0000   1.0000   1.0000   1.0000   1.0000   1.0000   1.0000   1.0000
     1.0000   1.0000   1.0000   1.0000   1.0000   1.0000   1.0000   1.0000
     1.0000   1.0000   1.0000   1.0000   1.0000   1.0000   1.0000   1.0000
     1.0000   1.0000   1.0000   1.0000   1.0000   1.0000   1.0000   1.0000
     1.0000   1.0000   1.0000   1.0000   1.0000   1.0000   1.0000   1.0000
     1.0000   1.0000   1.0000   1.0000   1.0000   1.0000   1.0000   1.0000
     1.0000   1.0000   1.0000   1.0000   1.0000   1.0000   1.0000   1.0000
     1.0000   1.0000   1.0000   1.0000   1.0000   1.0000   1.0000   1.0000
     1.0000   1.0000   1.0000   1.0000   1.0000   1.0000   1.0000   1.0000
     1.0000   1.0000   1.0000   1.0000   1.0000   1.0000   1.0000   1.0000
     1.0000   1.0000   1.0000   1.0000   1.0000   1.0000   1.0000   1.0000
     1.0000   1.0000   1.0000   1.0000   1.0000   1.0000   1.0000   1.0000
     1.0000   1.0000   1.0000   1.0000   1.0000   1.0000   1.0000   1.0000
     1.0000   1.0000   1.0000   1.0000   1.0000   1.0000   1.0000   1.0000
     1.0000   1.0000   1.0000   1.0000   1.0000   1.0000   1.0000   1.0000
     1.0000   1.0000   1.0000   1.0000   1.0000   1.0000   1.0000   1.0000
     1.0000   1.0000   1.0000   1.0000   1.0000   1.0000   1.0000   1.0000
     1.0000   1.0000   1.0000   1.0000   1.0000   1.0000   1.0000   1.0000
     1.0000   1.0000   1.0000   1.0000   1.0000   1.0000   1.0000   1.0000
     1.0000   1.0000   1.0000   1.0000   1.0000   1.0000   1.0000   1.0000
     1.0000   1.0000   1.0000   1.0000   1.0000   1.0000   1.0000   1.0000
     1.0000   1.0000   1.0000   1.0000   1.0000   1.0000   1.0000   1.0000
     1.0000   1.0000   1.0000   1.0000   1.0000   1.0000   1.0000   1.0000
     1.0000   1.0000   1.0000   1.0000   1.0000   1.0000   1.0000   1.0000
     1.0000   1.0000   1.0000   1.0000   1.0000   1.0000   1.0000   1.0000
     1.0000   1.0000   1.0000   1.0000   1.0000   1.0000   1.0000   1.0000
     1.0000   1.0000   1.0000   1.0000   1.0000   1.0000   1.0000   1.0000
     1.0000   1.0000   1.0000   1.0000   1.0000   1.0000   1.0000   1.0000
     1.0000   1.0000   1.0000   1.0000   1.0000   1.0000   1.0000   1.0000
     1.0000   1.0000   1.0000   1.0000   1.0000   1.0000   1.0000   1.0000
     1.0000   1.0000   1.0000   1.0000   1.0000   1.0000   1.0000   1.0000
     1.0000   1.0000   1.0000   1.0000   1.0000   1.0000   1.0000   1.0000
     1.0000   1.0000   1.0000   1.0000   1.0000   1.0000   1.0000   1.0000
     1.0000   1.0000   1.0000   1.0000   1.0000   1.0000   1.0000   1.0000
     1.0000   1.0000   1.0000   1.0000   1.0000   1.0000   1.0000   1.0000
     1.0000   1.0000   1.0000   1.0000   1.0000   1.0000   1.0000   1.0000
     1.0000   1.0000   1.0000   1.0000   1.0000   1.0000   1.0000   1.0000
     1.0000   1.0000   1.0000   1.0000   1.0000   1.0000   1.0000   1.0000
     1.0000   1.0000   1.0000   1.0000   1.0000   1.0000   1.0000   1.0000
     1.0000   1.0000   1.0000   1.0000   1.0000   1.0000   1.0000   1.0000
     1.0000   1.0000   1.0000   1.0000   1.0000   1.0000   1.0000   1.0000
     1.0000   1.0000   1.0000   1.0000   1.0000   1.0000   1.0000   1.0000
     1.0000   1.0000   1.0000   1.0000   1.0000   1.0000   1.0000   1.0000
     1.0000   1.0000   1.0000   1.0000   1.0000   1.0000   1.0000   1.0000
     1.0000   1.0000   1.0000   1.0000   1.0000   1.0000   1.0000   1.0000
     1.0000   1.0000   1.0000   1.0000   1.0000   1.0000   1.0000   1.0000
     1.0000   1.0000   1.0000   1.0000   1.0000   1.0000   1.0000   1.0000
     1.0000   1.0000   1.0000   1.0000   1.0000   1.0000   1.0000   1.0000
     1.0000   1.0000   1.0000   1.0000   1.0000   1.0000   1.0000   1.0000
     1.0000   1.0000   1.0000   1.0000   1.0000   1.0000   1.0000   1.0000
     1.0000   1.0000   1.0000   1.0000   1.0000   1.0000   1.0000   1.0000
     1.0000   1.0000   1.0000   1.0000   1.0000   1.0000   1.0000   1.0000
     1.0000   1.0000   1.0000   1.0000   1.0000   1.0000   1.0000   1.0000
     1.0000   1.0000   1.0000   1.0000   1.0000   1.0000   1.0000   1.0000
     1.0000   1.0000   1.0000   1.0000   1.0000   1.0000   1.0000   1.0000
     1.0000   1.0000   1.0000   1.0000   1.0000   1.0000   1.0000   1.0000
     1.0000   1.0000   1.0000   1.0000   1.0000   1.0000   1.0000   1.0000
     1.0000   1.0000   1.0000   1.0000   1.0000   1.0000   1.0000   1.0000
     1.0000   1.0000   1.0000   1.0000   1.0000   1.0000   1.0000   1.0000
     1.0000   1.0000   1.0000   1.0000   1.0000   1.0000   1.0000   1.0000
     1.0000   1.0000   1.0000   1.0000   1.0000   1.0000   1.0000   1.0000
     1.0000   1.0000   1.0000   1.0000   1.0000   1.0000   1.0000   1.0000
     1.0000   1.0000   1.0000   1.0000   1.0000   1.0000   1.0000   1.0000
     1.0000   1.0000   1.0000   1.0000   1.0000   1.0000   1.0000   1.0000
     1.0000   1.0000   1.0000   1.0000   1.0000   1.0000   1.0000   1.0000
     1.0000   1.0000   1.0000   1.0000   1.0000   1.0000   1.0000   1.0000
     1.0000   1.0000   1.0000   1.0000   1.0000   1.0000   1.0000   1.0000
     1.0000   1.0000   1.0000   1.0000   1.0000   1.0000   1.0000   1.0000
     1.0000   1.0000   1.0000   1.0000   1.0000   1.0000   1.0000   1.0000
     1.0000   1.0000   1.0000   1.0000   1.0000   1.0000   1.0000   1.0000
     1.0000   1.0000   1.0000   1.0000   1.0000   1.0000   1.0000   1.0000
     1.0000   1.0000   1.0000   1.0000   1.0000   1.0000   1.0000   1.0000
     1.0000   1.0000   1.0000   1.0000   1.0000   1.0000   1.0000   1.0000
     1.0000   1.0000   1.0000   1.0000   1.0000   1.0000   1.0000   1.0000
     1.0000   1.0000   1.0000   1.0000   1.0000   1.0000   1.0000   1.0000
     1.0000   1.0000   1.0000   1.0000   1.0000   1.0000   1.0000   1.0000
     1.0000   1.0000   1.0000   1.0000   1.0000   1.0000   1.0000   1.0000
     1.0000   1.0000   1.0000   1.0000   1.0000   1.0000   1.0000   1.0000
     1.0000   1.0000   1.0000   1.0000   1.0000   1.0000   1.0000   1.0000
     1.0000   1.0000   1.0000   1.0000   1.0000   1.0000   1.0000   1.0000
     1.0000   1.0000   1.0000   1.0000   1.0000   1.0000   1.0000   1.0000
     1.0000   1.0000   1.0000   1.0000   1.0000   1.0000   1.0000   1.0000
     1.0000   1.0000   1.0000   1.0000   1.0000   1.0000   1.0000   1.0000
     1.0000   1.0000   1.0000   1.0000   1.0000   1.0000   1.0000   1.0000
     1.0000   1.0000   1.0000   1.0000   1.0000   1.0000   1.0000   1.0000
     1.0000   1.0000   1.0000   1.0000   1.0000   1.0000   1.0000   1.0000
     1.0000   1.0000   1.0000   1.0000   1.0000   1.0000   1.0000   1.0000
     1.0000   1.0000   1.0000   1.0000   1.0000   1.0000   1.0000   1.0000
     1.0000   1.0000   1.0000   1.0000   1.0000   1.0000   1.0000   1.0000
     1.0000   1.0000   1.0000   1.0000   1.0000   1.0000   1.0000   1.0000
     1.0000   1.0000   1.0000   1.0000   1.0000   1.0000   1.0000   1.0000
     1.0000   1.0000   1.0000   1.0000   1.0000   1.0000   1.0000   1.0000
     1.0000   1.0000   1.0000   1.0000   1.0000   1.0000   1.0000   1.0000
     1.0000   1.0000   1.0000   1.0000   1.0000   1.0000   1.0000   1.0000
     1.0000   1.0000   1.0000   1.0000   1.0000   1.0000   1.0000   1.0000
     1.0000   1.0000   1.0000   1.0000   1.0000   1.0000   1.0000   1.0000
     1.0000   1.0000   1.0000   1.0000   1.0000   1.0000   1.0000   1.0000
     1.0000   1.0000   1.0000   1.0000   1.0000   1.0000   1.0000   1.0000
     1.0000   1.0000   1.0000   1.0000   1.0000   1.0000   1.0000   1.0000
     1.0000   1.0000   1.0000   1.0000   1.0000   1.0000   1.0000   1.0000
     1.0000   1.0000   1.0000   1.0000   1.0000   1.0000   1.0000   1.0000
     1.0000   1.0000   1.0000   1.0000   1.0000   1.0000   1.0000   1.0000
     1.0000   1.0000   1.0000   1.0000   1.0000   1.0000   1.0000   1.0000
     1.0000   1.0000   1.0000   1.0000   1.0000   1.0000   1.0000   1.0000
     1.0000   1.0000   1.0000   1.0000   1.0000   1.0000   1.0000   1.0000
     1.0000   1.0000   1.0000   1.0000   1.0000   1.0000   1.0000   1.0000
     1.0000   1.0000   1.0000   1.0000   1.0000   1.0000   1.0000   1.0000
     1.0000   1.0000   1.0000   1.0000   1.0000   1.0000   1.0000   1.0000
     1.0000   1.0000   1.0000   1.0000   1.0000   1.0000   1.0000   1.0000
     1.0000   1.0000   1.0000   1.0000   1.0000   1.0000   1.0000   1.0000
     1.0000   1.0000   1.0000   1.0000   1.0000   1.0000   1.0000   1.0000
     1.0000   1.0000   1.0000   1.0000   1.0000   1.0000   1.0000   1.0000
     1.0000   1.0000   1.0000   1.0000   1.0000   1.0000   1.0000   1.0000
     1.0000   1.0000   1.0000   1.0000   1.0000   1.0000   1.0000   1.0000
     1.0000   1.0000   1.0000   1.0000   1.0000   1.0000   1.0000   1.0000
     1.0000   1.0000   1.0000   1.0000   1.0000   1.0000   1.0000   1.0000
     1.0000   1.0000   1.0000   1.0000   1.0000   1.0000   1.0000   1.0000
     1.0000   1.0000   1.0000   1.0000   1.0000   1.0000   1.0000   1.0000
     1.0000   1.0000   1.0000   1.0000   1.0000   1.0000   1.0000   1.0000
     1.0000   1.0000   1.0000   1.0000   1.0000   1.0000   1.0000   1.0000

     highest occupied level (ev):     1.2427

!    total energy              =  -14225.28741314 Ry
     estimated scf accuracy    <          7.7E-09 Ry

     The total energy is the sum of the following terms:
     one-electron contribution =  -15720.05799089 Ry
     hartree contribution      =    8487.48198861 Ry
     xc contribution           =   -2486.48463847 Ry
     ewald contribution        =   -3375.02739570 Ry
     one-center paw contrib.   =   -1131.19937669 Ry
      -> PAW hartree energy AE =       0.00000000 Ry
      -> PAW hartree energy PS =       0.00000000 Ry
      -> PAW xc energy AE      =       0.00000000 Ry
      -> PAW xc energy PS      =       0.00000000 Ry
      -> total E_H with PAW    =    8487.48198861 Ry
      -> total E_XC with PAW   =   -2486.48463847 Ry

     convergence has been achieved in  18 iterations

     Forces acting on atoms (cartesian axes, Ry/au):

     atom    1 type  1   force =    -0.00000325   -0.00023715   -0.00013464
     atom    2 type  1   force =    -0.00000311   -0.00023758   -0.00013475
     atom    3 type  1   force =    -0.00000347   -0.00023674   -0.00013367
     atom    4 type  1   force =    -0.00000143   -0.00023892   -0.00013507
     atom    5 type  1   force =    -0.00000347   -0.00023698   -0.00013456
     atom    6 type  1   force =     0.00000555   -0.00023905   -0.00014111
     atom    7 type  1   force =    -0.00000306   -0.00023755   -0.00013482
     atom    8 type  1   force =    -0.00000342   -0.00023771   -0.00013505
     atom    9 type  1   force =    -0.00019838   -0.00013115   -0.00017398
     atom   10 type  1   force =    -0.00019834   -0.00013094   -0.00017387
     atom   11 type  1   force =    -0.00019938   -0.00013015   -0.00017433
     atom   12 type  1   force =    -0.00019755   -0.00013126   -0.00017368
     atom   13 type  1   force =    -0.00019321   -0.00013283   -0.00017184
     atom   14 type  1   force =    -0.00019834   -0.00013102   -0.00017391
     atom   15 type  1   force =    -0.00019848   -0.00013127   -0.00017423
     atom   16 type  1   force =    -0.00019867   -0.00013114   -0.00017409
     atom   17 type  2   force =    -0.00001660    0.00000202    0.00001162
     atom   18 type  2   force =    -0.00001661    0.00000237    0.00001165
     atom   19 type  2   force =    -0.00001645    0.00000204    0.00001170
     atom   20 type  2   force =    -0.00001633    0.00000228    0.00001150
     atom   21 type  2   force =     0.00002409   -0.00005709    0.00022301
     atom   22 type  2   force =    -0.00001677    0.00000207    0.00001161
     atom   23 type  2   force =    -0.00001630    0.00000195    0.00001164
     atom   24 type  2   force =    -0.00001637    0.00000217    0.00001158
     atom   25 type  2   force =     0.00019802   -0.00004525    0.00002704
     atom   26 type  2   force =     0.00019844   -0.00004555    0.00002703
     atom   27 type  2   force =     0.00019755   -0.00004544    0.00002762
     atom   28 type  2   force =     0.00019743   -0.00004626    0.00002633
     atom   29 type  2   force =     0.00018425   -0.00002585    0.00004479
     atom   30 type  2   force =     0.00019849   -0.00004555    0.00002702
     atom   31 type  2   force =     0.00019810   -0.00004516    0.00002717
     atom   32 type  2   force =     0.00019818   -0.00004565    0.00002692
     atom   33 type  2   force =     0.00008926    0.00044930    0.00011498
     atom   34 type  2   force =    -0.00008415    0.00015383    0.00008249
     atom   35 type  2   force =    -0.00008441    0.00015411    0.00008252
     atom   36 type  2   force =    -0.00008432    0.00015392    0.00008243
     atom   37 type  2   force =    -0.00008431    0.00015379    0.00008246
     atom   38 type  2   force =    -0.00008425    0.00015377    0.00008249
     atom   39 type  2   force =    -0.00008443    0.00015370    0.00008239
     atom   40 type  2   force =    -0.00008444    0.00015365    0.00008254
     atom   41 type  3   force =     0.00000963    0.00002008   -0.00015615
     atom   42 type  3   force =     0.00002329    0.00004633   -0.00005438
     atom   43 type  3   force =     0.00002334    0.00004648   -0.00005453
     atom   44 type  3   force =     0.00002329    0.00004634   -0.00005430
     atom   45 type  3   force =     0.00002329    0.00004639   -0.00005427
     atom   46 type  3   force =     0.00002332    0.00004616   -0.00005430
     atom   47 type  3   force =     0.00002327    0.00004630   -0.00005418
     atom   48 type  3   force =     0.00002326    0.00004629   -0.00005441
     atom   49 type  2   force =     0.00045029    0.00016626    0.00001250
     atom   50 type  2   force =     0.00014307   -0.00000567   -0.00000109
     atom   51 type  2   force =     0.00014265   -0.00000520   -0.00000119
     atom   52 type  2   force =     0.00014277   -0.00000557   -0.00000109
     atom   53 type  2   force =     0.00014296   -0.00000539   -0.00000115
     atom   54 type  2   force =     0.00014268   -0.00000574   -0.00000102
     atom   55 type  2   force =     0.00014234   -0.00000526   -0.00000112
     atom   56 type  2   force =     0.00014245   -0.00000544   -0.00000124
     atom   57 type  3   force =     0.00002342   -0.00008337   -0.00011805
     atom   58 type  3   force =     0.00003598   -0.00007014   -0.00004852
     atom   59 type  3   force =     0.00003590   -0.00007004   -0.00004842
     atom   60 type  3   force =     0.00003602   -0.00007010   -0.00004842
     atom   61 type  3   force =     0.00003595   -0.00007010   -0.00004835
     atom   62 type  3   force =     0.00003603   -0.00006998   -0.00004839
     atom   63 type  3   force =     0.00003583   -0.00007012   -0.00004831
     atom   64 type  3   force =     0.00003593   -0.00007006   -0.00004847
     atom   65 type  1   force =     0.00005249    0.00020297    0.00017689
     atom   66 type  1   force =     0.00005254    0.00020347    0.00017697
     atom   67 type  1   force =     0.00005301    0.00020213    0.00017522
     atom   68 type  1   force =     0.00005257    0.00020404    0.00017752
     atom   69 type  1   force =     0.00005135    0.00020428    0.00017351
     atom   70 type  1   force =     0.00005237    0.00020342    0.00017728
     atom   71 type  1   force =     0.00005197    0.00020258    0.00017684
     atom   72 type  1   force =     0.00005224    0.00020312    0.00017680
     atom   73 type  1   force =    -0.00015713    0.00025110    0.00011282
     atom   74 type  1   force =    -0.00015760    0.00025123    0.00011267
     atom   75 type  1   force =    -0.00015664    0.00025280    0.00011052
     atom   76 type  1   force =    -0.00015764    0.00025161    0.00011298
     atom   77 type  1   force =    -0.00015255    0.00025249    0.00011343
     atom   78 type  1   force =    -0.00015760    0.00025116    0.00011278
     atom   79 type  1   force =    -0.00015698    0.00025119    0.00011289
     atom   80 type  1   force =    -0.00015736    0.00025095    0.00011246
     atom   81 type  2   force =    -0.00009879   -0.00007633   -0.00003200
     atom   82 type  2   force =    -0.00009887   -0.00007678   -0.00003199
     atom   83 type  2   force =    -0.00009888   -0.00007629   -0.00003193
     atom   84 type  2   force =    -0.00009882   -0.00007681   -0.00003188
     atom   85 type  2   force =    -0.00013688   -0.00008595   -0.00004326
     atom   86 type  2   force =    -0.00009874   -0.00007660   -0.00003201
     atom   87 type  2   force =    -0.00009890   -0.00007657   -0.00003197
     atom   88 type  2   force =    -0.00009891   -0.00007649   -0.00003202
     atom   89 type  3   force =    -0.00000423   -0.00002002    0.00001403
     atom   90 type  3   force =    -0.00000439   -0.00002004    0.00001376
     atom   91 type  3   force =    -0.00000424   -0.00001996    0.00001364
     atom   92 type  3   force =    -0.00000432   -0.00001986    0.00001394
     atom   93 type  3   force =    -0.00000433   -0.00002004    0.00001389
     atom   94 type  3   force =    -0.00000077   -0.00002364   -0.00003324
     atom   95 type  3   force =    -0.00000427   -0.00001999    0.00001391
     atom   96 type  3   force =    -0.00000431   -0.00002005    0.00001385
     atom   97 type  1   force =     0.00013270   -0.00020395    0.00002138
     atom   98 type  1   force =     0.00013266   -0.00020461    0.00002202
     atom   99 type  1   force =     0.00013304   -0.00020409    0.00002231
     atom  100 type  1   force =     0.00013317   -0.00020428    0.00002161
     atom  101 type  1   force =     0.00013253   -0.00020415    0.00002198
     atom  102 type  1   force =     0.00008712   -0.00011902    0.00020173
     atom  103 type  1   force =     0.00013274   -0.00020402    0.00002177
     atom  104 type  1   force =     0.00013280   -0.00020450    0.00002200
     atom  105 type  2   force =    -0.00004001   -0.00001088    0.00006628
     atom  106 type  2   force =    -0.00006711   -0.00004176    0.00007326
     atom  107 type  2   force =    -0.00006676   -0.00004222    0.00007330
     atom  108 type  2   force =    -0.00006652   -0.00004220    0.00007315
     atom  109 type  2   force =    -0.00006707   -0.00004169    0.00007315
     atom  110 type  2   force =    -0.00006876   -0.00004200    0.00007314
     atom  111 type  2   force =    -0.00006683   -0.00004234    0.00007311
     atom  112 type  2   force =    -0.00006702   -0.00004201    0.00007322
     atom  113 type  3   force =    -0.00725228   -0.00785439    0.00136473
     atom  114 type  3   force =    -0.00006648   -0.00002225   -0.00002942
     atom  115 type  3   force =    -0.00006666   -0.00002212   -0.00002943
     atom  116 type  3   force =    -0.00006652   -0.00002212   -0.00002936
     atom  117 type  3   force =    -0.00006654   -0.00002212   -0.00002926
     atom  118 type  3   force =    -0.00006651   -0.00002218   -0.00002932
     atom  119 type  3   force =    -0.00006661   -0.00002200   -0.00002930
     atom  120 type  3   force =    -0.00006646   -0.00002209   -0.00002943
     atom  121 type  1   force =     0.00000221    0.00023777   -0.00013437
     atom  122 type  1   force =     0.00000336    0.00023741   -0.00013476
     atom  123 type  1   force =     0.00000331    0.00023686   -0.00013331
     atom  124 type  1   force =     0.00000294    0.00023730   -0.00013483
     atom  125 type  1   force =     0.00000341    0.00023741   -0.00013473
     atom  126 type  1   force =     0.00000259    0.00023881   -0.00013470
     atom  127 type  1   force =     0.00000303    0.00023800   -0.00013516
     atom  128 type  1   force =     0.00000321    0.00023744   -0.00013482
     atom  129 type  1   force =     0.00019871    0.00012991   -0.00017389
     atom  130 type  1   force =     0.00019829    0.00013129   -0.00017400
     atom  131 type  1   force =     0.00019749    0.00013155   -0.00017336
     atom  132 type  1   force =     0.00019795    0.00013124   -0.00017418
     atom  133 type  1   force =     0.00019824    0.00013119   -0.00017404
     atom  134 type  1   force =     0.00019914    0.00013204   -0.00017316
     atom  135 type  1   force =     0.00019868    0.00013172   -0.00017432
     atom  136 type  1   force =     0.00019810    0.00013137   -0.00017411
     atom  137 type  2   force =     0.00001678   -0.00000222    0.00001159
     atom  138 type  2   force =     0.00001658   -0.00000207    0.00001160
     atom  139 type  2   force =     0.00001644   -0.00000227    0.00001152
     atom  140 type  2   force =     0.00001533   -0.00000218    0.00001144
     atom  141 type  2   force =     0.00001683   -0.00000200    0.00001160
     atom  142 type  2   force =     0.00001667   -0.00000180    0.00001162
     atom  143 type  2   force =     0.00001731   -0.00000206    0.00001245
     atom  144 type  2   force =     0.00001635   -0.00000209    0.00001161
     atom  145 type  2   force =    -0.00019848    0.00004596    0.00002695
     atom  146 type  2   force =    -0.00019841    0.00004556    0.00002682
     atom  147 type  2   force =    -0.00019696    0.00004613    0.00002632
     atom  148 type  2   force =    -0.00019716    0.00004561    0.00002703
     atom  149 type  2   force =    -0.00019862    0.00004550    0.00002708
     atom  150 type  2   force =    -0.00019881    0.00004517    0.00002698
     atom  151 type  2   force =    -0.00019764    0.00004500    0.00002756
     atom  152 type  2   force =    -0.00019789    0.00004522    0.00002713
     atom  153 type  2   force =     0.00008408   -0.00015371    0.00008249
     atom  154 type  2   force =     0.00008415   -0.00015400    0.00008247
     atom  155 type  2   force =     0.00007844   -0.00015193    0.00008162
     atom  156 type  2   force =     0.00008449   -0.00015398    0.00008246
     atom  157 type  2   force =     0.00008420   -0.00015350    0.00008251
     atom  158 type  2   force =     0.00008430   -0.00015385    0.00008252
     atom  159 type  2   force =     0.00008444   -0.00015350    0.00008246
     atom  160 type  2   force =     0.00008461   -0.00015332    0.00008251
     atom  161 type  3   force =    -0.00002329   -0.00004631   -0.00005435
     atom  162 type  3   force =    -0.00002330   -0.00004637   -0.00005432
     atom  163 type  3   force =    -0.00002142   -0.00004874   -0.00005225
     atom  164 type  3   force =    -0.00002329   -0.00004644   -0.00005440
     atom  165 type  3   force =    -0.00002339   -0.00004594   -0.00005430
     atom  166 type  3   force =    -0.00002331   -0.00004642   -0.00005441
     atom  167 type  3   force =    -0.00002321   -0.00004624   -0.00005428
     atom  168 type  3   force =    -0.00002352   -0.00004631   -0.00005424
     atom  169 type  2   force =    -0.00014843    0.00000629   -0.00000313
     atom  170 type  2   force =    -0.00014254    0.00000527   -0.00000120
     atom  171 type  2   force =    -0.00014317    0.00000562   -0.00000111
     atom  172 type  2   force =    -0.00014304    0.00000564   -0.00000107
     atom  173 type  2   force =    -0.00014256    0.00000546   -0.00000133
     atom  174 type  2   force =    -0.00014079    0.00000604   -0.00000116
     atom  175 type  2   force =    -0.00014283    0.00000560   -0.00000110
     atom  176 type  2   force =    -0.00014276    0.00000551   -0.00000116
     atom  177 type  3   force =    -0.00003580    0.00006985   -0.00004834
     atom  178 type  3   force =    -0.00003596    0.00007011   -0.00004849
     atom  179 type  3   force =    -0.00003594    0.00007006   -0.00004861
     atom  180 type  3   force =    -0.00003601    0.00007022   -0.00004841
     atom  181 type  3   force =    -0.00003591    0.00007002   -0.00004838
     atom  182 type  3   force =    -0.00003497    0.00006603   -0.00004866
     atom  183 type  3   force =    -0.00003603    0.00007004   -0.00004838
     atom  184 type  3   force =    -0.00003597    0.00007015   -0.00004846
     atom  185 type  1   force =    -0.00005332   -0.00020303    0.00017597
     atom  186 type  1   force =    -0.00005231   -0.00020306    0.00017723
     atom  187 type  1   force =    -0.00005285   -0.00020420    0.00017744
     atom  188 type  1   force =    -0.00005248   -0.00020300    0.00017673
     atom  189 type  1   force =    -0.00005237   -0.00020320    0.00017698
     atom  190 type  1   force =    -0.00005136   -0.00020240    0.00017609
     atom  191 type  1   force =    -0.00005198   -0.00020289    0.00017634
     atom  192 type  1   force =    -0.00005235   -0.00020283    0.00017705
     atom  193 type  1   force =     0.00015730   -0.00025297    0.00011178
     atom  194 type  1   force =     0.00015745   -0.00025113    0.00011298
     atom  195 type  1   force =     0.00015754   -0.00025130    0.00011303
     atom  196 type  1   force =     0.00015686   -0.00025108    0.00011287
     atom  197 type  1   force =     0.00015734   -0.00025149    0.00011282
     atom  198 type  1   force =     0.00015708   -0.00025139    0.00011292
     atom  199 type  1   force =     0.00015671   -0.00025109    0.00011261
     atom  200 type  1   force =     0.00015689   -0.00025119    0.00011309
     atom  201 type  2   force =     0.00009876    0.00007646   -0.00003197
     atom  202 type  2   force =     0.00009868    0.00007666   -0.00003194
     atom  203 type  2   force =     0.00009883    0.00007661   -0.00003183
     atom  204 type  2   force =     0.00010016    0.00007784   -0.00003174
     atom  205 type  2   force =     0.00009870    0.00007648   -0.00003207
     atom  206 type  2   force =     0.00009819    0.00007594   -0.00003224
     atom  207 type  2   force =     0.00010004    0.00007581   -0.00003180
     atom  208 type  2   force =     0.00009899    0.00007662   -0.00003198
     atom  209 type  3   force =     0.00000437    0.00001995    0.00001390
     atom  210 type  3   force =     0.00000432    0.00002012    0.00001385
     atom  211 type  3   force =     0.00000428    0.00001989    0.00001368
     atom  212 type  3   force =     0.00000371    0.00001995    0.00001415
     atom  213 type  3   force =     0.00000440    0.00002007    0.00001387
     atom  214 type  3   force =     0.00000429    0.00001988    0.00001413
     atom  215 type  3   force =     0.00000420    0.00001987    0.00001352
     atom  216 type  3   force =     0.00000429    0.00002006    0.00001388
     atom  217 type  1   force =    -0.00013267    0.00020410    0.00002178
     atom  218 type  1   force =    -0.00013264    0.00020436    0.00002198
     atom  219 type  1   force =    -0.00013315    0.00020429    0.00002210
     atom  220 type  1   force =    -0.00013483    0.00020446    0.00002216
     atom  221 type  1   force =    -0.00013237    0.00020429    0.00002218
     atom  222 type  1   force =    -0.00013190    0.00020435    0.00002177
     atom  223 type  1   force =    -0.00013204    0.00020261    0.00002321
     atom  224 type  1   force =    -0.00013291    0.00020448    0.00002186
     atom  225 type  2   force =     0.00683525    0.00739833   -0.00154096
     atom  226 type  2   force =     0.00006675    0.00004216    0.00007327
     atom  227 type  2   force =     0.00006707    0.00004174    0.00007323
     atom  228 type  2   force =     0.00006673    0.00004212    0.00007322
     atom  229 type  2   force =     0.00006693    0.00004186    0.00007311
     atom  230 type  2   force =     0.00006670    0.00004232    0.00007317
     atom  231 type  2   force =     0.00006702    0.00004179    0.00007309
     atom  232 type  2   force =     0.00006709    0.00004178    0.00007330
     atom  233 type  3   force =     0.00004785    0.00001173   -0.00001401
     atom  234 type  3   force =     0.00006659    0.00002210   -0.00002941
     atom  235 type  3   force =     0.00006650    0.00002235   -0.00002951
     atom  236 type  3   force =     0.00006661    0.00002217   -0.00002933
     atom  237 type  3   force =     0.00006643    0.00002211   -0.00002930
     atom  238 type  3   force =     0.00006664    0.00002208   -0.00002929
     atom  239 type  3   force =     0.00006649    0.00002219   -0.00002929
     atom  240 type  3   force =     0.00006657    0.00002214   -0.00002940
     atom  241 type  1   force =    -0.00023727    0.00000314    0.00013466
     atom  242 type  1   force =    -0.00023725    0.00000325    0.00013482
     atom  243 type  1   force =    -0.00023472    0.00000399    0.00013602
     atom  244 type  1   force =    -0.00023756    0.00000328    0.00013463
     atom  245 type  1   force =    -0.00023733    0.00000297    0.00013487
     atom  246 type  1   force =    -0.00023783    0.00000335    0.00013573
     atom  247 type  1   force =    -0.00023776    0.00000305    0.00013485
     atom  248 type  1   force =    -0.00023737    0.00000308    0.00013468
     atom  249 type  1   force =    -0.00013107    0.00019808    0.00017403
     atom  250 type  1   force =    -0.00013113    0.00019858    0.00017412
     atom  251 type  1   force =    -0.00013127    0.00019743    0.00017461
     atom  252 type  1   force =    -0.00013132    0.00019862    0.00017393
     atom  253 type  1   force =    -0.00013073    0.00019800    0.00017398
     atom  254 type  1   force =    -0.00013093    0.00019894    0.00017497
     atom  255 type  1   force =    -0.00013116    0.00019848    0.00017409
     atom  256 type  1   force =    -0.00013095    0.00019863    0.00017391
     atom  257 type  2   force =     0.00000229    0.00001636   -0.00001158
     atom  258 type  2   force =     0.00000215    0.00001657   -0.00001161
     atom  259 type  2   force =     0.00000442    0.00001272   -0.00001121
     atom  260 type  2   force =     0.00000203    0.00001663   -0.00001161
     atom  261 type  2   force =     0.00000216    0.00001658   -0.00001153
     atom  262 type  2   force =     0.00000191    0.00001651   -0.00001170
     atom  263 type  2   force =     0.00000197    0.00001644   -0.00001158
     atom  264 type  2   force =     0.00000218    0.00001692   -0.00001156
     atom  265 type  2   force =    -0.00004531   -0.00019758   -0.00002704
     atom  266 type  2   force =    -0.00004556   -0.00019860   -0.00002702
     atom  267 type  2   force =    -0.00004963   -0.00020121   -0.00002770
     atom  268 type  2   force =    -0.00004528   -0.00019832   -0.00002722
     atom  269 type  2   force =    -0.00004553   -0.00019755   -0.00002676
     atom  270 type  2   force =    -0.00004539   -0.00019928   -0.00002750
     atom  271 type  2   force =    -0.00004537   -0.00019768   -0.00002707
     atom  272 type  2   force =    -0.00004543   -0.00019879   -0.00002708
     atom  273 type  2   force =     0.00015390    0.00008449   -0.00008235
     atom  274 type  2   force =     0.00015392    0.00008425   -0.00008238
     atom  275 type  2   force =     0.00015253    0.00008764   -0.00008334
     atom  276 type  2   force =     0.00015380    0.00008419   -0.00008239
     atom  277 type  2   force =     0.00015412    0.00008449   -0.00008259
     atom  278 type  2   force =     0.00015409    0.00008414   -0.00008238
     atom  279 type  2   force =     0.00015382    0.00008427   -0.00008235
     atom  280 type  2   force =     0.00015392    0.00008419   -0.00008244
     atom  281 type  3   force =     0.00004628   -0.00002301    0.00005426
     atom  282 type  3   force =     0.00004636   -0.00002337    0.00005433
     atom  283 type  3   force =     0.00004651   -0.00002366    0.00005428
     atom  284 type  3   force =     0.00004628   -0.00002331    0.00005423
     atom  285 type  3   force =     0.00004667   -0.00002307    0.00005461
     atom  286 type  3   force =     0.00004652   -0.00002335    0.00005422
     atom  287 type  3   force =     0.00004639   -0.00002324    0.00005430
     atom  288 type  3   force =     0.00004631   -0.00002326    0.00005431
     atom  289 type  2   force =    -0.00000574   -0.00014309    0.00000145
     atom  290 type  2   force =    -0.00000551   -0.00014282    0.00000113
     atom  291 type  2   force =    -0.00000192   -0.00014281   -0.00000016
     atom  292 type  2   force =    -0.00000559   -0.00014289    0.00000113
     atom  293 type  2   force =    -0.00000558   -0.00014299    0.00000118
     atom  294 type  2   force =    -0.00000572   -0.00014286    0.00000101
     atom  295 type  2   force =    -0.00000550   -0.00014285    0.00000120
     atom  296 type  2   force =    -0.00000568   -0.00014347    0.00000113
     atom  297 type  3   force =    -0.00007005   -0.00003583    0.00004826
     atom  298 type  3   force =    -0.00007014   -0.00003603    0.00004844
     atom  299 type  3   force =    -0.00006904   -0.00003620    0.00004829
     atom  300 type  3   force =    -0.00007004   -0.00003590    0.00004837
     atom  301 type  3   force =    -0.00007017   -0.00003605    0.00004846
     atom  302 type  3   force =    -0.00007018   -0.00003595    0.00004841
     atom  303 type  3   force =    -0.00006983   -0.00003584    0.00004844
     atom  304 type  3   force =    -0.00007029   -0.00003626    0.00004851
     atom  305 type  1   force =     0.00020302   -0.00005258   -0.00017679
     atom  306 type  1   force =     0.00020320   -0.00005235   -0.00017709
     atom  307 type  1   force =     0.00020381   -0.00005267   -0.00017741
     atom  308 type  1   force =     0.00020310   -0.00005219   -0.00017655
     atom  309 type  1   force =     0.00020243   -0.00005284   -0.00017745
     atom  310 type  1   force =     0.00020251   -0.00005120   -0.00017661
     atom  311 type  1   force =     0.00020285   -0.00005248   -0.00017651
     atom  312 type  1   force =     0.00020298   -0.00005251   -0.00017690
     atom  313 type  1   force =     0.00025132    0.00015703   -0.00011282
     atom  314 type  1   force =     0.00025115    0.00015747   -0.00011266
     atom  315 type  1   force =     0.00025173    0.00015948   -0.00011347
     atom  316 type  1   force =     0.00025114    0.00015712   -0.00011264
     atom  317 type  1   force =     0.00025107    0.00015733   -0.00011308
     atom  318 type  1   force =     0.00025171    0.00015696   -0.00011265
     atom  319 type  1   force =     0.00025115    0.00015700   -0.00011264
     atom  320 type  1   force =     0.00025093    0.00015756   -0.00011263
     atom  321 type  2   force =    -0.00007663    0.00009891    0.00003194
     atom  322 type  2   force =    -0.00007654    0.00009893    0.00003211
     atom  323 type  2   force =    -0.00008829    0.00010997    0.00003562
     atom  324 type  2   force =    -0.00007644    0.00009874    0.00003203
     atom  325 type  2   force =    -0.00007675    0.00009903    0.00003199
     atom  326 type  2   force =    -0.00007683    0.00009872    0.00003212
     atom  327 type  2   force =    -0.00007651    0.00009903    0.00003194
     atom  328 type  2   force =    -0.00007632    0.00009865    0.00003212
     atom  329 type  3   force =    -0.00002002    0.00000426   -0.00001379
     atom  330 type  3   force =    -0.00002004    0.00000433   -0.00001389
     atom  331 type  3   force =    -0.00001361    0.00000323   -0.00002285
     atom  332 type  3   force =    -0.00001998    0.00000433   -0.00001393
     atom  333 type  3   force =    -0.00002010    0.00000431   -0.00001379
     atom  334 type  3   force =    -0.00002012    0.00000426   -0.00001403
     atom  335 type  3   force =    -0.00001996    0.00000431   -0.00001384
     atom  336 type  3   force =    -0.00002005    0.00000441   -0.00001390
     atom  337 type  1   force =    -0.00020389   -0.00013314   -0.00002169
     atom  338 type  1   force =    -0.00020428   -0.00013246   -0.00002169
     atom  339 type  1   force =    -0.00020313   -0.00013484   -0.00002182
     atom  340 type  1   force =    -0.00020438   -0.00013261   -0.00002171
     atom  341 type  1   force =    -0.00020410   -0.00013271   -0.00002171
     atom  342 type  1   force =    -0.00020419   -0.00013244   -0.00002152
     atom  343 type  1   force =    -0.00020458   -0.00013303   -0.00002179
     atom  344 type  1   force =    -0.00020418   -0.00013196   -0.00002188
     atom  345 type  2   force =    -0.00004120    0.00006605   -0.00007089
     atom  346 type  2   force =    -0.00004176    0.00006783   -0.00007311
     atom  347 type  2   force =    -0.00004242    0.00006716   -0.00007312
     atom  348 type  2   force =    -0.00004191    0.00006696   -0.00007300
     atom  349 type  2   force =    -0.00004205    0.00006638   -0.00007328
     atom  350 type  2   force =    -0.00004198    0.00006686   -0.00007307
     atom  351 type  2   force =    -0.00004206    0.00006691   -0.00007305
     atom  352 type  2   force =    -0.00004181    0.00006686   -0.00007313
     atom  353 type  3   force =    -0.00002206    0.00006598    0.00002885
     atom  354 type  3   force =    -0.00002201    0.00006657    0.00002933
     atom  355 type  3   force =    -0.00002196    0.00006627    0.00002977
     atom  356 type  3   force =    -0.00002218    0.00006653    0.00002926
     atom  357 type  3   force =    -0.00002209    0.00006647    0.00002956
     atom  358 type  3   force =    -0.00002214    0.00006656    0.00002931
     atom  359 type  3   force =    -0.00002220    0.00006651    0.00002936
     atom  360 type  3   force =    -0.00002222    0.00006646    0.00002936
     atom  361 type  1   force =     0.00023755   -0.00000327    0.00013481
     atom  362 type  1   force =     0.00023762   -0.00000309    0.00013492
     atom  363 type  1   force =     0.00023128   -0.00000505    0.00013600
     atom  364 type  1   force =     0.00023716   -0.00000306    0.00013437
     atom  365 type  1   force =     0.00023806   -0.00000288    0.00013522
     atom  366 type  1   force =     0.00023807   -0.00000257    0.00013540
     atom  367 type  1   force =     0.00023742   -0.00000337    0.00013480
     atom  368 type  1   force =     0.00023716   -0.00000297    0.00013458
     atom  369 type  1   force =     0.00013202   -0.00019402    0.00017531
     atom  370 type  1   force =     0.00013110   -0.00019761    0.00017409
     atom  371 type  1   force =     0.00013126   -0.00019845    0.00017403
     atom  372 type  1   force =     0.00013103   -0.00019863    0.00017409
     atom  373 type  1   force =     0.00013133   -0.00019840    0.00017409
     atom  374 type  1   force =     0.00013086   -0.00019802    0.00017406
     atom  375 type  1   force =     0.00013124   -0.00019842    0.00017409
     atom  376 type  1   force =     0.00013108   -0.00019908    0.00017423
     atom  377 type  2   force =    -0.00000319   -0.00001647   -0.00001171
     atom  378 type  2   force =    -0.00000242   -0.00001652   -0.00001166
     atom  379 type  2   force =    -0.00000204   -0.00001645   -0.00001160
     atom  380 type  2   force =    -0.00000207   -0.00001658   -0.00001163
     atom  381 type  2   force =    -0.00000206   -0.00001641   -0.00001158
     atom  382 type  2   force =    -0.00000223   -0.00001674   -0.00001128
     atom  383 type  2   force =    -0.00000203   -0.00001640   -0.00001160
     atom  384 type  2   force =    -0.00000186   -0.00001662   -0.00001167
     atom  385 type  2   force =     0.00005017    0.00019495   -0.00002689
     atom  386 type  2   force =     0.00004540    0.00019675   -0.00002682
     atom  387 type  2   force =     0.00004518    0.00019815   -0.00002728
     atom  388 type  2   force =     0.00004555    0.00019845   -0.00002710
     atom  389 type  2   force =     0.00004553    0.00019815   -0.00002704
     atom  390 type  2   force =     0.00004544    0.00019763   -0.00002694
     atom  391 type  2   force =     0.00004493    0.00019761   -0.00002724
     atom  392 type  2   force =     0.00004488    0.00019790   -0.00002747
     atom  393 type  2   force =    -0.00015308   -0.00008533   -0.00008250
     atom  394 type  2   force =    -0.00015436   -0.00008614   -0.00008183
     atom  395 type  2   force =    -0.00015386   -0.00008430   -0.00008237
     atom  396 type  2   force =    -0.00015383   -0.00008425   -0.00008244
     atom  397 type  2   force =    -0.00015401   -0.00008429   -0.00008239
     atom  398 type  2   force =    -0.00015408   -0.00008453   -0.00008248
     atom  399 type  2   force =    -0.00015408   -0.00008440   -0.00008234
     atom  400 type  2   force =    -0.00015405   -0.00008413   -0.00008234
     atom  401 type  3   force =    -0.00004625    0.00002338    0.00005435
     atom  402 type  3   force =    -0.00004634    0.00002291    0.00005412
     atom  403 type  3   force =    -0.00004633    0.00002331    0.00005423
     atom  404 type  3   force =    -0.00004637    0.00002343    0.00005434
     atom  405 type  3   force =    -0.00004637    0.00002330    0.00005433
     atom  406 type  3   force =    -0.00004636    0.00002326    0.00005436
     atom  407 type  3   force =    -0.00004665    0.00002316    0.00005427
     atom  408 type  3   force =    -0.00004641    0.00002327    0.00005427
     atom  409 type  2   force =     0.00000778    0.00014395    0.00000164
     atom  410 type  2   force =     0.00000461    0.00014279    0.00000104
     atom  411 type  2   force =     0.00000545    0.00014287    0.00000115
     atom  412 type  2   force =     0.00000546    0.00014270    0.00000114
     atom  413 type  2   force =     0.00000505    0.00014286    0.00000170
     atom  414 type  2   force =     0.00000557    0.00014273    0.00000117
     atom  415 type  2   force =     0.00000552    0.00014324    0.00000103
     atom  416 type  2   force =     0.00000538    0.00014290    0.00000118
     atom  417 type  3   force =     0.00007033    0.00003619    0.00004838
     atom  418 type  3   force =     0.00006982    0.00003604    0.00004838
     atom  419 type  3   force =     0.00006997    0.00003603    0.00004845
     atom  420 type  3   force =     0.00006998    0.00003589    0.00004832
     atom  421 type  3   force =     0.00007121    0.00003682    0.00004937
     atom  422 type  3   force =     0.00007017    0.00003594    0.00004839
     atom  423 type  3   force =     0.00007008    0.00003596    0.00004840
     atom  424 type  3   force =     0.00007008    0.00003600    0.00004840
     atom  425 type  1   force =    -0.00020440    0.00005369   -0.00017958
     atom  426 type  1   force =    -0.00020322    0.00005268   -0.00017668
     atom  427 type  1   force =    -0.00020297    0.00005221   -0.00017655
     atom  428 type  1   force =    -0.00020286    0.00005234   -0.00017681
     atom  429 type  1   force =    -0.00020327    0.00005225   -0.00017695
     atom  430 type  1   force =    -0.00020313    0.00005285   -0.00017700
     atom  431 type  1   force =    -0.00020199    0.00005229   -0.00017675
     atom  432 type  1   force =    -0.00020236    0.00005246   -0.00017623
     atom  433 type  1   force =    -0.00024986   -0.00015864   -0.00011417
     atom  434 type  1   force =    -0.00025144   -0.00015686   -0.00011282
     atom  435 type  1   force =    -0.00025119   -0.00015690   -0.00011272
     atom  436 type  1   force =    -0.00025096   -0.00015726   -0.00011257
     atom  437 type  1   force =    -0.00025130   -0.00015714   -0.00011274
     atom  438 type  1   force =    -0.00025123   -0.00015734   -0.00011280
     atom  439 type  1   force =    -0.00025086   -0.00015679   -0.00011318
     atom  440 type  1   force =    -0.00025061   -0.00015674   -0.00011242
     atom  441 type  2   force =     0.00007992   -0.00010243    0.00003198
     atom  442 type  2   force =     0.00007619   -0.00009895    0.00003179
     atom  443 type  2   force =     0.00007653   -0.00009892    0.00003198
     atom  444 type  2   force =     0.00007639   -0.00009897    0.00003209
     atom  445 type  2   force =     0.00007672   -0.00009883    0.00003199
     atom  446 type  2   force =     0.00007640   -0.00009884    0.00003209
     atom  447 type  2   force =     0.00007635   -0.00009896    0.00003200
     atom  448 type  2   force =     0.00007637   -0.00009882    0.00003201
     atom  449 type  3   force =     0.00002001   -0.00000429   -0.00001391
     atom  450 type  3   force =     0.00001999   -0.00000436   -0.00001386
     atom  451 type  3   force =     0.00001804   -0.00000494   -0.00001492
     atom  452 type  3   force =     0.00002000   -0.00000416   -0.00001368
     atom  453 type  3   force =     0.00002003   -0.00000434   -0.00001386
     atom  454 type  3   force =     0.00002000   -0.00000438   -0.00001407
     atom  455 type  3   force =     0.00002004   -0.00000422   -0.00001391
     atom  456 type  3   force =     0.00002013   -0.00000431   -0.00001384
     atom  457 type  1   force =     0.00020445    0.00013284   -0.00002163
     atom  458 type  1   force =     0.00020453    0.00013240   -0.00002182
     atom  459 type  1   force =     0.00020367    0.00013479   -0.00002121
     atom  460 type  1   force =     0.00020306    0.00013376   -0.00002194
     atom  461 type  1   force =     0.00020450    0.00013275   -0.00002170
     atom  462 type  1   force =     0.00020462    0.00013271   -0.00002139
     atom  463 type  1   force =     0.00020427    0.00013287   -0.00002163
     atom  464 type  1   force =     0.00020376    0.00013240   -0.00002270
     atom  465 type  2   force =     0.00004149   -0.00006624   -0.00007249
     atom  466 type  2   force =     0.00004232   -0.00006685   -0.00007308
     atom  467 type  2   force =     0.00004124   -0.00006983   -0.00007273
     atom  468 type  2   force =     0.00004206   -0.00006684   -0.00007302
     atom  469 type  2   force =     0.00004197   -0.00006677   -0.00007340
     atom  470 type  2   force =     0.00004229   -0.00006680   -0.00007308
     atom  471 type  2   force =     0.00004179   -0.00006703   -0.00007311
     atom  472 type  2   force =     0.00004233   -0.00006639   -0.00007313
     atom  473 type  3   force =     0.00002084   -0.00006497    0.00002726
     atom  474 type  3   force =     0.00002199   -0.00006635    0.00002944
     atom  475 type  3   force =     0.00002197   -0.00006661    0.00002932
     atom  476 type  3   force =     0.00002213   -0.00006654    0.00002925
     atom  477 type  3   force =     0.00002187   -0.00006634    0.00002975
     atom  478 type  3   force =     0.00002207   -0.00006648    0.00002932
     atom  479 type  3   force =     0.00002218   -0.00006651    0.00002932
     atom  480 type  3   force =     0.00002206   -0.00006656    0.00002935
     atom  481 type  4   force =    -0.00000089    0.00000074    0.00000000
     atom  482 type  4   force =    -0.00000080    0.00000057    0.00000056
     atom  483 type  4   force =     0.00000173   -0.00000237   -0.00000864
     atom  484 type  4   force =     0.00000036    0.00000107    0.00000096
     atom  485 type  4   force =    -0.00000090   -0.00000036    0.00000007
     atom  486 type  4   force =    -0.00000079   -0.00000400   -0.00000450
     atom  487 type  4   force =     0.00000204   -0.00000203   -0.00000068
     atom  488 type  4   force =     0.00000127   -0.00000045    0.00000024
     atom  489 type  4   force =    -0.00000087    0.00000001   -0.00000013
     atom  490 type  4   force =    -0.00000014   -0.00000043    0.00000014
     atom  491 type  4   force =    -0.00000424   -0.00000092    0.00000280
     atom  492 type  4   force =    -0.00000203   -0.00000230   -0.00000131
     atom  493 type  4   force =     0.00000279    0.00000453    0.00000527
     atom  494 type  4   force =     0.00000114   -0.00000071   -0.00000165
     atom  495 type  4   force =     0.00000083    0.00000142   -0.00000210
     atom  496 type  4   force =     0.00000026   -0.00000167   -0.00000058
     The non-local contrib.  to forces
     atom    1 type  1   force =     0.42450373   -0.94527211   -0.55499694
     atom    2 type  1   force =     0.42450505   -0.94527477   -0.55499760
     atom    3 type  1   force =     0.42450053   -0.94526038   -0.55498646
     atom    4 type  1   force =     0.42451216   -0.94528556   -0.55500365
     atom    5 type  1   force =     0.42450327   -0.94527144   -0.55499609
     atom    6 type  1   force =     0.42455215   -0.94524708   -0.55496660
     atom    7 type  1   force =     0.42450426   -0.94527358   -0.55499770
     atom    8 type  1   force =     0.42450330   -0.94527539   -0.55499912
     atom    9 type  1   force =    -1.90170011   -0.92018370   -0.83651212
     atom   10 type  1   force =    -1.90170027   -0.92018266   -0.83651157
     atom   11 type  1   force =    -1.90170305   -0.92019191   -0.83651611
     atom   12 type  1   force =    -1.90169987   -0.92018074   -0.83651017
     atom   13 type  1   force =    -1.90167568   -0.92017804   -0.83650481
     atom   14 type  1   force =    -1.90169915   -0.92018126   -0.83651091
     atom   15 type  1   force =    -1.90170370   -0.92018530   -0.83651431
     atom   16 type  1   force =    -1.90170125   -0.92018479   -0.83651305
     atom   17 type  2   force =     0.20917256   -0.04486708    0.00802076
     atom   18 type  2   force =     0.20917165   -0.04486447    0.00801996
     atom   19 type  2   force =     0.20917602   -0.04486677    0.00802008
     atom   20 type  2   force =     0.20917382   -0.04486481    0.00802210
     atom   21 type  2   force =     0.20933522   -0.04471628    0.00818848
     atom   22 type  2   force =     0.20917128   -0.04486588    0.00802071
     atom   23 type  2   force =     0.20917157   -0.04486789    0.00802085
     atom   24 type  2   force =     0.20917221   -0.04486597    0.00802041
     atom   25 type  2   force =     0.18058000   -0.00954402    0.01138302
     atom   26 type  2   force =     0.18057840   -0.00954303    0.01138350
     atom   27 type  2   force =     0.18058321   -0.00954787    0.01138326
     atom   28 type  2   force =     0.18058076   -0.00954158    0.01138455
     atom   29 type  2   force =     0.18067338   -0.00953138    0.01136749
     atom   30 type  2   force =     0.18057804   -0.00954266    0.01138363
     atom   31 type  2   force =     0.18057826   -0.00954443    0.01138254
     atom   32 type  2   force =     0.18057869   -0.00954448    0.01138264
     atom   33 type  2   force =     0.03885242    0.04956048   -0.02076195
     atom   34 type  2   force =     0.03833829    0.04943440   -0.02158946
     atom   35 type  2   force =     0.03834065    0.04942896   -0.02158854
     atom   36 type  2   force =     0.03833948    0.04943365   -0.02158968
     atom   37 type  2   force =     0.03833941    0.04943209   -0.02158949
     atom   38 type  2   force =     0.03833881    0.04943570   -0.02158995
     atom   39 type  2   force =     0.03834161    0.04943305   -0.02158979
     atom   40 type  2   force =     0.03834048    0.04943583   -0.02158838
     atom   41 type  3   force =    -0.02449399    0.07094884   -0.00854674
     atom   42 type  3   force =    -0.02448912    0.07095368   -0.00853847
     atom   43 type  3   force =    -0.02448908    0.07095354   -0.00853841
     atom   44 type  3   force =    -0.02448910    0.07095366   -0.00853848
     atom   45 type  3   force =    -0.02448910    0.07095363   -0.00853849
     atom   46 type  3   force =    -0.02448912    0.07095373   -0.00853849
     atom   47 type  3   force =    -0.02448906    0.07095365   -0.00853851
     atom   48 type  3   force =    -0.02448909    0.07095372   -0.00853845
     atom   49 type  2   force =     0.19562542    0.10465444   -0.02107156
     atom   50 type  2   force =     0.19564296    0.10406868   -0.02183109
     atom   51 type  2   force =     0.19564733    0.10406634   -0.02183150
     atom   52 type  2   force =     0.19564608    0.10406809   -0.02183147
     atom   53 type  2   force =     0.19564493    0.10406732   -0.02183171
     atom   54 type  2   force =     0.19564654    0.10406897   -0.02183157
     atom   55 type  2   force =     0.19565084    0.10406697   -0.02183197
     atom   56 type  2   force =     0.19564862    0.10406852   -0.02183114
     atom   57 type  3   force =     0.07447035   -0.02095238   -0.00102649
     atom   58 type  3   force =     0.07447314   -0.02094776   -0.00102128
     atom   59 type  3   force =     0.07447323   -0.02094781   -0.00102130
     atom   60 type  3   force =     0.07447320   -0.02094778   -0.00102131
     atom   61 type  3   force =     0.07447319   -0.02094779   -0.00102132
     atom   62 type  3   force =     0.07447320   -0.02094778   -0.00102133
     atom   63 type  3   force =     0.07447333   -0.02094778   -0.00102133
     atom   64 type  3   force =     0.07447328   -0.02094778   -0.00102127
     atom   65 type  1   force =     0.46059446    0.90170474    0.60853902
     atom   66 type  1   force =     0.46059504    0.90170996    0.60854086
     atom   67 type  1   force =     0.46060165    0.90170148    0.60853622
     atom   68 type  1   force =     0.46059716    0.90171439    0.60854591
     atom   69 type  1   force =     0.46060398    0.90167809    0.60851143
     atom   70 type  1   force =     0.46059444    0.90171059    0.60854320
     atom   71 type  1   force =     0.46059134    0.90170189    0.60853817
     atom   72 type  1   force =     0.46059379    0.90170666    0.60853930
     atom   73 type  1   force =    -1.81427451    1.18902023    0.50398785
     atom   74 type  1   force =    -1.81427648    1.18902254    0.50398875
     atom   75 type  1   force =    -1.81425109    1.18900774    0.50397294
     atom   76 type  1   force =    -1.81427891    1.18902640    0.50399042
     atom   77 type  1   force =    -1.81425724    1.18900891    0.50398543
     atom   78 type  1   force =    -1.81427692    1.18902297    0.50398932
     atom   79 type  1   force =    -1.81427636    1.18902017    0.50398773
     atom   80 type  1   force =    -1.81427676    1.18902146    0.50398788
     atom   81 type  2   force =    -0.12228778    0.00072019    0.01060933
     atom   82 type  2   force =    -0.12228650    0.00072393    0.01060815
     atom   83 type  2   force =    -0.12228494    0.00072078    0.01060835
     atom   84 type  2   force =    -0.12228456    0.00072334    0.01060984
     atom   85 type  2   force =    -0.12222584    0.00076898    0.01078702
     atom   86 type  2   force =    -0.12228766    0.00072186    0.01060888
     atom   87 type  2   force =    -0.12228668    0.00072026    0.01060913
     atom   88 type  2   force =    -0.12228656    0.00072225    0.01060890
     atom   89 type  3   force =    -0.04392400   -0.06010583    0.00989224
     atom   90 type  3   force =    -0.04392401   -0.06010592    0.00989235
     atom   91 type  3   force =    -0.04392396   -0.06010584    0.00989238
     atom   92 type  3   force =    -0.04392396   -0.06010591    0.00989227
     atom   93 type  3   force =    -0.04392401   -0.06010588    0.00989230
     atom   94 type  3   force =    -0.04392317   -0.06010610    0.00988861
     atom   95 type  3   force =    -0.04392400   -0.06010587    0.00989229
     atom   96 type  3   force =    -0.04392400   -0.06010591    0.00989232
     atom   97 type  1   force =     0.67099802   -1.73657339    0.15449693
     atom   98 type  1   force =     0.67099762   -1.73657917    0.15449919
     atom   99 type  1   force =     0.67100072   -1.73657595    0.15450065
     atom  100 type  1   force =     0.67100182   -1.73657942    0.15449820
     atom  101 type  1   force =     0.67099632   -1.73657553    0.15449854
     atom  102 type  1   force =     0.67088296   -1.73637271    0.15478419
     atom  103 type  1   force =     0.67099826   -1.73657602    0.15449820
     atom  104 type  1   force =     0.67099949   -1.73658009    0.15449889
     atom  105 type  2   force =    -0.02515967    0.04114363   -0.00107404
     atom  106 type  2   force =    -0.02522030    0.04109303   -0.00104250
     atom  107 type  2   force =    -0.02521710    0.04109243   -0.00104203
     atom  108 type  2   force =    -0.02521731    0.04109325   -0.00104302
     atom  109 type  2   force =    -0.02522206    0.04108979   -0.00104300
     atom  110 type  2   force =    -0.02522311    0.04109808   -0.00104318
     atom  111 type  2   force =    -0.02521849    0.04109103   -0.00104339
     atom  112 type  2   force =    -0.02521813    0.04109306   -0.00104233
     atom  113 type  3   force =     0.05184090    0.05537477   -0.00567475
     atom  114 type  3   force =     0.05071358    0.05410625   -0.00605700
     atom  115 type  3   force =     0.05071363    0.05410619   -0.00605699
     atom  116 type  3   force =     0.05071363    0.05410626   -0.00605703
     atom  117 type  3   force =     0.05071360    0.05410620   -0.00605704
     atom  118 type  3   force =     0.05071362    0.05410629   -0.00605704
     atom  119 type  3   force =     0.05071368    0.05410624   -0.00605704
     atom  120 type  3   force =     0.05071368    0.05410631   -0.00605700
     atom  121 type  1   force =    -0.42450732    0.94527631   -0.55499796
     atom  122 type  1   force =    -0.42450326    0.94527235   -0.55499627
     atom  123 type  1   force =    -0.42450284    0.94526322   -0.55498547
     atom  124 type  1   force =    -0.42450560    0.94527138   -0.55499828
     atom  125 type  1   force =    -0.42450331    0.94527343   -0.55499714
     atom  126 type  1   force =    -0.42450189    0.94528083   -0.55499750
     atom  127 type  1   force =    -0.42450574    0.94527662   -0.55499983
     atom  128 type  1   force =    -0.42450463    0.94527395   -0.55499782
     atom  129 type  1   force =     1.90170031    0.92018612   -0.83651115
     atom  130 type  1   force =     1.90170053    0.92018314   -0.83651207
     atom  131 type  1   force =     1.90169565    0.92017917   -0.83650749
     atom  132 type  1   force =     1.90169970    0.92018421   -0.83651242
     atom  133 type  1   force =     1.90170117    0.92018334   -0.83651261
     atom  134 type  1   force =     1.90171372    0.92019421   -0.83651828
     atom  135 type  1   force =     1.90170189    0.92018619   -0.83651390
     atom  136 type  1   force =     1.90170054    0.92018381   -0.83651253
     atom  137 type  2   force =    -0.20917373    0.04486528    0.00802012
     atom  138 type  2   force =    -0.20917135    0.04486635    0.00802116
     atom  139 type  2   force =    -0.20917567    0.04486539    0.00802190
     atom  140 type  2   force =    -0.20917512    0.04486603    0.00801971
     atom  141 type  2   force =    -0.20917061    0.04486628    0.00802082
     atom  142 type  2   force =    -0.20916914    0.04486761    0.00802050
     atom  143 type  2   force =    -0.20917717    0.04485989    0.00802034
     atom  144 type  2   force =    -0.20917244    0.04486702    0.00802070
     atom  145 type  2   force =    -0.18058082    0.00954509    0.01138335
     atom  146 type  2   force =    -0.18057840    0.00954343    0.01138322
     atom  147 type  2   force =    -0.18058294    0.00954128    0.01138464
     atom  148 type  2   force =    -0.18058181    0.00954410    0.01138287
     atom  149 type  2   force =    -0.18057736    0.00954335    0.01138323
     atom  150 type  2   force =    -0.18057563    0.00954560    0.01138092
     atom  151 type  2   force =    -0.18058094    0.00954504    0.01138175
     atom  152 type  2   force =    -0.18057957    0.00954374    0.01138295
     atom  153 type  2   force =    -0.03833777   -0.04943398   -0.02158953
     atom  154 type  2   force =    -0.03833801   -0.04943083   -0.02158972
     atom  155 type  2   force =    -0.03834471   -0.04944768   -0.02160158
     atom  156 type  2   force =    -0.03834078   -0.04943037   -0.02158888
     atom  157 type  2   force =    -0.03833829   -0.04943756   -0.02159012
     atom  158 type  2   force =    -0.03833895   -0.04943252   -0.02158887
     atom  159 type  2   force =    -0.03834112   -0.04943593   -0.02158894
     atom  160 type  2   force =    -0.03834373   -0.04943100   -0.02158986
     atom  161 type  3   force =     0.02448913   -0.07095368   -0.00853847
     atom  162 type  3   force =     0.02448912   -0.07095360   -0.00853848
     atom  163 type  3   force =     0.02448860   -0.07095410   -0.00853927
     atom  164 type  3   force =     0.02448908   -0.07095358   -0.00853845
     atom  165 type  3   force =     0.02448914   -0.07095377   -0.00853850
     atom  166 type  3   force =     0.02448911   -0.07095364   -0.00853845
     atom  167 type  3   force =     0.02448908   -0.07095372   -0.00853848
     atom  168 type  3   force =     0.02448905   -0.07095360   -0.00853849
     atom  169 type  2   force =    -0.19564547   -0.10407796   -0.02182869
     atom  170 type  2   force =    -0.19564792   -0.10406702   -0.02183137
     atom  171 type  2   force =    -0.19564230   -0.10406813   -0.02183076
     atom  172 type  2   force =    -0.19564293   -0.10406725   -0.02183123
     atom  173 type  2   force =    -0.19564876   -0.10406825   -0.02183159
     atom  174 type  2   force =    -0.19567188   -0.10405989   -0.02183118
     atom  175 type  2   force =    -0.19564528   -0.10406857   -0.02183166
     atom  176 type  2   force =    -0.19564485   -0.10406782   -0.02183121
     atom  177 type  3   force =    -0.07447305    0.02094787   -0.00102143
     atom  178 type  3   force =    -0.07447325    0.02094779   -0.00102128
     atom  179 type  3   force =    -0.07447312    0.02094778   -0.00102124
     atom  180 type  3   force =    -0.07447314    0.02094777   -0.00102132
     atom  181 type  3   force =    -0.07447328    0.02094779   -0.00102130
     atom  182 type  3   force =    -0.07447356    0.02094840   -0.00102129
     atom  183 type  3   force =    -0.07447319    0.02094778   -0.00102132
     atom  184 type  3   force =    -0.07447318    0.02094777   -0.00102129
     atom  185 type  1   force =    -0.46060259   -0.90171237    0.60854014
     atom  186 type  1   force =    -0.46059393   -0.90170692    0.60854204
     atom  187 type  1   force =    -0.46059861   -0.90171498    0.60854607
     atom  188 type  1   force =    -0.46059511   -0.90170431    0.60853788
     atom  189 type  1   force =    -0.46059336   -0.90170803    0.60854033
     atom  190 type  1   force =    -0.46058930   -0.90169903    0.60853359
     atom  191 type  1   force =    -0.46059152   -0.90169803    0.60853115
     atom  192 type  1   force =    -0.46059321   -0.90170382    0.60853966
     atom  193 type  1   force =     1.81426320   -1.18901616    0.50398191
     atom  194 type  1   force =     1.81427594   -1.18902132    0.50398893
     atom  195 type  1   force =     1.81427798   -1.18902693    0.50399031
     atom  196 type  1   force =     1.81427494   -1.18902084    0.50398797
     atom  197 type  1   force =     1.81427655   -1.18902209    0.50398861
     atom  198 type  1   force =     1.81427374   -1.18901641    0.50398404
     atom  199 type  1   force =     1.81427712   -1.18901997    0.50398735
     atom  200 type  1   force =     1.81427584   -1.18902103    0.50398865
     atom  201 type  2   force =     0.12228664   -0.00072213    0.01060865
     atom  202 type  2   force =     0.12228730   -0.00072168    0.01060918
     atom  203 type  2   force =     0.12228452   -0.00072218    0.01060966
     atom  204 type  2   force =     0.12227793   -0.00072687    0.01060655
     atom  205 type  2   force =     0.12228844   -0.00072080    0.01060922
     atom  206 type  2   force =     0.12229127   -0.00071739    0.01060924
     atom  207 type  2   force =     0.12228627   -0.00072227    0.01061110
     atom  208 type  2   force =     0.12228610   -0.00072148    0.01060874
     atom  209 type  3   force =     0.04392398    0.06010588    0.00989229
     atom  210 type  3   force =     0.04392402    0.06010588    0.00989233
     atom  211 type  3   force =     0.04392395    0.06010588    0.00989237
     atom  212 type  3   force =     0.04392389    0.06010569    0.00989216
     atom  213 type  3   force =     0.04392402    0.06010591    0.00989232
     atom  214 type  3   force =     0.04392413    0.06010603    0.00989227
     atom  215 type  3   force =     0.04392398    0.06010590    0.00989224
     atom  216 type  3   force =     0.04392399    0.06010588    0.00989230
     atom  217 type  1   force =    -0.67099832    1.73657673    0.15449832
     atom  218 type  1   force =    -0.67099730    1.73657620    0.15449885
     atom  219 type  1   force =    -0.67100130    1.73657825    0.15450003
     atom  220 type  1   force =    -0.67101328    1.73658274    0.15449806
     atom  221 type  1   force =    -0.67099630    1.73657773    0.15449947
     atom  222 type  1   force =    -0.67099453    1.73657777    0.15449817
     atom  223 type  1   force =    -0.67099192    1.73658116    0.15450045
     atom  224 type  1   force =    -0.67099963    1.73657845    0.15449857
     atom  225 type  2   force =     0.03302549   -0.03229716   -0.00257964
     atom  226 type  2   force =     0.02521792   -0.04109162   -0.00104257
     atom  227 type  2   force =     0.02522001   -0.04109398   -0.00104230
     atom  228 type  2   force =     0.02521971   -0.04109127   -0.00104312
     atom  229 type  2   force =     0.02521852   -0.04109333   -0.00104328
     atom  230 type  2   force =     0.02521923   -0.04109009   -0.00104343
     atom  231 type  2   force =     0.02522188   -0.04109158   -0.00104355
     atom  232 type  2   force =     0.02522163   -0.04108970   -0.00104199
     atom  233 type  3   force =    -0.05071228   -0.05411039   -0.00606144
     atom  234 type  3   force =    -0.05071364   -0.05410621   -0.00605700
     atom  235 type  3   force =    -0.05071355   -0.05410623   -0.00605698
     atom  236 type  3   force =    -0.05071357   -0.05410619   -0.00605702
     atom  237 type  3   force =    -0.05071368   -0.05410631   -0.00605704
     atom  238 type  3   force =    -0.05071363   -0.05410617   -0.00605703
     atom  239 type  3   force =    -0.05071360   -0.05410625   -0.00605704
     atom  240 type  3   force =    -0.05071359   -0.05410620   -0.00605700
     atom  241 type  1   force =    -0.94527207   -0.42450494    0.55499681
     atom  242 type  1   force =    -0.94527299   -0.42450365    0.55499766
     atom  243 type  1   force =    -0.94526300   -0.42449277    0.55502154
     atom  244 type  1   force =    -0.94527527   -0.42450369    0.55499729
     atom  245 type  1   force =    -0.94527194   -0.42450521    0.55499732
     atom  246 type  1   force =    -0.94527536   -0.42450295    0.55500462
     atom  247 type  1   force =    -0.94527558   -0.42450540    0.55499862
     atom  248 type  1   force =    -0.94527573   -0.42450507    0.55499783
     atom  249 type  1   force =    -0.92018327    1.90170071    0.83651212
     atom  250 type  1   force =    -0.92018346    1.90170091    0.83651248
     atom  251 type  1   force =    -0.92018546    1.90171474    0.83651761
     atom  252 type  1   force =    -0.92018448    1.90170220    0.83651234
     atom  253 type  1   force =    -0.92018355    1.90170012    0.83651280
     atom  254 type  1   force =    -0.92018855    1.90170923    0.83651904
     atom  255 type  1   force =    -0.92018493    1.90170136    0.83651301
     atom  256 type  1   force =    -0.92018287    1.90169872    0.83651154
     atom  257 type  2   force =    -0.04486477   -0.20917449   -0.00802084
     atom  258 type  2   force =    -0.04486605   -0.20917077   -0.00802014
     atom  259 type  2   force =    -0.04484518   -0.20917150   -0.00800990
     atom  260 type  2   force =    -0.04486668   -0.20917145   -0.00802002
     atom  261 type  2   force =    -0.04486518   -0.20917342   -0.00802147
     atom  262 type  2   force =    -0.04486560   -0.20916829   -0.00801904
     atom  263 type  2   force =    -0.04486702   -0.20917333   -0.00802060
     atom  264 type  2   force =    -0.04486569   -0.20917098   -0.00802033
     atom  265 type  2   force =    -0.00954372   -0.18058159   -0.01138343
     atom  266 type  2   force =    -0.00954352   -0.18057791   -0.01138304
     atom  267 type  2   force =    -0.00953777   -0.18056664   -0.01137993
     atom  268 type  2   force =    -0.00954389   -0.18057836   -0.01138275
     atom  269 type  2   force =    -0.00954368   -0.18058117   -0.01138316
     atom  270 type  2   force =    -0.00954531   -0.18057509   -0.01138132
     atom  271 type  2   force =    -0.00954463   -0.18058054   -0.01138271
     atom  272 type  2   force =    -0.00954372   -0.18057827   -0.01138303
     atom  273 type  2   force =     0.04943480   -0.03834227    0.02158944
     atom  274 type  2   force =     0.04943285   -0.03833821    0.02158993
     atom  275 type  2   force =     0.04945113   -0.03834326    0.02159166
     atom  276 type  2   force =     0.04943348   -0.03833886    0.02159045
     atom  277 type  2   force =     0.04943178   -0.03834105    0.02158747
     atom  278 type  2   force =     0.04943310   -0.03833732    0.02159093
     atom  279 type  2   force =     0.04943277   -0.03834035    0.02158955
     atom  280 type  2   force =     0.04943409   -0.03833799    0.02158992
     atom  281 type  3   force =     0.07095369    0.02448903    0.00853850
     atom  282 type  3   force =     0.07095365    0.02448913    0.00853849
     atom  283 type  3   force =     0.07095401    0.02448910    0.00853851
     atom  284 type  3   force =     0.07095366    0.02448911    0.00853852
     atom  285 type  3   force =     0.07095360    0.02448905    0.00853839
     atom  286 type  3   force =     0.07095364    0.02448915    0.00853853
     atom  287 type  3   force =     0.07095364    0.02448908    0.00853849
     atom  288 type  3   force =     0.07095368    0.02448913    0.00853849
     atom  289 type  2   force =     0.10406956   -0.19564800    0.02183155
     atom  290 type  2   force =     0.10406758   -0.19564513    0.02183151
     atom  291 type  2   force =     0.10407295   -0.19567048    0.02183246
     atom  292 type  2   force =     0.10406744   -0.19564508    0.02183186
     atom  293 type  2   force =     0.10406902   -0.19564606    0.02183125
     atom  294 type  2   force =     0.10406839   -0.19564329    0.02183159
     atom  295 type  2   force =     0.10406689   -0.19564703    0.02183154
     atom  296 type  2   force =     0.10406952   -0.19564055    0.02183128
     atom  297 type  3   force =    -0.02094776   -0.07447326    0.00102134
     atom  298 type  3   force =    -0.02094777   -0.07447318    0.00102132
     atom  299 type  3   force =    -0.02094789   -0.07447357    0.00102122
     atom  300 type  3   force =    -0.02094779   -0.07447318    0.00102134
     atom  301 type  3   force =    -0.02094776   -0.07447320    0.00102130
     atom  302 type  3   force =    -0.02094776   -0.07447315    0.00102134
     atom  303 type  3   force =    -0.02094783   -0.07447322    0.00102131
     atom  304 type  3   force =    -0.02094774   -0.07447307    0.00102129
     atom  305 type  1   force =     0.90170562   -0.46059533   -0.60853892
     atom  306 type  1   force =     0.90170710   -0.46059399   -0.60854063
     atom  307 type  1   force =     0.90173102   -0.46059158   -0.60854896
     atom  308 type  1   force =     0.90170523   -0.46059284   -0.60853707
     atom  309 type  1   force =     0.90170531   -0.46059684   -0.60854374
     atom  310 type  1   force =     0.90169977   -0.46058954   -0.60853351
     atom  311 type  1   force =     0.90170357   -0.46059471   -0.60853693
     atom  312 type  1   force =     0.90170716   -0.46059533   -0.60854073
     atom  313 type  1   force =     1.18902123    1.81427505   -0.50398783
     atom  314 type  1   force =     1.18902275    1.81427794   -0.50398912
     atom  315 type  1   force =     1.18903370    1.81429265   -0.50399439
     atom  316 type  1   force =     1.18902158    1.81427704   -0.50398768
     atom  317 type  1   force =     1.18901931    1.81427163   -0.50398762
     atom  318 type  1   force =     1.18901850    1.81427694   -0.50398712
     atom  319 type  1   force =     1.18901979    1.81427414   -0.50398689
     atom  320 type  1   force =     1.18902004    1.81427409   -0.50398790
     atom  321 type  2   force =     0.00072333    0.12228488   -0.01060891
     atom  322 type  2   force =     0.00072200    0.12228789   -0.01060871
     atom  323 type  2   force =     0.00078530    0.12223104   -0.01057953
     atom  324 type  2   force =     0.00072055    0.12228770   -0.01060875
     atom  325 type  2   force =     0.00072360    0.12228592   -0.01060884
     atom  326 type  2   force =     0.00072298    0.12228830   -0.01060811
     atom  327 type  2   force =     0.00072097    0.12228585   -0.01060899
     atom  328 type  2   force =     0.00072119    0.12228935   -0.01060884
     atom  329 type  3   force =    -0.06010584    0.04392395   -0.00989228
     atom  330 type  3   force =    -0.06010588    0.04392402   -0.00989229
     atom  331 type  3   force =    -0.06010491    0.04392215   -0.00988895
     atom  332 type  3   force =    -0.06010592    0.04392402   -0.00989228
     atom  333 type  3   force =    -0.06010582    0.04392397   -0.00989231
     atom  334 type  3   force =    -0.06010586    0.04392404   -0.00989224
     atom  335 type  3   force =    -0.06010591    0.04392398   -0.00989230
     atom  336 type  3   force =    -0.06010591    0.04392404   -0.00989230
     atom  337 type  1   force =    -1.73657505   -0.67099997   -0.15449845
     atom  338 type  1   force =    -1.73657671   -0.67099714   -0.15449801
     atom  339 type  1   force =    -1.73660172   -0.67104390   -0.15451037
     atom  340 type  1   force =    -1.73657843   -0.67099776   -0.15449787
     atom  341 type  1   force =    -1.73657431   -0.67099839   -0.15449860
     atom  342 type  1   force =    -1.73657339   -0.67099526   -0.15449682
     atom  343 type  1   force =    -1.73658155   -0.67100046   -0.15449871
     atom  344 type  1   force =    -1.73657472   -0.67099454   -0.15449856
     atom  345 type  2   force =     0.04107932    0.02522729    0.00105705
     atom  346 type  2   force =     0.04108740    0.02522432    0.00104371
     atom  347 type  2   force =     0.04109619    0.02521586    0.00104279
     atom  348 type  2   force =     0.04109249    0.02521989    0.00104413
     atom  349 type  2   force =     0.04108937    0.02522006    0.00104035
     atom  350 type  2   force =     0.04109111    0.02521991    0.00104348
     atom  351 type  2   force =     0.04109380    0.02521817    0.00104392
     atom  352 type  2   force =     0.04109265    0.02522060    0.00104325
     atom  353 type  3   force =     0.05410654   -0.05071374    0.00605721
     atom  354 type  3   force =     0.05410616   -0.05071357    0.00605703
     atom  355 type  3   force =     0.05410655   -0.05071391    0.00605707
     atom  356 type  3   force =     0.05410623   -0.05071360    0.00605706
     atom  357 type  3   force =     0.05410629   -0.05071364    0.00605698
     atom  358 type  3   force =     0.05410621   -0.05071357    0.00605704
     atom  359 type  3   force =     0.05410625   -0.05071363    0.00605703
     atom  360 type  3   force =     0.05410625   -0.05071356    0.00605702
     atom  361 type  1   force =     0.94527523    0.42450404    0.55499852
     atom  362 type  1   force =     0.94527579    0.42450466    0.55499891
     atom  363 type  1   force =     0.94524599    0.42449880    0.55502461
     atom  364 type  1   force =     0.94526809    0.42450538    0.55499434
     atom  365 type  1   force =     0.94527874    0.42450642    0.55500088
     atom  366 type  1   force =     0.94528355    0.42450870    0.55500508
     atom  367 type  1   force =     0.94527188    0.42450268    0.55499668
     atom  368 type  1   force =     0.94527115    0.42450592    0.55499618
     atom  369 type  1   force =     0.92017241   -1.90170256    0.83651759
     atom  370 type  1   force =     0.92018213   -1.90169885    0.83651134
     atom  371 type  1   force =     0.92018488   -1.90170279    0.83651313
     atom  372 type  1   force =     0.92018486   -1.90170135    0.83651335
     atom  373 type  1   force =     0.92018444   -1.90170319    0.83651312
     atom  374 type  1   force =     0.92018165   -1.90169753    0.83651097
     atom  375 type  1   force =     0.92018659   -1.90170264    0.83651486
     atom  376 type  1   force =     0.92018628   -1.90169999    0.83651341
     atom  377 type  2   force =     0.04485919    0.20917921   -0.00801676
     atom  378 type  2   force =     0.04486282    0.20917824   -0.00802127
     atom  379 type  2   force =     0.04486674    0.20917186   -0.00801994
     atom  380 type  2   force =     0.04486710    0.20917104   -0.00802047
     atom  381 type  2   force =     0.04486581    0.20917153   -0.00802032
     atom  382 type  2   force =     0.04486485    0.20917432   -0.00802111
     atom  383 type  2   force =     0.04486738    0.20917307   -0.00802048
     atom  384 type  2   force =     0.04486804    0.20917283   -0.00801922
     atom  385 type  2   force =     0.00953548    0.18058120   -0.01138258
     atom  386 type  2   force =     0.00954374    0.18058457   -0.01138407
     atom  387 type  2   force =     0.00954411    0.18057883   -0.01138273
     atom  388 type  2   force =     0.00954435    0.18057841   -0.01138259
     atom  389 type  2   force =     0.00954375    0.18057845   -0.01138297
     atom  390 type  2   force =     0.00954347    0.18058191   -0.01138386
     atom  391 type  2   force =     0.00954513    0.18058082   -0.01138199
     atom  392 type  2   force =     0.00954593    0.18058015   -0.01138170
     atom  393 type  2   force =    -0.04944167    0.03834253    0.02158975
     atom  394 type  2   force =    -0.04943551    0.03834616    0.02159265
     atom  395 type  2   force =    -0.04943247    0.03833980    0.02159040
     atom  396 type  2   force =    -0.04943189    0.03833797    0.02158967
     atom  397 type  2   force =    -0.04943326    0.03833943    0.02158981
     atom  398 type  2   force =    -0.04943330    0.03834079    0.02158831
     atom  399 type  2   force =    -0.04942898    0.03834147    0.02158922
     atom  400 type  2   force =    -0.04943099    0.03833949    0.02159038
     atom  401 type  3   force =    -0.07095383   -0.02448909    0.00853848
     atom  402 type  3   force =    -0.07095365   -0.02448897    0.00853854
     atom  403 type  3   force =    -0.07095364   -0.02448910    0.00853851
     atom  404 type  3   force =    -0.07095362   -0.02448914    0.00853848
     atom  405 type  3   force =    -0.07095366   -0.02448910    0.00853849
     atom  406 type  3   force =    -0.07095364   -0.02448908    0.00853845
     atom  407 type  3   force =    -0.07095354   -0.02448905    0.00853848
     atom  408 type  3   force =    -0.07095360   -0.02448909    0.00853850
     atom  409 type  2   force =    -0.10407485    0.19564288    0.02183238
     atom  410 type  2   force =    -0.10407067    0.19565509    0.02183188
     atom  411 type  2   force =    -0.10406626    0.19564530    0.02183141
     atom  412 type  2   force =    -0.10406692    0.19564728    0.02183210
     atom  413 type  2   force =    -0.10407181    0.19564240    0.02182891
     atom  414 type  2   force =    -0.10406812    0.19564639    0.02183169
     atom  415 type  2   force =    -0.10406711    0.19564364    0.02183192
     atom  416 type  2   force =    -0.10406697    0.19564731    0.02183174
     atom  417 type  3   force =     0.02094767    0.07447312    0.00102135
     atom  418 type  3   force =     0.02094779    0.07447337    0.00102130
     atom  419 type  3   force =     0.02094782    0.07447317    0.00102131
     atom  420 type  3   force =     0.02094781    0.07447324    0.00102135
     atom  421 type  3   force =     0.02094761    0.07447311    0.00102101
     atom  422 type  3   force =     0.02094777    0.07447322    0.00102133
     atom  423 type  3   force =     0.02094779    0.07447315    0.00102134
     atom  424 type  3   force =     0.02094780    0.07447323    0.00102132
     atom  425 type  1   force =    -0.90173903    0.46059866   -0.60855975
     atom  426 type  1   force =    -0.90170626    0.46059694   -0.60853847
     atom  427 type  1   force =    -0.90170349    0.46059260   -0.60853632
     atom  428 type  1   force =    -0.90170512    0.46059432   -0.60853921
     atom  429 type  1   force =    -0.90170557    0.46059293   -0.60853891
     atom  430 type  1   force =    -0.90170722    0.46059716   -0.60854144
     atom  431 type  1   force =    -0.90169655    0.46059289   -0.60853617
     atom  432 type  1   force =    -0.90170004    0.46059396   -0.60853431
     atom  433 type  1   force =    -1.18904396   -1.81430151   -0.50400184
     atom  434 type  1   force =    -1.18902136   -1.81427386   -0.50398749
     atom  435 type  1   force =    -1.18902126   -1.81427698   -0.50398784
     atom  436 type  1   force =    -1.18902011   -1.81427505   -0.50398767
     atom  437 type  1   force =    -1.18902416   -1.81427997   -0.50398901
     atom  438 type  1   force =    -1.18902063   -1.81427298   -0.50398795
     atom  439 type  1   force =    -1.18901618   -1.81427156   -0.50398645
     atom  440 type  1   force =    -1.18901688   -1.81427185   -0.50398557
     atom  441 type  2   force =    -0.00073839   -0.12227056   -0.01060258
     atom  442 type  2   force =    -0.00072586   -0.12228336   -0.01060844
     atom  443 type  2   force =    -0.00072113   -0.12228658   -0.01060863
     atom  444 type  2   force =    -0.00072063   -0.12228816   -0.01060908
     atom  445 type  2   force =    -0.00072256   -0.12228667   -0.01060856
     atom  446 type  2   force =    -0.00072362   -0.12228650   -0.01060823
     atom  447 type  2   force =    -0.00072034   -0.12228684   -0.01060882
     atom  448 type  2   force =    -0.00071970   -0.12228803   -0.01060779
     atom  449 type  3   force =     0.06010590   -0.04392400   -0.00989228
     atom  450 type  3   force =     0.06010592   -0.04392402   -0.00989231
     atom  451 type  3   force =     0.06010569   -0.04392317   -0.00989178
     atom  452 type  3   force =     0.06010575   -0.04392390   -0.00989228
     atom  453 type  3   force =     0.06010592   -0.04392400   -0.00989230
     atom  454 type  3   force =     0.06010596   -0.04392402   -0.00989222
     atom  455 type  3   force =     0.06010587   -0.04392400   -0.00989228
     atom  456 type  3   force =     0.06010582   -0.04392397   -0.00989234
     atom  457 type  1   force =     1.73657932    0.67099946   -0.15449769
     atom  458 type  1   force =     1.73658068    0.67099799   -0.15449869
     atom  459 type  1   force =     1.73657761    0.67101279   -0.15450043
     atom  460 type  1   force =     1.73656522    0.67099733   -0.15449825
     atom  461 type  1   force =     1.73657955    0.67099942   -0.15449830
     atom  462 type  1   force =     1.73657937    0.67099682   -0.15449630
     atom  463 type  1   force =     1.73657535    0.67099795   -0.15449772
     atom  464 type  1   force =     1.73656725    0.67099589   -0.15450193
     atom  465 type  2   force =    -0.04108465   -0.02522497    0.00104583
     atom  466 type  2   force =    -0.04109356   -0.02521725    0.00104314
     atom  467 type  2   force =    -0.04108496   -0.02522996    0.00104503
     atom  468 type  2   force =    -0.04109243   -0.02521873    0.00104389
     atom  469 type  2   force =    -0.04109007   -0.02522039    0.00104165
     atom  470 type  2   force =    -0.04109249   -0.02521705    0.00104377
     atom  471 type  2   force =    -0.04109239   -0.02522032    0.00104315
     atom  472 type  2   force =    -0.04109109   -0.02521730    0.00104300
     atom  473 type  3   force =    -0.05410653    0.05071373    0.00605761
     atom  474 type  3   force =    -0.05410638    0.05071374    0.00605705
     atom  475 type  3   force =    -0.05410608    0.05071352    0.00605702
     atom  476 type  3   force =    -0.05410623    0.05071363    0.00605706
     atom  477 type  3   force =    -0.05410626    0.05071365    0.00605687
     atom  478 type  3   force =    -0.05410626    0.05071364    0.00605704
     atom  479 type  3   force =    -0.05410619    0.05071357    0.00605704
     atom  480 type  3   force =    -0.05410623    0.05071365    0.00605704
     atom  481 type  4   force =     0.00000243    0.00000389   -0.00000221
     atom  482 type  4   force =     0.00000317   -0.00000198    0.00000446
     atom  483 type  4   force =    -0.00000982    0.00000797    0.00006059
     atom  484 type  4   force =    -0.00000704   -0.00001275   -0.00001329
     atom  485 type  4   force =     0.00000727    0.00000249    0.00000445
     atom  486 type  4   force =     0.00000552    0.00003474    0.00002811
     atom  487 type  4   force =    -0.00000377    0.00000138   -0.00000339
     atom  488 type  4   force =    -0.00000458   -0.00000145   -0.00000222
     atom  489 type  4   force =    -0.00000038   -0.00000483    0.00000195
     atom  490 type  4   force =     0.00000164    0.00001485   -0.00000662
     atom  491 type  4   force =     0.00004264    0.00000377   -0.00003065
     atom  492 type  4   force =     0.00000645    0.00001078    0.00001469
     atom  493 type  4   force =    -0.00004019   -0.00005053   -0.00006146
     atom  494 type  4   force =    -0.00000617    0.00000689    0.00001446
     atom  495 type  4   force =    -0.00000168   -0.00001536    0.00001108
     atom  496 type  4   force =     0.00000260    0.00000166   -0.00000356
     The ionic contribution  to forces
     atom    1 type  1   force =    -0.12038077   -1.15060934   -2.54595848
     atom    2 type  1   force =    -0.12038249   -1.15058972   -2.54606527
     atom    3 type  1   force =    -0.12039347   -1.15070790   -2.54601772
     atom    4 type  1   force =    -0.12029186   -1.15077768   -2.54587016
     atom    5 type  1   force =    -0.12035560   -1.15063860   -2.54596130
     atom    6 type  1   force =    -0.12017865   -1.15058223   -2.54584300
     atom    7 type  1   force =    -0.12033758   -1.15056864   -2.54596203
     atom    8 type  1   force =    -0.12036067   -1.15057620   -2.54600354
     atom    9 type  1   force =    14.27341750    1.63977866    2.01250124
     atom   10 type  1   force =    14.27345204    1.63975586    2.01257545
     atom   11 type  1   force =    14.27358569    1.63937317    2.01281762
     atom   12 type  1   force =    14.27345469    1.63966726    2.01252816
     atom   13 type  1   force =    14.27357961    1.63974839    2.01264244
     atom   14 type  1   force =    14.27345601    1.63973153    2.01259152
     atom   15 type  1   force =    14.27347885    1.63980038    2.01252431
     atom   16 type  1   force =    14.27347101    1.63980840    2.01258734
     atom   17 type  2   force =    -2.68733284   -1.12160408   -0.87828625
     atom   18 type  2   force =    -2.68737796   -1.12162642   -0.87817698
     atom   19 type  2   force =    -2.68731446   -1.12169208   -0.87815666
     atom   20 type  2   force =    -2.68738275   -1.12168378   -0.87818767
     atom   21 type  2   force =    -2.68650119   -1.12133175   -0.87784395
     atom   22 type  2   force =    -2.68734973   -1.12168031   -0.87819841
     atom   23 type  2   force =    -2.68738118   -1.12162937   -0.87821226
     atom   24 type  2   force =    -2.68734897   -1.12163659   -0.87819441
     atom   25 type  2   force =    -5.25570729   -0.26027290   -0.96595257
     atom   26 type  2   force =    -5.25571608   -0.26030310   -0.96585494
     atom   27 type  2   force =    -5.25563526   -0.26040250   -0.96578986
     atom   28 type  2   force =    -5.25572371   -0.26036197   -0.96587228
     atom   29 type  2   force =    -5.25538034   -0.26028943   -0.96571621
     atom   30 type  2   force =    -5.25570277   -0.26034272   -0.96586060
     atom   31 type  2   force =    -5.25571279   -0.26028693   -0.96589403
     atom   32 type  2   force =    -5.25569498   -0.26029417   -0.96586031
     atom   33 type  2   force =    -3.27541224   -5.22878872    2.50354668
     atom   34 type  2   force =    -3.27857839   -5.22873751    2.50205864
     atom   35 type  2   force =    -3.27862526   -5.22867516    2.50204774
     atom   36 type  2   force =    -3.27858444   -5.22868911    2.50206449
     atom   37 type  2   force =    -3.27855338   -5.22864827    2.50200033
     atom   38 type  2   force =    -3.27860356   -5.22866201    2.50208554
     atom   39 type  2   force =    -3.27853767   -5.22872221    2.50209758
     atom   40 type  2   force =    -3.27860633   -5.22871847    2.50209101
     atom   41 type  3   force =    -0.74049651   -2.14467865    1.26096725
     atom   42 type  3   force =    -0.74072700   -2.14441586    1.26069715
     atom   43 type  3   force =    -0.74073940   -2.14439786    1.26069280
     atom   44 type  3   force =    -0.74072856   -2.14440272    1.26070009
     atom   45 type  3   force =    -0.74072135   -2.14439285    1.26068706
     atom   46 type  3   force =    -0.74073106   -2.14439465    1.26070496
     atom   47 type  3   force =    -0.74071229   -2.14440923    1.26070898
     atom   48 type  3   force =    -0.74073229   -2.14440879    1.26070683
     atom   49 type  2   force =    -6.17689787   -1.54522079    0.63459128
     atom   50 type  2   force =    -6.17629700   -1.54849199    0.63329893
     atom   51 type  2   force =    -6.17636120   -1.54844575    0.63331059
     atom   52 type  2   force =    -6.17631125   -1.54845186    0.63331711
     atom   53 type  2   force =    -6.17626849   -1.54842020    0.63325434
     atom   54 type  2   force =    -6.17634276   -1.54840291    0.63335129
     atom   55 type  2   force =    -6.17628314   -1.54846833    0.63333743
     atom   56 type  2   force =    -6.17633882   -1.54847104    0.63334359
     atom   57 type  3   force =    -1.97484467    0.04622565    0.18354227
     atom   58 type  3   force =    -1.97452354    0.04600731    0.18330325
     atom   59 type  3   force =    -1.97454186    0.04601968    0.18330680
     atom   60 type  3   force =    -1.97452795    0.04601781    0.18331056
     atom   61 type  3   force =    -1.97451767    0.04602536    0.18329783
     atom   62 type  3   force =    -1.97453354    0.04603364    0.18331957
     atom   63 type  3   force =    -1.97451895    0.04601597    0.18331534
     atom   64 type  3   force =    -1.97453341    0.04601478    0.18331716
     atom   65 type  1   force =    -0.87361631    0.57404046    1.98636470
     atom   66 type  1   force =    -0.87359558    0.57399113    1.98645758
     atom   67 type  1   force =    -0.87344559    0.57383332    1.98663892
     atom   68 type  1   force =    -0.87360080    0.57392817    1.98644985
     atom   69 type  1   force =    -0.87330672    0.57390710    1.98654595
     atom   70 type  1   force =    -0.87360706    0.57393116    1.98646679
     atom   71 type  1   force =    -0.87359435    0.57401397    1.98640153
     atom   72 type  1   force =    -0.87359540    0.57399961    1.98646311
     atom   73 type  1   force =    14.19220580   -5.31465016    0.05307602
     atom   74 type  1   force =    14.19225003   -5.31468624    0.05314388
     atom   75 type  1   force =    14.19254588   -5.31508788    0.05355610
     atom   76 type  1   force =    14.19225035   -5.31475319    0.05312697
     atom   77 type  1   force =    14.19239321   -5.31472667    0.05320527
     atom   78 type  1   force =    14.19223699   -5.31472448    0.05316618
     atom   79 type  1   force =    14.19227070   -5.31464595    0.05308408
     atom   80 type  1   force =    14.19224796   -5.31465592    0.05315973
     atom   81 type  2   force =    -0.21533681    2.77185742   -3.53173443
     atom   82 type  2   force =    -0.21541204    2.77185459   -3.53159209
     atom   83 type  2   force =    -0.21535372    2.77179967   -3.53159992
     atom   84 type  2   force =    -0.21540892    2.77179777   -3.53162714
     atom   85 type  2   force =    -0.21494674    2.77237437   -3.53141016
     atom   86 type  2   force =    -0.21535988    2.77180849   -3.53163449
     atom   87 type  2   force =    -0.21539719    2.77183913   -3.53162974
     atom   88 type  2   force =    -0.21535949    2.77184175   -3.53162138
     atom   89 type  3   force =     0.26882349    1.65183112   -1.78765863
     atom   90 type  3   force =     0.26884130    1.65183131   -1.78770259
     atom   91 type  3   force =     0.26882499    1.65182116   -1.78767514
     atom   92 type  3   force =     0.26883613    1.65182186   -1.78766236
     atom   93 type  3   force =     0.26883803    1.65182705   -1.78767091
     atom   94 type  3   force =     0.26888456    1.65189454   -1.78764589
     atom   95 type  3   force =     0.26884080    1.65183414   -1.78766599
     atom   96 type  3   force =     0.26883161    1.65183096   -1.78766908
     atom   97 type  1   force =    -5.25699076    6.86280454   -1.77947101
     atom   98 type  1   force =    -5.25687159    6.86276727   -1.77963478
     atom   99 type  1   force =    -5.25697509    6.86271478   -1.77951491
     atom  100 type  1   force =    -5.25690658    6.86272087   -1.77950799
     atom  101 type  1   force =    -5.25690764    6.86271067   -1.77955401
     atom  102 type  1   force =    -5.25676536    6.86389922   -1.77913933
     atom  103 type  1   force =    -5.25692020    6.86274732   -1.77952610
     atom  104 type  1   force =    -5.25697855    6.86274587   -1.77952958
     atom  105 type  2   force =     5.12466722    4.86257278    1.84026457
     atom  106 type  2   force =     5.12459605    4.86159789    1.83969738
     atom  107 type  2   force =     5.12453585    4.86163336    1.83971603
     atom  108 type  2   force =     5.12458267    4.86163257    1.83971915
     atom  109 type  2   force =     5.12461552    4.86164907    1.83964408
     atom  110 type  2   force =     5.12452871    4.86168358    1.83975897
     atom  111 type  2   force =     5.12459688    4.86160909    1.83973614
     atom  112 type  2   force =     5.12453766    4.86160274    1.83973446
     atom  113 type  3   force =    -1.70657491   -1.94273106    0.70836342
     atom  114 type  3   force =    -1.67844911   -1.91360643    0.71620386
     atom  115 type  3   force =    -1.67846424   -1.91359130    0.71620386
     atom  116 type  3   force =    -1.67845220   -1.91359438    0.71620593
     atom  117 type  3   force =    -1.67844167   -1.91358386    0.71619273
     atom  118 type  3   force =    -1.67845703   -1.91358470    0.71621252
     atom  119 type  3   force =    -1.67844251   -1.91359922    0.71621252
     atom  120 type  3   force =    -1.67845680   -1.91359899    0.71621498
     atom  121 type  1   force =     0.12030829    1.15059369   -2.54590582
     atom  122 type  1   force =     0.12035295    1.15059083   -2.54606382
     atom  123 type  1   force =     0.12030142    1.15060041   -2.54612757
     atom  124 type  1   force =     0.12035417    1.15060113   -2.54594187
     atom  125 type  1   force =     0.12038612    1.15063735   -2.54598254
     atom  126 type  1   force =     0.12042647    1.15070877   -2.54591563
     atom  127 type  1   force =     0.12047349    1.15070544   -2.54594085
     atom  128 type  1   force =     0.12036859    1.15063452   -2.54596756
     atom  129 type  1   force =   -14.27359750   -1.63977705    2.01269897
     atom  130 type  1   force =   -14.27344254   -1.63978675    2.01248079
     atom  131 type  1   force =   -14.27353876   -1.63975292    2.01247258
     atom  132 type  1   force =   -14.27345436   -1.63975692    2.01258529
     atom  133 type  1   force =   -14.27342029   -1.63972599    2.01254514
     atom  134 type  1   force =   -14.27341423   -1.63963245    2.01263502
     atom  135 type  1   force =   -14.27336731   -1.63970422    2.01259562
     atom  136 type  1   force =   -14.27346065   -1.63973996    2.01258499
     atom  137 type  2   force =     2.68737707    1.12162420   -0.87816810
     atom  138 type  2   force =     2.68731545    1.12161531   -0.87822981
     atom  139 type  2   force =     2.68738174    1.12166510   -0.87830166
     atom  140 type  2   force =     2.68731778    1.12167405   -0.87815772
     atom  141 type  2   force =     2.68735413    1.12167165   -0.87819777
     atom  142 type  2   force =     2.68739611    1.12168558   -0.87818650
     atom  143 type  2   force =     2.68752837    1.12185866   -0.87805955
     atom  144 type  2   force =     2.68738354    1.12164971   -0.87820328
     atom  145 type  2   force =     5.25570506    0.26026695   -0.96581362
     atom  146 type  2   force =     5.25567723    0.26027234   -0.96592807
     atom  147 type  2   force =     5.25569267    0.26033193   -0.96597453
     atom  148 type  2   force =     5.25568485    0.26032350   -0.96584271
     atom  149 type  2   force =     5.25571187    0.26034284   -0.96587632
     atom  150 type  2   force =     5.25574443    0.26037118   -0.96584853
     atom  151 type  2   force =     5.25584225    0.26041362   -0.96579298
     atom  152 type  2   force =     5.25571781    0.26031968   -0.96586365
     atom  153 type  2   force =     3.27857338    5.22871971    2.50206141
     atom  154 type  2   force =     3.27861307    5.22871980    2.50206957
     atom  155 type  2   force =     3.27904151    5.22923264    2.50242184
     atom  156 type  2   force =     3.27861474    5.22868252    2.50205832
     atom  157 type  2   force =     3.27862441    5.22867422    2.50209331
     atom  158 type  2   force =     3.27856004    5.22867020    2.50207012
     atom  159 type  2   force =     3.27863042    5.22873370    2.50197372
     atom  160 type  2   force =     3.27856088    5.22873662    2.50209773
     atom  161 type  3   force =     0.74072472    2.14441155    1.26069695
     atom  162 type  3   force =     0.74073342    2.14440974    1.26070087
     atom  163 type  3   force =     0.74095502    2.14450830    1.26081164
     atom  164 type  3   force =     0.74073356    2.14439893    1.26069970
     atom  165 type  3   force =     0.74074157    2.14439668    1.26070951
     atom  166 type  3   force =     0.74072430    2.14439802    1.26070318
     atom  167 type  3   force =     0.74073790    2.14441723    1.26067881
     atom  168 type  3   force =     0.74072549    2.14441293    1.26070575
     atom  169 type  2   force =     6.17625319    1.54878710    0.63353271
     atom  170 type  2   force =     6.17636501    1.54844592    0.63328174
     atom  171 type  2   force =     6.17629452    1.54846253    0.63332279
     atom  172 type  2   force =     6.17634520    1.54846723    0.63332355
     atom  173 type  2   force =     6.17637016    1.54846525    0.63325502
     atom  174 type  2   force =     6.17625267    1.54857509    0.63339258
     atom  175 type  2   force =     6.17634701    1.54845415    0.63333076
     atom  176 type  2   force =     6.17628770    1.54844551    0.63332722
     atom  177 type  3   force =     1.97449396   -0.04596636    0.18335486
     atom  178 type  3   force =     1.97454204   -0.04602083    0.18329670
     atom  179 type  3   force =     1.97452110   -0.04601742    0.18331038
     atom  180 type  3   force =     1.97453476   -0.04601632    0.18331225
     atom  181 type  3   force =     1.97454145   -0.04601534    0.18329928
     atom  182 type  3   force =     1.97451918   -0.04597402    0.18333208
     atom  183 type  3   force =     1.97453745   -0.04601609    0.18331349
     atom  184 type  3   force =     1.97452386   -0.04601820    0.18331408
     atom  185 type  1   force =     0.87364206   -0.57412692    1.98656115
     atom  186 type  1   force =     0.87357282   -0.57405670    1.98638671
     atom  187 type  1   force =     0.87357311   -0.57393979    1.98636026
     atom  188 type  1   force =     0.87358205   -0.57395637    1.98646593
     atom  189 type  1   force =     0.87360700   -0.57392218    1.98642318
     atom  190 type  1   force =     0.87362981   -0.57390196    1.98646529
     atom  191 type  1   force =     0.87375126   -0.57392395    1.98655603
     atom  192 type  1   force =     0.87360672   -0.57397805    1.98646431
     atom  193 type  1   force =   -14.19234034    5.31448976    0.05336115
     atom  194 type  1   force =   -14.19223744    5.31462738    0.05306417
     atom  195 type  1   force =   -14.19230035    5.31471992    0.05306561
     atom  196 type  1   force =   -14.19225006    5.31470404    0.05315067
     atom  197 type  1   force =   -14.19221720    5.31474085    0.05310769
     atom  198 type  1   force =   -14.19222041    5.31479173    0.05317249
     atom  199 type  1   force =   -14.19214457    5.31472547    0.05319128
     atom  200 type  1   force =   -14.19224734    5.31469608    0.05316274
     atom  201 type  2   force =     0.21538833   -2.77183884   -3.53161095
     atom  202 type  2   force =     0.21531894   -2.77184776   -3.53167085
     atom  203 type  2   force =     0.21540426   -2.77183987   -3.53171413
     atom  204 type  2   force =     0.21528431   -2.77179909   -3.53155047
     atom  205 type  2   force =     0.21537106   -2.77181583   -3.53161803
     atom  206 type  2   force =     0.21542602   -2.77179770   -3.53161354
     atom  207 type  2   force =     0.21543789   -2.77166921   -3.53153369
     atom  208 type  2   force =     0.21541073   -2.77181929   -3.53164465
     atom  209 type  3   force =    -0.26883327   -1.65183078   -1.78766571
     atom  210 type  3   force =    -0.26884995   -1.65183050   -1.78768942
     atom  211 type  3   force =    -0.26883113   -1.65183583   -1.78768779
     atom  212 type  3   force =    -0.26885864   -1.65183332   -1.78764620
     atom  213 type  3   force =    -0.26883432   -1.65182669   -1.78766648
     atom  214 type  3   force =    -0.26881595   -1.65181912   -1.78766411
     atom  215 type  3   force =    -0.26882394   -1.65180496   -1.78765557
     atom  216 type  3   force =    -0.26882666   -1.65182456   -1.78767367
     atom  217 type  1   force =     5.25696062   -6.86274263   -1.77951792
     atom  218 type  1   force =     5.25687682   -6.86275146   -1.77954710
     atom  219 type  1   force =     5.25698997   -6.86275301   -1.77961393
     atom  220 type  1   force =     5.25675769   -6.86258983   -1.77938758
     atom  221 type  1   force =     5.25692143   -6.86273159   -1.77951457
     atom  222 type  1   force =     5.25698756   -6.86271924   -1.77951739
     atom  223 type  1   force =     5.25694378   -6.86251753   -1.77939708
     atom  224 type  1   force =     5.25699666   -6.86273031   -1.77957141
     atom  225 type  2   force =    -5.10530538   -4.83976609    1.84912522
     atom  226 type  2   force =    -5.12454524   -4.86165934    1.83970603
     atom  227 type  2   force =    -5.12460331   -4.86160169    1.83970631
     atom  228 type  2   force =    -5.12455660   -4.86161283    1.83971436
     atom  229 type  2   force =    -5.12451556   -4.86157206    1.83965632
     atom  230 type  2   force =    -5.12457878   -4.86157582    1.83974091
     atom  231 type  2   force =    -5.12452006   -4.86163468    1.83974061
     atom  232 type  2   force =    -5.12457790   -4.86163395    1.83974763
     atom  233 type  3   force =     1.67831975    1.91426083    0.71658302
     atom  234 type  3   force =     1.67846093    1.91358799    0.71620189
     atom  235 type  3   force =     1.67844475    1.91359982    0.71620508
     atom  236 type  3   force =     1.67845706    1.91359833    0.71620665
     atom  237 type  3   force =     1.67846716    1.91360584    0.71619133
     atom  238 type  3   force =     1.67844887    1.91361106    0.71621511
     atom  239 type  3   force =     1.67846394    1.91359397    0.71621179
     atom  240 type  3   force =     1.67844982    1.91359313    0.71621343
     atom  241 type  1   force =    -1.15068537    0.12041792    2.54595863
     atom  242 type  1   force =    -1.15060567    0.12038114    2.54590424
     atom  243 type  1   force =    -1.15084040    0.12016720    2.54595716
     atom  244 type  1   force =    -1.15058172    0.12031519    2.54595922
     atom  245 type  1   force =    -1.15057159    0.12034310    2.54594690
     atom  246 type  1   force =    -1.15061938    0.12037985    2.54613217
     atom  247 type  1   force =    -1.15057730    0.12040953    2.54592650
     atom  248 type  1   force =    -1.15064533    0.12040926    2.54595177
     atom  249 type  1   force =     1.63970684  -14.27340508   -2.01258555
     atom  250 type  1   force =     1.63977430  -14.27342589   -2.01263602
     atom  251 type  1   force =     1.63964364  -14.27355947   -2.01247640
     atom  252 type  1   force =     1.63980682  -14.27350047   -2.01258774
     atom  253 type  1   force =     1.63979122  -14.27348999   -2.01259433
     atom  254 type  1   force =     1.63967642  -14.27353412   -2.01232365
     atom  255 type  1   force =     1.63977553  -14.27342514   -2.01261910
     atom  256 type  1   force =     1.63970759  -14.27340072   -2.01259869
     atom  257 type  2   force =    -1.12177524    2.68743964    0.87814773
     atom  258 type  2   force =    -1.12164355    2.68736173    0.87815844
     atom  259 type  2   force =    -1.12197508    2.68727996    0.87814264
     atom  260 type  2   force =    -1.12164057    2.68734010    0.87817554
     atom  261 type  2   force =    -1.12158249    2.68735982    0.87816495
     atom  262 type  2   force =    -1.12166573    2.68737540    0.87823992
     atom  263 type  2   force =    -1.12160400    2.68739321    0.87815489
     atom  264 type  2   force =    -1.12166495    2.68738647    0.87819618
     atom  265 type  2   force =    -0.26038963    5.25577591    0.96583655
     atom  266 type  2   force =    -0.26030587    5.25571793    0.96582319
     atom  267 type  2   force =    -0.26053337    5.25555939    0.96593019
     atom  268 type  2   force =    -0.26029889    5.25568018    0.96585122
     atom  269 type  2   force =    -0.26025483    5.25568652    0.96583994
     atom  270 type  2   force =    -0.26034613    5.25570300    0.96595143
     atom  271 type  2   force =    -0.26028520    5.25573814    0.96582443
     atom  272 type  2   force =    -0.26033748    5.25573579    0.96585799
     atom  273 type  2   force =    -5.22889927    3.27875996   -2.50221496
     atom  274 type  2   force =    -5.22868910    3.27858696   -2.50209861
     atom  275 type  2   force =    -5.22886194    3.27856465   -2.50206419
     atom  276 type  2   force =    -5.22869023    3.27857871   -2.50209168
     atom  277 type  2   force =    -5.22860054    3.27860770   -2.50211833
     atom  278 type  2   force =    -5.22871496    3.27860831   -2.50203727
     atom  279 type  2   force =    -5.22865836    3.27861109   -2.50209894
     atom  280 type  2   force =    -5.22870749    3.27861189   -2.50206277
     atom  281 type  3   force =    -2.14443712    0.74079280   -1.26074780
     atom  282 type  3   force =    -2.14440209    0.74072972   -1.26070809
     atom  283 type  3   force =    -2.14442545    0.74072137   -1.26069404
     atom  284 type  3   force =    -2.14440256    0.74072711   -1.26070556
     atom  285 type  3   force =    -2.14437033    0.74073314   -1.26072095
     atom  286 type  3   force =    -2.14441080    0.74073148   -1.26069169
     atom  287 type  3   force =    -2.14439836    0.74073338   -1.26070736
     atom  288 type  3   force =    -2.14440707    0.74073359   -1.26070127
     atom  289 type  2   force =    -1.54868021    6.17629607   -0.63334889
     atom  290 type  2   force =    -1.54844752    6.17630639   -0.63334344
     atom  291 type  2   force =    -1.54864268    6.17643961   -0.63341141
     atom  292 type  2   force =    -1.54844755    6.17631688   -0.63335395
     atom  293 type  2   force =    -1.54840895    6.17634538   -0.63335492
     atom  294 type  2   force =    -1.54846711    6.17634304   -0.63331512
     atom  295 type  2   force =    -1.54837565    6.17633193   -0.63336149
     atom  296 type  2   force =    -1.54847064    6.17634033   -0.63328699
     atom  297 type  3   force =     0.04597054    1.97450946   -0.18330302
     atom  298 type  3   force =     0.04602055    1.97452537   -0.18331566
     atom  299 type  3   force =     0.04598868    1.97455925   -0.18332731
     atom  300 type  3   force =     0.04602027    1.97453112   -0.18332065
     atom  301 type  3   force =     0.04602627    1.97453654   -0.18332036
     atom  302 type  3   force =     0.04601394    1.97453570   -0.18331196
     atom  303 type  3   force =     0.04603956    1.97452792   -0.18332145
     atom  304 type  3   force =     0.04601148    1.97453207   -0.18329694
     atom  305 type  1   force =     0.57391767    0.87368761   -1.98649917
     atom  306 type  1   force =     0.57399358    0.87362605   -1.98649824
     atom  307 type  1   force =     0.57390737    0.87350202   -1.98625638
     atom  308 type  1   force =     0.57399719    0.87357087   -1.98646962
     atom  309 type  1   force =     0.57407173    0.87353923   -1.98648338
     atom  310 type  1   force =     0.57388782    0.87351352   -1.98636428
     atom  311 type  1   force =     0.57399344    0.87362827   -1.98651196
     atom  312 type  1   force =     0.57394179    0.87363193   -1.98646471
     atom  313 type  1   force =    -5.31473450  -14.19218289   -0.05316806
     atom  314 type  1   force =    -5.31466498  -14.19220828   -0.05319628
     atom  315 type  1   force =    -5.31473754  -14.19229322   -0.05298941
     atom  316 type  1   force =    -5.31465629  -14.19227402   -0.05316039
     atom  317 type  1   force =    -5.31463873  -14.19230135   -0.05316656
     atom  318 type  1   force =    -5.31486876  -14.19242554   -0.05301800
     atom  319 type  1   force =    -5.31467950  -14.19222233   -0.05320123
     atom  320 type  1   force =    -5.31474224  -14.19220360   -0.05316100
     atom  321 type  2   force =     2.77172492    0.21540403    3.53160714
     atom  322 type  2   force =     2.77183144    0.21537560    3.53159161
     atom  323 type  2   force =     2.77132320    0.21546448    3.53119378
     atom  324 type  2   force =     2.77183639    0.21535631    3.53160454
     atom  325 type  2   force =     2.77187236    0.21538208    3.53160471
     atom  326 type  2   force =     2.77182187    0.21539396    3.53165123
     atom  327 type  2   force =     2.77190200    0.21542387    3.53157224
     atom  328 type  2   force =     2.77181452    0.21540493    3.53163100
     atom  329 type  3   force =     1.65181284   -0.26882943    1.78766570
     atom  330 type  3   force =     1.65182920   -0.26883348    1.78766041
     atom  331 type  3   force =     1.65169293   -0.26883792    1.78741636
     atom  332 type  3   force =     1.65183133   -0.26884189    1.78766485
     atom  333 type  3   force =     1.65183757   -0.26883437    1.78766606
     atom  334 type  3   force =     1.65182853   -0.26883126    1.78767567
     atom  335 type  3   force =     1.65184755   -0.26881805    1.78765342
     atom  336 type  3   force =     1.65182590   -0.26882617    1.78766876
     atom  337 type  1   force =     6.86259336    5.25693235    1.77952610
     atom  338 type  1   force =     6.86274528    5.25693035    1.77949473
     atom  339 type  1   force =     6.86237960    5.25725356    1.77916188
     atom  340 type  1   force =     6.86274874    5.25692732    1.77949472
     atom  341 type  1   force =     6.86278493    5.25695615    1.77949720
     atom  342 type  1   force =     6.86272932    5.25696190    1.77953921
     atom  343 type  1   force =     6.86286607    5.25698324    1.77945052
     atom  344 type  1   force =     6.86271876    5.25696636    1.77955315
     atom  345 type  2   force =     4.86194530   -5.12469628   -1.84031860
     atom  346 type  2   force =     4.86161464   -5.12462150   -1.83971458
     atom  347 type  2   force =     4.86160484   -5.12455853   -1.83973602
     atom  348 type  2   force =     4.86161559   -5.12456138   -1.83974749
     atom  349 type  2   force =     4.86169404   -5.12443171   -1.83980835
     atom  350 type  2   force =     4.86162519   -5.12453900   -1.83973571
     atom  351 type  2   force =     4.86163705   -5.12457552   -1.83971210
     atom  352 type  2   force =     4.86163368   -5.12456415   -1.83971160
     atom  353 type  3   force =    -1.91371445    1.67847792   -0.71634681
     atom  354 type  3   force =    -1.91359335    1.67844794   -0.71621221
     atom  355 type  3   force =    -1.91361789    1.67845865   -0.71621042
     atom  356 type  3   force =    -1.91359472    1.67845320   -0.71621621
     atom  357 type  3   force =    -1.91357541    1.67846689   -0.71622153
     atom  358 type  3   force =    -1.91359859    1.67846035   -0.71620660
     atom  359 type  3   force =    -1.91358554    1.67845452   -0.71621223
     atom  360 type  3   force =    -1.91359624    1.67845780   -0.71620117
     atom  361 type  1   force =     1.15059967   -0.12035543    2.54595574
     atom  362 type  1   force =     1.15061193   -0.12035947    2.54592216
     atom  363 type  1   force =     1.15070961   -0.12065323    2.54550373
     atom  364 type  1   force =     1.15062845   -0.12047978    2.54598705
     atom  365 type  1   force =     1.15064457   -0.12037407    2.54597435
     atom  366 type  1   force =     1.15065562   -0.12035621    2.54600306
     atom  367 type  1   force =     1.15069494   -0.12023576    2.54591452
     atom  368 type  1   force =     1.15063170   -0.12032064    2.54594256
     atom  369 type  1   force =    -1.63951109   14.27339575   -2.01316075
     atom  370 type  1   force =    -1.63976136   14.27340008   -2.01255331
     atom  371 type  1   force =    -1.63976360   14.27345827   -2.01258214
     atom  372 type  1   force =    -1.63975595   14.27345636   -2.01260865
     atom  373 type  1   force =    -1.63962385   14.27365696   -2.01267749
     atom  374 type  1   force =    -1.63973882   14.27348086   -2.01259186
     atom  375 type  1   force =    -1.63973287   14.27344800   -2.01256869
     atom  376 type  1   force =    -1.63972507   14.27346408   -2.01256062
     atom  377 type  2   force =     1.12166419   -2.68757451    0.87816071
     atom  378 type  2   force =     1.12175767   -2.68758860    0.87807530
     atom  379 type  2   force =     1.12164138   -2.68735161    0.87816823
     atom  380 type  2   force =     1.12164549   -2.68735121    0.87816668
     atom  381 type  2   force =     1.12167418   -2.68730755    0.87816161
     atom  382 type  2   force =     1.12167373   -2.68728104    0.87815517
     atom  383 type  2   force =     1.12167622   -2.68736825    0.87820775
     atom  384 type  2   force =     1.12167344   -2.68737164    0.87821741
     atom  385 type  2   force =     0.26045564   -5.25600565    0.96564753
     atom  386 type  2   force =     0.26033359   -5.25585843    0.96585117
     atom  387 type  2   force =     0.26030822   -5.25569628    0.96584140
     atom  388 type  2   force =     0.26031146   -5.25569825    0.96583634
     atom  389 type  2   force =     0.26035203   -5.25561931    0.96581900
     atom  390 type  2   force =     0.26033422   -5.25565776    0.96583794
     atom  391 type  2   force =     0.26034153   -5.25571716    0.96588186
     atom  392 type  2   force =     0.26034124   -5.25571110    0.96588265
     atom  393 type  2   force =     5.22871519   -3.27870168   -2.50207824
     atom  394 type  2   force =     5.22884868   -3.27898000   -2.50245206
     atom  395 type  2   force =     5.22869394   -3.27858544   -2.50210065
     atom  396 type  2   force =     5.22868179   -3.27858175   -2.50208934
     atom  397 type  2   force =     5.22870704   -3.27854770   -2.50209096
     atom  398 type  2   force =     5.22874362   -3.27850366   -2.50212166
     atom  399 type  2   force =     5.22871784   -3.27859427   -2.50204744
     atom  400 type  2   force =     5.22872279   -3.27860244   -2.50205906
     atom  401 type  3   force =     2.14441471   -0.74075282   -1.26070661
     atom  402 type  3   force =     2.14438493   -0.74086015   -1.26078251
     atom  403 type  3   force =     2.14440503   -0.74072777   -1.26071012
     atom  404 type  3   force =     2.14439842   -0.74072620   -1.26070556
     atom  405 type  3   force =     2.14440462   -0.74071666   -1.26070597
     atom  406 type  3   force =     2.14441598   -0.74071372   -1.26071297
     atom  407 type  3   force =     2.14440850   -0.74073064   -1.26069143
     atom  408 type  3   force =     2.14441206   -0.74073233   -1.26070068
     atom  409 type  2   force =     1.54874056   -6.17634447   -0.63359158
     atom  410 type  2   force =     1.54843538   -6.17635924   -0.63329705
     atom  411 type  2   force =     1.54845941   -6.17631499   -0.63334035
     atom  412 type  2   force =     1.54845115   -6.17631563   -0.63333813
     atom  413 type  2   force =     1.54850598   -6.17611851   -0.63345498
     atom  414 type  2   force =     1.54846787   -6.17630712   -0.63334121
     atom  415 type  2   force =     1.54845593   -6.17634059   -0.63330029
     atom  416 type  2   force =     1.54847058   -6.17632640   -0.63332533
     atom  417 type  3   force =    -0.04595678   -1.97451165   -0.18336387
     atom  418 type  3   force =    -0.04602075   -1.97453242   -0.18330746
     atom  419 type  3   force =    -0.04601490   -1.97452912   -0.18331499
     atom  420 type  3   force =    -0.04601766   -1.97452852   -0.18331366
     atom  421 type  3   force =    -0.04599950   -1.97445972   -0.18337657
     atom  422 type  3   force =    -0.04601541   -1.97452966   -0.18331518
     atom  423 type  3   force =    -0.04602100   -1.97453420   -0.18330776
     atom  424 type  3   force =    -0.04601506   -1.97453127   -0.18331446
     atom  425 type  1   force =    -0.57360381   -0.87387494   -1.98671519
     atom  426 type  1   force =    -0.57399372   -0.87372460   -1.98644782
     atom  427 type  1   force =    -0.57397632   -0.87358112   -1.98649152
     atom  428 type  1   force =    -0.57397940   -0.87358479   -1.98647802
     atom  429 type  1   force =    -0.57394185   -0.87345963   -1.98654017
     atom  430 type  1   force =    -0.57395128   -0.87355290   -1.98648164
     atom  431 type  1   force =    -0.57394236   -0.87362045   -1.98640899
     atom  432 type  1   force =    -0.57395050   -0.87360733   -1.98644927
     atom  433 type  1   force =     5.31513184   14.19218252   -0.05357740
     atom  434 type  1   force =     5.31467859   14.19218870   -0.05312322
     atom  435 type  1   force =     5.31469529   14.19225688   -0.05316843
     atom  436 type  1   force =     5.31469310   14.19225510   -0.05316740
     atom  437 type  1   force =     5.31476770   14.19246009   -0.05329155
     atom  438 type  1   force =     5.31471032   14.19227149   -0.05316575
     atom  439 type  1   force =     5.31470863   14.19222532   -0.05311817
     atom  440 type  1   force =     5.31471490   14.19224181   -0.05314482
     atom  441 type  2   force =    -2.77189490   -0.21555404    3.53167006
     atom  442 type  2   force =    -2.77169329   -0.21550352    3.53152986
     atom  443 type  2   force =    -2.77184206   -0.21536662    3.53160482
     atom  444 type  2   force =    -2.77182203   -0.21536701    3.53159268
     atom  445 type  2   force =    -2.77180063   -0.21534258    3.53158893
     atom  446 type  2   force =    -2.77182629   -0.21527428    3.53158158
     atom  447 type  2   force =    -2.77180196   -0.21538832    3.53162512
     atom  448 type  2   force =    -2.77181916   -0.21539872    3.53166754
     atom  449 type  3   force =    -1.65183407    0.26883797    1.78766442
     atom  450 type  3   force =    -1.65182615    0.26883694    1.78765981
     atom  451 type  3   force =    -1.65186427    0.26876999    1.78768893
     atom  452 type  3   force =    -1.65180799    0.26881273    1.78765689
     atom  453 type  3   force =    -1.65182124    0.26883045    1.78766802
     atom  454 type  3   force =    -1.65182884    0.26882823    1.78768309
     atom  455 type  3   force =    -1.65182039    0.26884317    1.78765808
     atom  456 type  3   force =    -1.65183192    0.26885393    1.78766202
     atom  457 type  1   force =    -6.86275162   -5.25692764    1.77950798
     atom  458 type  1   force =    -6.86272423   -5.25692637    1.77949174
     atom  459 type  1   force =    -6.86279516   -5.25701284    1.77959664
     atom  460 type  1   force =    -6.86250601   -5.25702586    1.77936619
     atom  461 type  1   force =    -6.86271422   -5.25695336    1.77951926
     atom  462 type  1   force =    -6.86275366   -5.25697883    1.77957851
     atom  463 type  1   force =    -6.86271379   -5.25691768    1.77948818
     atom  464 type  1   force =    -6.86275206   -5.25673278    1.77942388
     atom  465 type  2   force =    -4.86196584    5.12466107   -1.83994038
     atom  466 type  2   force =    -4.86161012    5.12454875   -1.83974398
     atom  467 type  2   force =    -4.86176711    5.12459273   -1.83974510
     atom  468 type  2   force =    -4.86161253    5.12455691   -1.83975190
     atom  469 type  2   force =    -4.86154237    5.12459778   -1.83976604
     atom  470 type  2   force =    -4.86163072    5.12458702   -1.83970845
     atom  471 type  2   force =    -4.86156777    5.12457503   -1.83974781
     atom  472 type  2   force =    -4.86162554    5.12458394   -1.83969886
     atom  473 type  3   force =     1.91365112   -1.67842859   -0.71642908
     atom  474 type  3   force =     1.91359665   -1.67846296   -0.71620878
     atom  475 type  3   force =     1.91358917   -1.67845331   -0.71620967
     atom  476 type  3   force =     1.91359603   -1.67845404   -0.71621463
     atom  477 type  3   force =     1.91362246   -1.67842525   -0.71623170
     atom  478 type  3   force =     1.91359559   -1.67844867   -0.71620914
     atom  479 type  3   force =     1.91360137   -1.67845551   -0.71620813
     atom  480 type  3   force =     1.91359817   -1.67845281   -0.71620509
     atom  481 type  4   force =    -0.00016831    0.00005858    0.00004584
     atom  482 type  4   force =    -0.00002268    0.00002344   -0.00031114
     atom  483 type  4   force =    -0.00038597   -0.00061561   -0.00077489
     atom  484 type  4   force =     0.00009399   -0.00032996    0.00011584
     atom  485 type  4   force =     0.00010193   -0.00002816   -0.00002455
     atom  486 type  4   force =     0.00030407    0.00020619    0.00039638
     atom  487 type  4   force =     0.00025684    0.00031460   -0.00005949
     atom  488 type  4   force =    -0.00000643    0.00015276   -0.00007634
     atom  489 type  4   force =    -0.00004608    0.00036359   -0.00026879
     atom  490 type  4   force =     0.00007723    0.00016229   -0.00006036
     atom  491 type  4   force =     0.00035879   -0.00016581    0.00061580
     atom  492 type  4   force =     0.00005272   -0.00008314   -0.00000372
     atom  493 type  4   force =     0.00093255   -0.00064370    0.00001414
     atom  494 type  4   force =    -0.00015829   -0.00038375   -0.00000091
     atom  495 type  4   force =     0.00000203    0.00012381   -0.00023843
     atom  496 type  4   force =    -0.00005426    0.00009122   -0.00001093
     The local contribution  to forces
     atom    1 type  1   force =    -0.30101689    2.09126776    3.09821462
     atom    2 type  1   force =    -0.30101587    2.09124912    3.09832140
     atom    3 type  1   force =    -0.30100230    2.09135258    3.09826308
     atom    4 type  1   force =    -0.30111201    2.09144717    3.09813198
     atom    5 type  1   force =    -0.30104301    2.09129585    3.09821638
     atom    6 type  1   force =    -0.30125867    2.09121060    3.09806088
     atom    7 type  1   force =    -0.30106292    2.09122422    3.09821603
     atom    8 type  1   force =    -0.30103843    2.09123622    3.09826096
     atom    9 type  1   force =   -12.38532805   -0.72453974   -1.18105941
     atom   10 type  1   force =   -12.38536223   -0.72451686   -1.18113390
     atom   11 type  1   force =   -12.38549326   -0.72412513   -1.18137284
     atom   12 type  1   force =   -12.38536348   -0.72443502   -1.18109006
     atom   13 type  1   force =   -12.38550546   -0.72452164   -1.18120835
     atom   14 type  1   force =   -12.38536914   -0.72449327   -1.18115007
     atom   15 type  1   force =   -12.38538725   -0.72455974   -1.18108050
     atom   16 type  1   force =   -12.38537765   -0.72457343   -1.18114791
     atom   17 type  2   force =     2.48457445    1.16467039    0.87020786
     atom   18 type  2   force =     2.48461985    1.16469167    0.87009965
     atom   19 type  2   force =     2.48455200    1.16475896    0.87007910
     atom   20 type  2   force =     2.48462359    1.16474724    0.87010769
     atom   21 type  2   force =     2.48362303    1.16419084    0.86981072
     atom   22 type  2   force =     2.48459286    1.16474523    0.87012029
     atom   23 type  2   force =     2.48462437    1.16469602    0.87013407
     atom   24 type  2   force =     2.48459149    1.16470050    0.87011596
     atom   25 type  2   force =     5.07230705    0.26996296    0.95432065
     atom   26 type  2   force =     5.07231730    0.26999312    0.95422302
     atom   27 type  2   force =     5.07223086    0.27009700    0.95415836
     atom   28 type  2   force =     5.07232138    0.27004705    0.95423710
     atom   29 type  2   force =     5.07187330    0.26998413    0.95411567
     atom   30 type  2   force =     5.07230394    0.27003150    0.95422817
     atom   31 type  2   force =     5.07231329    0.26997737    0.95426271
     atom   32 type  2   force =     5.07229398    0.26998144    0.95422659
     atom   33 type  2   force =     3.23899926    5.17689981   -2.48298261
     atom   34 type  2   force =     3.24250030    5.17667607   -2.48071714
     atom   35 type  2   force =     3.24254463    5.17661927   -2.48070708
     atom   36 type  2   force =     3.24250462    5.17662830   -2.48072298
     atom   37 type  2   force =     3.24247363    5.17658885   -2.48065888
     atom   38 type  2   force =     3.24252369    5.17659942   -2.48074353
     atom   39 type  2   force =     3.24245468    5.17666211   -2.48075592
     atom   40 type  2   force =     3.24252577    5.17665496   -2.48075069
     atom   41 type  3   force =     0.76500073    2.07375066   -1.25257769
     atom   42 type  3   force =     0.76524006    2.07350960   -1.25221411
     atom   43 type  3   force =     0.76525249    2.07349183   -1.25220995
     atom   44 type  3   force =     0.76524157    2.07349640   -1.25221701
     atom   45 type  3   force =     0.76523438    2.07348662   -1.25220383
     atom   46 type  3   force =     0.76524402    2.07348786   -1.25222177
     atom   47 type  3   force =     0.76522510    2.07350275   -1.25222567
     atom   48 type  3   force =     0.76524531    2.07350242   -1.25222385
     atom   49 type  2   force =     5.98084590    1.44230961   -0.61387372
     atom   50 type  2   force =     5.97991985    1.44598391   -0.61185168
     atom   51 type  2   force =     5.97997933    1.44594054   -0.61186308
     atom   52 type  2   force =     5.97993013    1.44594424   -0.61186954
     atom   53 type  2   force =     5.97988950    1.44591511   -0.61180664
     atom   54 type  2   force =     5.97996186    1.44589621   -0.61190408
     atom   55 type  2   force =     5.97989745    1.44596366   -0.61188984
     atom   56 type  2   force =     5.97995546    1.44596379   -0.61189656
     atom   57 type  3   force =     1.90039652   -0.02535712   -0.18263326
     atom   58 type  3   force =     1.90008499   -0.02513042   -0.18232988
     atom   59 type  3   force =     1.90010313   -0.02514258   -0.18233330
     atom   60 type  3   force =     1.90008944   -0.02514079   -0.18233705
     atom   61 type  3   force =     1.90007906   -0.02514819   -0.18232423
     atom   62 type  3   force =     1.90009531   -0.02515639   -0.18234615
     atom   63 type  3   force =     1.90008033   -0.02513893   -0.18234180
     atom   64 type  3   force =     1.90009460   -0.02513768   -0.18234371
     atom   65 type  1   force =     0.41633022   -1.47142812   -2.59175978
     atom   66 type  1   force =     0.41630909   -1.47138290   -2.59185408
     atom   67 type  1   force =     0.41615378   -1.47121776   -2.59203263
     atom   68 type  1   force =     0.41631388   -1.47132465   -2.59185129
     atom   69 type  1   force =     0.41601246   -1.47126718   -2.59191675
     atom   70 type  1   force =     0.41631857   -1.47132407   -2.59186591
     atom   71 type  1   force =     0.41630933   -1.47139919   -2.59179589
     atom   72 type  1   force =     0.41631045   -1.47138883   -2.59185851
     atom   73 type  1   force =   -12.39094365    4.13253233   -0.55440093
     atom   74 type  1   force =   -12.39098542    4.13256683   -0.55446974
     atom   75 type  1   force =   -12.39130508    4.13298476   -0.55486873
     atom   76 type  1   force =   -12.39098449    4.13262732   -0.55445616
     atom   77 type  1   force =   -12.39114229    4.13261920   -0.55452863
     atom   78 type  1   force =   -12.39097448    4.13260397   -0.55449293
     atom   79 type  1   force =   -12.39100807    4.13252745   -0.55440961
     atom   80 type  1   force =   -12.39098377    4.13253366   -0.55448743
     atom   81 type  2   force =     0.33925485   -2.77033546    3.52087109
     atom   82 type  2   force =     0.33932807   -2.77033640    3.52073002
     atom   83 type  2   force =     0.33926834   -2.77027806    3.52073755
     atom   84 type  2   force =     0.33932457   -2.77028002    3.52076315
     atom   85 type  2   force =     0.33876444   -2.77090999    3.52036139
     atom   86 type  2   force =     0.33927939   -2.77028957    3.52077186
     atom   87 type  2   force =     0.33931544   -2.77031841    3.52076685
     atom   88 type  2   force =     0.33927682   -2.77032347    3.52075817
     atom   89 type  3   force =    -0.22490243   -1.59174581    1.77778093
     atom   90 type  3   force =    -0.22492019   -1.59174586    1.77782445
     atom   91 type  3   force =    -0.22490379   -1.59173574    1.77779681
     atom   92 type  3   force =    -0.22491520   -1.59173629    1.77778449
     atom   93 type  3   force =    -0.22491668   -1.59174172    1.77779307
     atom   94 type  3   force =    -0.22496099   -1.59181246    1.77772437
     atom   95 type  3   force =    -0.22491969   -1.59174877    1.77778796
     atom   96 type  3   force =    -0.22491030   -1.59174559    1.77779120
     atom   97 type  1   force =     4.59017210   -5.13726704    1.62597548
     atom   98 type  1   force =     4.59005399   -5.13722420    1.62613791
     atom   99 type  1   force =     4.59015521   -5.13717477    1.62601688
     atom  100 type  1   force =     4.59008457   -5.13717796    1.62601145
     atom  101 type  1   force =     4.59009191   -5.13717178    1.62605806
     atom  102 type  1   force =     4.59001370   -5.13847560    1.62553922
     atom  103 type  1   force =     4.59010088   -5.13720822    1.62602995
     atom  104 type  1   force =     4.59015986   -5.13720269    1.62603329
     atom  105 type  2   force =    -5.09726177   -4.89992004   -1.83912297
     atom  106 type  2   force =    -5.09715943   -4.89892511   -1.83858007
     atom  107 type  2   force =    -5.09710219   -4.89896040   -1.83859908
     atom  108 type  2   force =    -5.09714747   -4.89896142   -1.83860133
     atom  109 type  2   force =    -5.09717737   -4.89897307   -1.83852617
     atom  110 type  2   force =    -5.09709010   -4.89901715   -1.83864122
     atom  111 type  2   force =    -5.09716148   -4.89893570   -1.83861812
     atom  112 type  2   force =    -5.09710333   -4.89893046   -1.83861711
     atom  113 type  3   force =     1.64748189    1.87950097   -0.70132391
     atom  114 type  3   force =     1.62766923    1.85947683   -0.71017627
     atom  115 type  3   force =     1.62768418    1.85946188   -0.71017626
     atom  116 type  3   force =     1.62767230    1.85946503   -0.71017821
     atom  117 type  3   force =     1.62766166    1.85945444   -0.71016489
     atom  118 type  3   force =     1.62767695    1.85945521   -0.71018481
     atom  119 type  3   force =     1.62766224    1.85946997   -0.71018479
     atom  120 type  3   force =     1.62767687    1.85946942   -0.71018737
     atom  121 type  1   force =     0.30109295   -2.09125452    3.09816241
     atom  122 type  1   force =     0.30104582   -2.09124793    3.09831819
     atom  123 type  1   force =     0.30109589   -2.09124814    3.09837279
     atom  124 type  1   force =     0.30104578   -2.09125740    3.09819822
     atom  125 type  1   force =     0.30101172   -2.09129603    3.09823879
     atom  126 type  1   force =     0.30096947   -2.09137187    3.09817088
     atom  127 type  1   force =     0.30092612   -2.09136580    3.09819866
     atom  128 type  1   force =     0.30102938   -2.09129378    3.09822449
     atom  129 type  1   force =    12.38550702    0.72453605   -1.18125947
     atom  130 type  1   force =    12.38535334    0.72454899   -1.18103959
     atom  131 type  1   force =    12.38545248    0.72452111   -1.18103579
     atom  132 type  1   force =    12.38536342    0.72451941   -1.18114475
     atom  133 type  1   force =    12.38533051    0.72448563   -1.18110176
     atom  134 type  1   force =    12.38530963    0.72438683   -1.18118822
     atom  135 type  1   force =    12.38527481    0.72446558   -1.18115366
     atom  136 type  1   force =    12.38537097    0.72449978   -1.18114212
     atom  137 type  2   force =    -2.48461705   -1.16468927    0.87009046
     atom  138 type  2   force =    -2.48455845   -1.16468079    0.87015094
     atom  139 type  2   force =    -2.48462058   -1.16472948    0.87022195
     atom  140 type  2   force =    -2.48455789   -1.16474021    0.87008019
     atom  141 type  2   force =    -2.48459754   -1.16473734    0.87011976
     atom  142 type  2   force =    -2.48464034   -1.16475202    0.87010823
     atom  143 type  2   force =    -2.48476388   -1.16491797    0.86998253
     atom  144 type  2   force =    -2.48462535   -1.16471597    0.87012524
     atom  145 type  2   force =    -5.07230329   -0.26995729    0.95418106
     atom  146 type  2   force =    -5.07227831   -0.26996126    0.95429541
     atom  147 type  2   force =    -5.07228810   -0.27001744    0.95433972
     atom  148 type  2   force =    -5.07228118   -0.27001314    0.95421042
     atom  149 type  2   force =    -5.07231380   -0.27003265    0.95424471
     atom  150 type  2   force =    -5.07234802   -0.27006192    0.95421775
     atom  151 type  2   force =    -5.07244020   -0.27010456    0.95416271
     atom  152 type  2   force =    -5.07231747   -0.27000987    0.95423222
     atom  153 type  2   force =    -3.24249567   -5.17665854   -2.48071966
     atom  154 type  2   force =    -3.24253408   -5.17666214   -2.48072786
     atom  155 type  2   force =    -3.24296083   -5.17715570   -2.48106910
     atom  156 type  2   force =    -3.24253338   -5.17662470   -2.48071738
     atom  157 type  2   force =    -3.24254568   -5.17660926   -2.48075112
     atom  158 type  2   force =    -3.24248117   -5.17661065   -2.48072928
     atom  159 type  2   force =    -3.24254915   -5.17667005   -2.48063284
     atom  160 type  2   force =    -3.24247606   -5.17667794   -2.48075590
     atom  161 type  3   force =    -0.76523772   -2.07350528   -1.25221380
     atom  162 type  3   force =    -0.76524633   -2.07350348   -1.25221772
     atom  163 type  3   force =    -0.76546549   -2.07360376   -1.25232561
     atom  164 type  3   force =    -0.76524658   -2.07349265   -1.25221670
     atom  165 type  3   force =    -0.76525470   -2.07348972   -1.25222636
     atom  166 type  3   force =    -0.76523740   -2.07349192   -1.25222018
     atom  167 type  3   force =    -0.76525090   -2.07351074   -1.25219565
     atom  168 type  3   force =    -0.76523869   -2.07350638   -1.25222255
     atom  169 type  2   force =    -5.97987849   -1.44627066   -0.61209016
     atom  170 type  2   force =    -5.97998267   -1.44594054   -0.61183449
     atom  171 type  2   force =    -5.97991814   -1.44595493   -0.61187589
     atom  172 type  2   force =    -5.97996745   -1.44596152   -0.61187630
     atom  173 type  2   force =    -5.97998692   -1.44595866   -0.61180739
     atom  174 type  2   force =    -5.97984519   -1.44607720   -0.61194578
     atom  175 type  2   force =    -5.97996747   -1.44594690   -0.61188320
     atom  176 type  2   force =    -5.97990837   -1.44593917   -0.61187978
     atom  177 type  3   force =    -1.90005557    0.02508885   -0.18238123
     atom  178 type  3   force =    -1.90010347    0.02514376   -0.18232333
     atom  179 type  3   force =    -1.90008256    0.02514045   -0.18233713
     atom  180 type  3   force =    -1.90009639    0.02513933   -0.18233874
     atom  181 type  3   force =    -1.90010267    0.02513812   -0.18232568
     atom  182 type  3   force =    -1.90007954    0.02509215   -0.18235893
     atom  183 type  3   force =    -1.90009917    0.02513904   -0.18233997
     atom  184 type  3   force =    -1.90008522    0.02514116   -0.18234055
     atom  185 type  1   force =    -0.41634968    1.47152159   -2.59195776
     atom  186 type  1   force =    -0.41628642    1.47144665   -2.59178470
     atom  187 type  1   force =    -0.41628423    1.47133683   -2.59176181
     atom  188 type  1   force =    -0.41629664    1.47134342   -2.59185980
     atom  189 type  1   force =    -0.41631966    1.47131241   -2.59181926
     atom  190 type  1   force =    -0.41634913    1.47128421   -2.59185551
     atom  191 type  1   force =    -0.41646942    1.47130498   -2.59194343
     atom  192 type  1   force =    -0.41632057    1.47136527   -2.59186014
     atom  193 type  1   force =    12.39108872   -4.13237708   -0.55468206
     atom  194 type  1   force =    12.39097508   -4.13250704   -0.55439113
     atom  195 type  1   force =    12.39103538   -4.13259393   -0.55439389
     atom  196 type  1   force =    12.39098627   -4.13258451   -0.55447669
     atom  197 type  1   force =    12.39095405   -4.13262269   -0.55443279
     atom  198 type  1   force =    12.39095769   -4.13267660   -0.55449472
     atom  199 type  1   force =    12.39087787   -4.13260671   -0.55451675
     atom  200 type  1   force =    12.39098393   -4.13257840   -0.55448798
     atom  201 type  2   force =    -0.33930557    2.77031921    3.52074839
     atom  202 type  2   force =    -0.33923747    2.77032812    3.52080759
     atom  203 type  2   force =    -0.33931940    2.77032059    3.52085039
     atom  204 type  2   force =    -0.33919032    2.77028475    3.52069006
     atom  205 type  2   force =    -0.33929139    2.77029551    3.52075505
     atom  206 type  2   force =    -0.33934739    2.77027307    3.52074978
     atom  207 type  2   force =    -0.33935147    2.77014848    3.52066859
     atom  208 type  2   force =    -0.33932747    2.77029926    3.52078219
     atom  209 type  3   force =     0.22491225    1.59174535    1.77778786
     atom  210 type  3   force =     0.22492877    1.59174522    1.77781143
     atom  211 type  3   force =     0.22491004    1.59175034    1.77780948
     atom  212 type  3   force =     0.22493720    1.59174800    1.77776868
     atom  213 type  3   force =     0.22491306    1.59174141    1.77778863
     atom  214 type  3   force =     0.22489493    1.59173347    1.77778633
     atom  215 type  3   force =     0.22490299    1.59171935    1.77777716
     atom  216 type  3   force =     0.22490540    1.59173922    1.77779581
     atom  217 type  1   force =    -4.59014255    5.13720261    1.62602166
     atom  218 type  1   force =    -4.59006010    5.13721152    1.62605070
     atom  219 type  1   force =    -4.59016948    5.13721082    1.62611635
     atom  220 type  1   force =    -4.58992591    5.13704347    1.62589173
     atom  221 type  1   force =    -4.59010599    5.13719095    1.62601785
     atom  222 type  1   force =    -4.59017071    5.13717811    1.62602123
     atom  223 type  1   force =    -4.59012864    5.13697129    1.62589992
     atom  224 type  1   force =    -4.59017749    5.13718865    1.62607515
     atom  225 type  2   force =     5.07713985    4.87600248   -1.84808156
     atom  226 type  2   force =     5.09711089    4.89898542   -1.83858861
     atom  227 type  2   force =     5.09716730    4.89892972   -1.83858912
     atom  228 type  2   force =     5.09712004    4.89893910   -1.83859640
     atom  229 type  2   force =     5.09708047    4.89889985   -1.83853823
     atom  230 type  2   force =     5.09714176    4.89890187   -1.83862290
     atom  231 type  2   force =     5.09708093    4.89896165   -1.83862260
     atom  232 type  2   force =     5.09714038    4.89895761   -1.83863072
     atom  233 type  3   force =    -1.62755972   -1.86013778   -0.71053556
     atom  234 type  3   force =    -1.62768090   -1.85945856   -0.71017428
     atom  235 type  3   force =    -1.62766486   -1.85947011   -0.71017759
     atom  236 type  3   force =    -1.62767693   -1.85946900   -0.71017892
     atom  237 type  3   force =    -1.62768727   -1.85947632   -0.71016351
     atom  238 type  3   force =    -1.62766873   -1.85948183   -0.71018737
     atom  239 type  3   force =    -1.62768403   -1.85946450   -0.71018403
     atom  240 type  3   force =    -1.62766982   -1.85946374   -0.71018575
     atom  241 type  1   force =     2.09134355    0.30097907   -3.09821503
     atom  242 type  1   force =     2.09126434    0.30101570   -3.09816069
     atom  243 type  1   force =     2.09149163    0.30122078   -3.09823574
     atom  244 type  1   force =     2.09124206    0.30108234   -3.09821545
     atom  245 type  1   force =     2.09122964    0.30105541   -3.09820321
     atom  246 type  1   force =     2.09127829    0.30101601   -3.09839412
     atom  247 type  1   force =     2.09123660    0.30098910   -3.09818342
     atom  248 type  1   force =     2.09130696    0.30098941   -3.09820882
     atom  249 type  1   force =    -0.72446756   12.38531494    1.18114339
     atom  250 type  1   force =    -0.72453688   12.38533460    1.18119512
     atom  251 type  1   force =    -0.72440331   12.38545396    1.18103035
     atom  252 type  1   force =    -0.72456723   12.38540945    1.18114570
     atom  253 type  1   force =    -0.72455248   12.38539931    1.18115237
     atom  254 type  1   force =    -0.72443464   12.38543515    1.18087687
     atom  255 type  1   force =    -0.72453740   12.38533355    1.18117723
     atom  256 type  1   force =    -0.72446953   12.38531219    1.18115774
     atom  257 type  2   force =     1.16483983   -2.48467844   -0.87006947
     atom  258 type  2   force =     1.16470921   -2.48460378   -0.87008067
     atom  259 type  2   force =     1.16502293   -2.48452539   -0.87007424
     atom  260 type  2   force =     1.16470608   -2.48458226   -0.87009782
     atom  261 type  2   force =     1.16464831   -2.48460007   -0.87008568
     atom  262 type  2   force =     1.16472909   -2.48462033   -0.87016340
     atom  263 type  2   force =     1.16466917   -2.48463330   -0.87007657
     atom  264 type  2   force =     1.16473090   -2.48462872   -0.87011822
     atom  265 type  2   force =     0.27007986   -5.07237437   -0.95420465
     atom  266 type  2   force =     0.26999530   -5.07232032   -0.95419117
     atom  267 type  2   force =     0.27021328   -5.07217486   -0.95430203
     atom  268 type  2   force =     0.26998856   -5.07228147   -0.95421952
     atom  269 type  2   force =     0.26994498   -5.07228458   -0.95420754
     atom  270 type  2   force =     0.27003615   -5.07230896   -0.95432148
     atom  271 type  2   force =     0.26997492   -5.07233657   -0.95419245
     atom  272 type  2   force =     0.27002768   -5.07233766   -0.95422619
     atom  273 type  2   force =     5.17683690   -3.24267632    2.48087360
     atom  274 type  2   force =     5.17662907   -3.24250678    2.48075670
     atom  275 type  2   force =     5.17678293   -3.24247655    2.48071979
     atom  276 type  2   force =     5.17662939   -3.24249956    2.48074945
     atom  277 type  2   force =     5.17654204   -3.24252580    2.48077907
     atom  278 type  2   force =     5.17665399   -3.24253012    2.48069442
     atom  279 type  2   force =     5.17659775   -3.24253005    2.48075761
     atom  280 type  2   force =     5.17664649   -3.24253351    2.48072107
     atom  281 type  3   force =     2.07353051   -0.76530536    1.25226454
     atom  282 type  3   force =     2.07349563   -0.76524262    1.25222491
     atom  283 type  3   force =     2.07351885   -0.76523454    1.25221080
     atom  284 type  3   force =     2.07349618   -0.76524015    1.25222232
     atom  285 type  3   force =     2.07346414   -0.76524592    1.25223823
     atom  286 type  3   force =     2.07350459   -0.76524448    1.25220841
     atom  287 type  3   force =     2.07349207   -0.76524620    1.25222426
     atom  288 type  3   force =     2.07350050   -0.76524664    1.25221817
     atom  289 type  2   force =     1.44617234   -5.97991422    0.61190158
     atom  290 type  2   force =     1.44594173   -5.97992642    0.61189600
     atom  291 type  2   force =     1.44613546   -5.98003478    0.61196188
     atom  292 type  2   force =     1.44594092   -5.97993732    0.61190566
     atom  293 type  2   force =     1.44590310   -5.97996553    0.61190804
     atom  294 type  2   force =     1.44595903   -5.97996481    0.61186720
     atom  295 type  2   force =     1.44586946   -5.97994997    0.61191392
     atom  296 type  2   force =     1.44596373   -5.97996625    0.61183980
     atom  297 type  3   force =    -0.02509350   -1.90007079    0.18232926
     atom  298 type  3   force =    -0.02514351   -1.90008700    0.18234213
     atom  299 type  3   force =    -0.02511033   -1.90012065    0.18235377
     atom  300 type  3   force =    -0.02514323   -1.90009252    0.18234693
     atom  301 type  3   force =    -0.02514908   -1.90009824    0.18234693
     atom  302 type  3   force =    -0.02513710   -1.90009704    0.18233835
     atom  303 type  3   force =    -0.02516221   -1.90008904    0.18234794
     atom  304 type  3   force =    -0.02513443   -1.90009413    0.18232354
     atom  305 type  1   force =    -1.47130665   -0.41640167    2.59189474
     atom  306 type  1   force =    -1.47138330   -0.41634269    2.59189484
     atom  307 type  1   force =    -1.47131980   -0.41621946    2.59166092
     atom  308 type  1   force =    -1.47138590   -0.41628583    2.59186384
     atom  309 type  1   force =    -1.47146018   -0.41625275    2.59188305
     atom  310 type  1   force =    -1.47127211   -0.41623276    2.59175443
     atom  311 type  1   force =    -1.47138106   -0.41634325    2.59190587
     atom  312 type  1   force =    -1.47133179   -0.41634608    2.59186176
     atom  313 type  1   force =     4.13261659   12.39091952    0.55449292
     atom  314 type  1   force =     4.13254430   12.39094166    0.55452354
     atom  315 type  1   force =     4.13260671   12.39101463    0.55432095
     atom  316 type  1   force =     4.13253667   12.39100972    0.55448596
     atom  317 type  1   force =     4.13252169   12.39104091    0.55449177
     atom  318 type  1   force =     4.13275225   12.39116009    0.55434298
     atom  319 type  1   force =     4.13256096   12.39095986    0.55452615
     atom  320 type  1   force =     4.13262425   12.39094115    0.55448678
     atom  321 type  2   force =    -2.77020563   -0.33931841   -3.52074449
     atom  322 type  2   force =    -2.77031104   -0.33929245   -3.52072879
     atom  323 type  2   force =    -2.76987695   -0.33931465   -3.52035623
     atom  324 type  2   force =    -2.77031550   -0.33927509   -3.52074187
     atom  325 type  2   force =    -2.77035317   -0.33929706   -3.52074199
     atom  326 type  2   force =    -2.77030381   -0.33931269   -3.52078902
     atom  327 type  2   force =    -2.77038183   -0.33934030   -3.52070920
     atom  328 type  2   force =    -2.77029311   -0.33932430   -3.52076827
     atom  329 type  3   force =    -1.59172726    0.22490829   -1.77778780
     atom  330 type  3   force =    -1.59174365    0.22491248   -1.77778249
     atom  331 type  3   force =    -1.59160210    0.22491776   -1.77755072
     atom  332 type  3   force =    -1.59174579    0.22492067   -1.77778705
     atom  333 type  3   force =    -1.59175219    0.22491343   -1.77778817
     atom  334 type  3   force =    -1.59174308    0.22490997   -1.77779793
     atom  335 type  3   force =    -1.59176201    0.22489695   -1.77777543
     atom  336 type  3   force =    -1.59174049    0.22490523   -1.77779098
     atom  337 type  1   force =    -5.13705375   -4.59011281   -1.62602999
     atom  338 type  1   force =    -5.13720499   -4.59011118   -1.62599883
     atom  339 type  1   force =    -5.13681343   -4.59039083   -1.62565357
     atom  340 type  1   force =    -5.13720694   -4.59010988   -1.62599943
     atom  341 type  1   force =    -5.13724577   -4.59013739   -1.62600047
     atom  342 type  1   force =    -5.13719243   -4.59014556   -1.62604460
     atom  343 type  1   force =    -5.13732130   -4.59016288   -1.62595403
     atom  344 type  1   force =    -5.13717969   -4.59015083   -1.62605680
     atom  345 type  2   force =    -4.89925892    5.09725128    1.83918962
     atom  346 type  2   force =    -4.89893724    5.09718070    1.83859635
     atom  347 type  2   force =    -4.89893681    5.09712541    1.83861871
     atom  348 type  2   force =    -4.89894235    5.09712506    1.83862867
     atom  349 type  2   force =    -4.89901924    5.09699367    1.83869318
     atom  350 type  2   force =    -4.89895041    5.09710171    1.83861741
     atom  351 type  2   force =    -4.89896505    5.09714041    1.83859339
     atom  352 type  2   force =    -4.89896171    5.09712599    1.83859355
     atom  353 type  3   force =     1.85958479   -1.62769834    0.71031841
     atom  354 type  3   force =     1.85946426   -1.62766790    0.71018450
     atom  355 type  3   force =     1.85948845   -1.62767856    0.71018308
     atom  356 type  3   force =     1.85946525   -1.62767327    0.71018832
     atom  357 type  3   force =     1.85944602   -1.62768687    0.71019408
     atom  358 type  3   force =     1.85946913   -1.62768044    0.71017887
     atom  359 type  3   force =     1.85945593   -1.62767458    0.71018454
     atom  360 type  3   force =     1.85946675   -1.62767797    0.71017343
     atom  361 type  1   force =    -2.09126035   -0.30104144   -3.09821337
     atom  362 type  1   force =    -2.09127223   -0.30103926   -3.09817939
     atom  363 type  1   force =    -2.09134711   -0.30074143   -3.09778511
     atom  364 type  1   force =    -2.09128203   -0.30091820   -3.09824108
     atom  365 type  1   force =    -2.09130924   -0.30102416   -3.09823432
     atom  366 type  1   force =    -2.09132230   -0.30104522   -3.09826558
     atom  367 type  1   force =    -2.09135115   -0.30115904   -3.09816963
     atom  368 type  1   force =    -2.09128949   -0.30107755   -3.09819821
     atom  369 type  1   force =     0.72428606  -12.38529819    1.18171647
     atom  370 type  1   force =     0.72452447  -12.38531107    1.18111246
     atom  371 type  1   force =     0.72452318  -12.38536617    1.18113919
     atom  372 type  1   force =     0.72451833  -12.38536453    1.18116738
     atom  373 type  1   force =     0.72438672  -12.38556312    1.18123589
     atom  374 type  1   force =     0.72450069  -12.38539291    1.18115109
     atom  375 type  1   force =     0.72448985  -12.38535529    1.18112380
     atom  376 type  1   force =     0.72448530  -12.38537466    1.18111848
     atom  377 type  2   force =    -1.16472394    2.48480867   -0.87008596
     atom  378 type  2   force =    -1.16482001    2.48482401   -0.86999673
     atom  379 type  2   force =    -1.16470725    2.48459339   -0.87009080
     atom  380 type  2   force =    -1.16471174    2.48459338   -0.87008842
     atom  381 type  2   force =    -1.16473812    2.48454894   -0.87008363
     atom  382 type  2   force =    -1.16473936    2.48451975   -0.87007609
     atom  383 type  2   force =    -1.16474423    2.48460853   -0.87012981
     atom  384 type  2   force =    -1.16473946    2.48461220   -0.87014056
     atom  385 type  2   force =    -0.27013206    5.07260067   -0.95401518
     atom  386 type  2   force =    -0.27002323    5.07245294   -0.95421827
     atom  387 type  2   force =    -0.26999894    5.07229731   -0.95421021
     atom  388 type  2   force =    -0.27000097    5.07229955   -0.95420422
     atom  389 type  2   force =    -0.27004052    5.07222108   -0.95418682
     atom  390 type  2   force =    -0.27002483    5.07225542   -0.95420543
     atom  391 type  2   force =    -0.27003452    5.07231584   -0.95425165
     atom  392 type  2   force =    -0.27003249    5.07231008   -0.95425204
     atom  393 type  2   force =    -5.17664573    3.24261687    2.48073675
     atom  394 type  2   force =    -5.17678600    3.24289114    2.48110809
     atom  395 type  2   force =    -5.17663399    3.24250502    2.48075842
     atom  396 type  2   force =    -5.17662264    3.24250251    2.48074786
     atom  397 type  2   force =    -5.17664586    3.24246644    2.48074913
     atom  398 type  2   force =    -5.17668361    3.24242121    2.48078142
     atom  399 type  2   force =    -5.17666225    3.24251148    2.48070627
     atom  400 type  2   force =    -5.17666429    3.24252213    2.48071679
     atom  401 type  3   force =    -2.07350792    0.76526579    1.25222354
     atom  402 type  3   force =    -2.07347842    0.76537260    1.25229909
     atom  403 type  3   force =    -2.07349868    0.76524073    1.25222688
     atom  404 type  3   force =    -2.07349202    0.76523927    1.25222247
     atom  405 type  3   force =    -2.07349819    0.76522946    1.25222280
     atom  406 type  3   force =    -2.07350946    0.76522658    1.25222989
     atom  407 type  3   force =    -2.07350246    0.76524335    1.25220821
     atom  408 type  3   force =    -2.07350585    0.76524520    1.25221747
     atom  409 type  2   force =    -1.44622518    5.97996861    0.61214369
     atom  410 type  2   force =    -1.44592792    5.97996966    0.61184929
     atom  411 type  2   force =    -1.44595519    5.97993500    0.61189316
     atom  412 type  2   force =    -1.44594499    5.97993383    0.61188980
     atom  413 type  2   force =    -1.44599782    5.97974199    0.61201083
     atom  414 type  2   force =    -1.44596051    5.97992560    0.61189320
     atom  415 type  2   force =    -1.44594938    5.97996218    0.61185199
     atom  416 type  2   force =    -1.44596618    5.97994473    0.61187757
     atom  417 type  3   force =     0.02508012    1.90007344    0.18239026
     atom  418 type  3   force =     0.02514326    1.90009387    0.18233394
     atom  419 type  3   force =     0.02513756    1.90009076    0.18234151
     atom  420 type  3   force =     0.02514057    1.90008984    0.18233993
     atom  421 type  3   force =     0.02512350    1.90002227    0.18240434
     atom  422 type  3   force =     0.02513853    1.90009095    0.18234152
     atom  423 type  3   force =     0.02514395    1.90009552    0.18233410
     atom  424 type  3   force =     0.02513785    1.90009280    0.18234086
     atom  425 type  1   force =     1.47102428    0.41658779    2.59212864
     atom  426 type  1   force =     1.47138334    0.41643759    2.59184299
     atom  427 type  1   force =     1.47136308    0.41629716    2.59188501
     atom  428 type  1   force =     1.47136774    0.41630111    2.59187387
     atom  429 type  1   force =     1.47133117    0.41617743    2.59193517
     atom  430 type  1   force =     1.47134083    0.41626547    2.59187917
     atom  431 type  1   force =     1.47132245    0.41633681    2.59180160
     atom  432 type  1   force =     1.47133511    0.41632254    2.59184067
     atom  433 type  1   force =    -4.13298798  -12.39089424    0.55491642
     atom  434 type  1   force =    -4.13255974  -12.39092640    0.55444812
     atom  435 type  1   force =    -4.13257703  -12.39099133    0.55449364
     atom  436 type  1   force =    -4.13257367  -12.39099161    0.55449416
     atom  437 type  1   force =    -4.13264528  -12.39119150    0.55461810
     atom  438 type  1   force =    -4.13259333  -12.39100946    0.55449060
     atom  439 type  1   force =    -4.13259605  -12.39096398    0.55444097
     atom  440 type  1   force =    -4.13259871  -12.39098167    0.55446863
     atom  441 type  2   force =     2.77039429    0.33945030   -3.52081298
     atom  442 type  2   force =     2.77017652    0.33941653   -3.52066785
     atom  443 type  2   force =     2.77032157    0.33928427   -3.52074243
     atom  444 type  2   force =     2.77030061    0.33928438   -3.52072939
     atom  445 type  2   force =     2.77028149    0.33925864   -3.52072624
     atom  446 type  2   force =     2.77030652    0.33918960   -3.52071926
     atom  447 type  2   force =     2.77027935    0.33930473   -3.52076259
     atom  448 type  2   force =     2.77029755    0.33931716   -3.52080561
     atom  449 type  3   force =     1.59174855   -0.22491669   -1.77778667
     atom  450 type  3   force =     1.59174062   -0.22491599   -1.77778184
     atom  451 type  3   force =     1.59177702   -0.22485050   -1.77781247
     atom  452 type  3   force =     1.59172253   -0.22489153   -1.77777885
     atom  453 type  3   force =     1.59173571   -0.22490947   -1.77779022
     atom  454 type  3   force =     1.59174323   -0.22490716   -1.77780536
     atom  455 type  3   force =     1.59173472   -0.22492198   -1.77778014
     atom  456 type  3   force =     1.59174654   -0.22493304   -1.77778411
     atom  457 type  1   force =     5.13720905    4.59010899   -1.62601264
     atom  458 type  1   force =     5.13718048    4.59010626   -1.62599505
     atom  459 type  1   force =     5.13725321    4.59018053   -1.62609739
     atom  460 type  1   force =     5.13697547    4.59020945   -1.62587028
     atom  461 type  1   force =     5.13717057    4.59013374   -1.62602327
     atom  462 type  1   force =     5.13721124    4.59016110   -1.62608427
     atom  463 type  1   force =     5.13717463    4.59009838   -1.62599287
     atom  464 type  1   force =     5.13721952    4.58991585   -1.62592489
     atom  465 type  2   force =     4.89928475   -5.09721844    1.83882037
     atom  466 type  2   force =     4.89893939   -5.09711362    1.83862627
     atom  467 type  2   force =     4.89908705   -5.09714827    1.83862596
     atom  468 type  2   force =     4.89893948   -5.09712160    1.83863317
     atom  469 type  2   force =     4.89886811   -5.09716000    1.83864958
     atom  470 type  2   force =     4.89895739   -5.09715307    1.83859001
     atom  471 type  2   force =     4.89889384   -5.09713835    1.83862996
     atom  472 type  2   force =     4.89895250   -5.09714933    1.83858111
     atom  473 type  3   force =    -1.85952268    1.62765007    0.71039869
     atom  474 type  3   force =    -1.85946732    1.62768300    0.71018115
     atom  475 type  3   force =    -1.85946019    1.62767334    0.71018194
     atom  476 type  3   force =    -1.85946658    1.62767406    0.71018675
     atom  477 type  3   force =    -1.85949340    1.62764535    0.71020453
     atom  478 type  3   force =    -1.85946623    1.62766869    0.71018140
     atom  479 type  3   force =    -1.85947197    1.62767558    0.71018038
     atom  480 type  3   force =    -1.85946892    1.62767261    0.71017733
     atom  481 type  4   force =     0.00016631   -0.00006369   -0.00004299
     atom  482 type  4   force =     0.00001956   -0.00002155    0.00030517
     atom  483 type  4   force =     0.00039616    0.00060692    0.00070739
     atom  484 type  4   force =    -0.00008593    0.00034347   -0.00010082
     atom  485 type  4   force =    -0.00010965    0.00002562    0.00001943
     atom  486 type  4   force =    -0.00031039   -0.00024358   -0.00042582
     atom  487 type  4   force =    -0.00025409   -0.00031428    0.00006425
     atom  488 type  4   force =     0.00001085   -0.00015088    0.00007874
     atom  489 type  4   force =     0.00004717   -0.00035768    0.00026659
     atom  490 type  4   force =    -0.00007911   -0.00017934    0.00006797
     atom  491 type  4   force =    -0.00040565    0.00016160   -0.00058209
     atom  492 type  4   force =    -0.00005857    0.00007244   -0.00001235
     atom  493 type  4   force =    -0.00088904    0.00069947    0.00005399
     atom  494 type  4   force =     0.00016444    0.00037602   -0.00001473
     atom  495 type  4   force =    -0.00000061   -0.00010707    0.00022719
     atom  496 type  4   force =     0.00005114   -0.00009169    0.00001575
     The core correction contribution to forces
     atom    1 type  1   force =    -0.00311520    0.00438512    0.00260956
     atom    2 type  1   force =    -0.00311521    0.00438514    0.00260958
     atom    3 type  1   force =    -0.00311517    0.00438502    0.00260947
     atom    4 type  1   force =    -0.00311528    0.00438525    0.00260961
     atom    5 type  1   force =    -0.00311519    0.00438512    0.00260955
     atom    6 type  1   force =    -0.00311566    0.00438487    0.00260926
     atom    7 type  1   force =    -0.00311521    0.00438513    0.00260957
     atom    8 type  1   force =    -0.00311520    0.00438515    0.00260958
     atom    9 type  1   force =     0.01340073    0.00481508    0.00489607
     atom   10 type  1   force =     0.01340073    0.00481508    0.00489608
     atom   11 type  1   force =     0.01340077    0.00481519    0.00489607
     atom   12 type  1   force =     0.01340074    0.00481506    0.00489607
     atom   13 type  1   force =     0.01340049    0.00481505    0.00489603
     atom   14 type  1   force =     0.01340072    0.00481506    0.00489607
     atom   15 type  1   force =     0.01340076    0.00481510    0.00489610
     atom   16 type  1   force =     0.01340074    0.00481509    0.00489608
     atom   17 type  2   force =    -0.00643119    0.00179767    0.00006800
     atom   18 type  2   force =    -0.00643119    0.00179765    0.00006806
     atom   19 type  2   force =    -0.00643123    0.00179768    0.00006803
     atom   20 type  2   force =    -0.00643118    0.00179765    0.00006795
     atom   21 type  2   force =    -0.00643375    0.00179431    0.00006630
     atom   22 type  2   force =    -0.00643120    0.00179764    0.00006801
     atom   23 type  2   force =    -0.00643117    0.00179771    0.00006802
     atom   24 type  2   force =    -0.00643116    0.00179763    0.00006799
     atom   25 type  2   force =     0.00302120   -0.00019472    0.00027348
     atom   26 type  2   force =     0.00302123   -0.00019477    0.00027352
     atom   27 type  2   force =     0.00302105   -0.00019465    0.00027355
     atom   28 type  2   force =     0.00302119   -0.00019483    0.00027350
     atom   29 type  2   force =     0.00301951   -0.00019491    0.00027396
     atom   30 type  2   force =     0.00302126   -0.00019477    0.00027354
     atom   31 type  2   force =     0.00302125   -0.00019476    0.00027355
     atom   32 type  2   force =     0.00302124   -0.00019477    0.00027352
     atom   33 type  2   force =    -0.00234498    0.00277575    0.00031087
     atom   34 type  2   force =    -0.00233792    0.00277918    0.00032850
     atom   35 type  2   force =    -0.00233796    0.00277922    0.00032853
     atom   36 type  2   force =    -0.00233795    0.00277916    0.00032845
     atom   37 type  2   force =    -0.00233798    0.00277917    0.00032855
     atom   38 type  2   force =    -0.00233794    0.00277915    0.00032852
     atom   39 type  2   force =    -0.00233791    0.00277918    0.00032852
     atom   40 type  2   force =    -0.00233795    0.00277915    0.00032850
     atom   41 type  3   force =     0.00000000    0.00000000    0.00000000
     atom   42 type  3   force =     0.00000000    0.00000000    0.00000000
     atom   43 type  3   force =     0.00000000    0.00000000    0.00000000
     atom   44 type  3   force =     0.00000000    0.00000000    0.00000000
     atom   45 type  3   force =     0.00000000    0.00000000    0.00000000
     atom   46 type  3   force =     0.00000000    0.00000000    0.00000000
     atom   47 type  3   force =     0.00000000    0.00000000    0.00000000
     atom   48 type  3   force =     0.00000000    0.00000000    0.00000000
     atom   49 type  2   force =     0.00087686   -0.00158147    0.00036856
     atom   50 type  2   force =     0.00087753   -0.00157222    0.00038509
     atom   51 type  2   force =     0.00087744   -0.00157214    0.00038511
     atom   52 type  2   force =     0.00087746   -0.00157222    0.00038512
     atom   53 type  2   force =     0.00087749   -0.00157216    0.00038513
     atom   54 type  2   force =     0.00087746   -0.00157223    0.00038514
     atom   55 type  2   force =     0.00087732   -0.00157216    0.00038513
     atom   56 type  2   force =     0.00087745   -0.00157219    0.00038517
     atom   57 type  3   force =     0.00000000    0.00000000    0.00000000
     atom   58 type  3   force =     0.00000000    0.00000000    0.00000000
     atom   59 type  3   force =     0.00000000    0.00000000    0.00000000
     atom   60 type  3   force =     0.00000000    0.00000000    0.00000000
     atom   61 type  3   force =     0.00000000    0.00000000    0.00000000
     atom   62 type  3   force =     0.00000000    0.00000000    0.00000000
     atom   63 type  3   force =     0.00000000    0.00000000    0.00000000
     atom   64 type  3   force =     0.00000000    0.00000000    0.00000000
     atom   65 type  1   force =    -0.00325624   -0.00412425   -0.00297489
     atom   66 type  1   force =    -0.00325623   -0.00412430   -0.00297491
     atom   67 type  1   force =    -0.00325626   -0.00412422   -0.00297488
     atom   68 type  1   force =    -0.00325626   -0.00412433   -0.00297495
     atom   69 type  1   force =    -0.00325630   -0.00412401   -0.00297464
     atom   70 type  1   force =    -0.00325623   -0.00412429   -0.00297493
     atom   71 type  1   force =    -0.00325621   -0.00412424   -0.00297488
     atom   72 type  1   force =    -0.00325623   -0.00412427   -0.00297490
     atom   73 type  1   force =     0.01284249   -0.00666364   -0.00256026
     atom   74 type  1   force =     0.01284250   -0.00666366   -0.00256027
     atom   75 type  1   force =     0.01284241   -0.00666353   -0.00256016
     atom   76 type  1   force =     0.01284253   -0.00666370   -0.00256028
     atom   77 type  1   force =     0.01284236   -0.00666355   -0.00256025
     atom   78 type  1   force =     0.01284251   -0.00666366   -0.00256027
     atom   79 type  1   force =     0.01284250   -0.00666364   -0.00256026
     atom   80 type  1   force =     0.01284250   -0.00666365   -0.00256027
     atom   81 type  2   force =    -0.00172110   -0.00232279    0.00022352
     atom   82 type  2   force =    -0.00172112   -0.00232288    0.00022360
     atom   83 type  2   force =    -0.00172113   -0.00232281    0.00022359
     atom   84 type  2   force =    -0.00172117   -0.00232291    0.00022366
     atom   85 type  2   force =    -0.00172229   -0.00232385    0.00021980
     atom   86 type  2   force =    -0.00172110   -0.00232283    0.00022359
     atom   87 type  2   force =    -0.00172112   -0.00232288    0.00022365
     atom   88 type  2   force =    -0.00172110   -0.00232287    0.00022356
     atom   89 type  3   force =     0.00000000    0.00000000    0.00000000
     atom   90 type  3   force =     0.00000000    0.00000000    0.00000000
     atom   91 type  3   force =     0.00000000    0.00000000    0.00000000
     atom   92 type  3   force =     0.00000000    0.00000000    0.00000000
     atom   93 type  3   force =     0.00000000    0.00000000    0.00000000
     atom   94 type  3   force =     0.00000000    0.00000000    0.00000000
     atom   95 type  3   force =     0.00000000    0.00000000    0.00000000
     atom   96 type  3   force =     0.00000000    0.00000000    0.00000000
     atom   97 type  1   force =    -0.00403857    0.01083130   -0.00097751
     atom   98 type  1   force =    -0.00403855    0.01083134   -0.00097753
     atom   99 type  1   force =    -0.00403859    0.01083131   -0.00097754
     atom  100 type  1   force =    -0.00403861    0.01083134   -0.00097751
     atom  101 type  1   force =    -0.00403855    0.01083131   -0.00097751
     atom  102 type  1   force =    -0.00403763    0.01082945   -0.00097975
     atom  103 type  1   force =    -0.00403857    0.01083131   -0.00097751
     atom  104 type  1   force =    -0.00403858    0.01083134   -0.00097751
     atom  105 type  2   force =    -0.00229135   -0.00380141   -0.00000073
     atom  106 type  2   force =    -0.00229027   -0.00380058   -0.00000106
     atom  107 type  2   force =    -0.00229032   -0.00380055   -0.00000104
     atom  108 type  2   force =    -0.00229031   -0.00380056   -0.00000111
     atom  109 type  2   force =    -0.00229020   -0.00380052   -0.00000107
     atom  110 type  2   force =    -0.00229023   -0.00380065   -0.00000105
     atom  111 type  2   force =    -0.00229036   -0.00380052   -0.00000108
     atom  112 type  2   force =    -0.00229025   -0.00380055   -0.00000109
     atom  113 type  3   force =     0.00000000    0.00000000    0.00000000
     atom  114 type  3   force =     0.00000000    0.00000000    0.00000000
     atom  115 type  3   force =     0.00000000    0.00000000    0.00000000
     atom  116 type  3   force =     0.00000000    0.00000000    0.00000000
     atom  117 type  3   force =     0.00000000    0.00000000    0.00000000
     atom  118 type  3   force =     0.00000000    0.00000000    0.00000000
     atom  119 type  3   force =     0.00000000    0.00000000    0.00000000
     atom  120 type  3   force =     0.00000000    0.00000000    0.00000000
     atom  121 type  1   force =     0.00311523   -0.00438516    0.00260956
     atom  122 type  1   force =     0.00311520   -0.00438513    0.00260954
     atom  123 type  1   force =     0.00311519   -0.00438504    0.00260948
     atom  124 type  1   force =     0.00311522   -0.00438511    0.00260957
     atom  125 type  1   force =     0.00311519   -0.00438513    0.00260956
     atom  126 type  1   force =     0.00311519   -0.00438518    0.00260957
     atom  127 type  1   force =     0.00311522   -0.00438516    0.00260959
     atom  128 type  1   force =     0.00311521   -0.00438514    0.00260957
     atom  129 type  1   force =    -0.01340073   -0.00481512    0.00489606
     atom  130 type  1   force =    -0.01340073   -0.00481508    0.00489607
     atom  131 type  1   force =    -0.01340069   -0.00481504    0.00489606
     atom  132 type  1   force =    -0.01340073   -0.00481510    0.00489608
     atom  133 type  1   force =    -0.01340073   -0.00481508    0.00489608
     atom  134 type  1   force =    -0.01340084   -0.00481517    0.00489615
     atom  135 type  1   force =    -0.01340073   -0.00481511    0.00489609
     atom  136 type  1   force =    -0.01340073   -0.00481509    0.00489609
     atom  137 type  2   force =     0.00643123   -0.00179762    0.00006804
     atom  138 type  2   force =     0.00643116   -0.00179769    0.00006799
     atom  139 type  2   force =     0.00643127   -0.00179764    0.00006795
     atom  140 type  2   force =     0.00643125   -0.00179757    0.00006800
     atom  141 type  2   force =     0.00643119   -0.00179765    0.00006800
     atom  142 type  2   force =     0.00643114   -0.00179764    0.00006803
     atom  143 type  2   force =     0.00643142   -0.00179736    0.00006801
     atom  144 type  2   force =     0.00643118   -0.00179768    0.00006803
     atom  145 type  2   force =    -0.00302116    0.00019471    0.00027354
     atom  146 type  2   force =    -0.00302126    0.00019477    0.00027348
     atom  147 type  2   force =    -0.00302115    0.00019481    0.00027354
     atom  148 type  2   force =    -0.00302120    0.00019481    0.00027357
     atom  149 type  2   force =    -0.00302123    0.00019482    0.00027351
     atom  150 type  2   force =    -0.00302127    0.00019474    0.00027358
     atom  151 type  2   force =    -0.00302126    0.00019471    0.00027353
     atom  152 type  2   force =    -0.00302125    0.00019479    0.00027356
     atom  153 type  2   force =     0.00233794   -0.00277915    0.00032850
     atom  154 type  2   force =     0.00233794   -0.00277920    0.00032850
     atom  155 type  2   force =     0.00233786   -0.00277916    0.00032863
     atom  156 type  2   force =     0.00233798   -0.00277919    0.00032849
     atom  157 type  2   force =     0.00233794   -0.00277914    0.00032851
     atom  158 type  2   force =     0.00233796   -0.00277918    0.00032853
     atom  159 type  2   force =     0.00233794   -0.00277914    0.00032851
     atom  160 type  2   force =     0.00233805   -0.00277919    0.00032852
     atom  161 type  3   force =     0.00000000    0.00000000    0.00000000
     atom  162 type  3   force =     0.00000000    0.00000000    0.00000000
     atom  163 type  3   force =     0.00000000    0.00000000    0.00000000
     atom  164 type  3   force =     0.00000000    0.00000000    0.00000000
     atom  165 type  3   force =     0.00000000    0.00000000    0.00000000
     atom  166 type  3   force =     0.00000000    0.00000000    0.00000000
     atom  167 type  3   force =     0.00000000    0.00000000    0.00000000
     atom  168 type  3   force =     0.00000000    0.00000000    0.00000000
     atom  169 type  2   force =    -0.00087752    0.00157223    0.00038502
     atom  170 type  2   force =    -0.00087741    0.00157216    0.00038509
     atom  171 type  2   force =    -0.00087752    0.00157218    0.00038507
     atom  172 type  2   force =    -0.00087757    0.00157220    0.00038508
     atom  173 type  2   force =    -0.00087741    0.00157217    0.00038505
     atom  174 type  2   force =    -0.00087697    0.00157204    0.00038511
     atom  175 type  2   force =    -0.00087750    0.00157218    0.00038511
     atom  176 type  2   force =    -0.00087747    0.00157216    0.00038509
     atom  177 type  3   force =     0.00000000    0.00000000    0.00000000
     atom  178 type  3   force =     0.00000000    0.00000000    0.00000000
     atom  179 type  3   force =     0.00000000    0.00000000    0.00000000
     atom  180 type  3   force =     0.00000000    0.00000000    0.00000000
     atom  181 type  3   force =     0.00000000    0.00000000    0.00000000
     atom  182 type  3   force =     0.00000000    0.00000000    0.00000000
     atom  183 type  3   force =     0.00000000    0.00000000    0.00000000
     atom  184 type  3   force =     0.00000000    0.00000000    0.00000000
     atom  185 type  1   force =     0.00325631    0.00412431   -0.00297491
     atom  186 type  1   force =     0.00325622    0.00412428   -0.00297492
     atom  187 type  1   force =     0.00325627    0.00412434   -0.00297494
     atom  188 type  1   force =     0.00325625    0.00412424   -0.00297489
     atom  189 type  1   force =     0.00325622    0.00412428   -0.00297490
     atom  190 type  1   force =     0.00325619    0.00412420   -0.00297485
     atom  191 type  1   force =     0.00325622    0.00412419   -0.00297482
     atom  192 type  1   force =     0.00325622    0.00412425   -0.00297489
     atom  193 type  1   force =    -0.01284241    0.00666360   -0.00256023
     atom  194 type  1   force =    -0.01284250    0.00666365   -0.00256027
     atom  195 type  1   force =    -0.01284252    0.00666370   -0.00256027
     atom  196 type  1   force =    -0.01284249    0.00666365   -0.00256027
     atom  197 type  1   force =    -0.01284250    0.00666364   -0.00256027
     atom  198 type  1   force =    -0.01284247    0.00666361   -0.00256022
     atom  199 type  1   force =    -0.01284250    0.00666364   -0.00256027
     atom  200 type  1   force =    -0.01284249    0.00666365   -0.00256026
     atom  201 type  2   force =     0.00172105    0.00232287    0.00022361
     atom  202 type  2   force =     0.00172112    0.00232287    0.00022367
     atom  203 type  2   force =     0.00172114    0.00232290    0.00022363
     atom  204 type  2   force =     0.00172131    0.00232294    0.00022366
     atom  205 type  2   force =     0.00172110    0.00232286    0.00022361
     atom  206 type  2   force =     0.00172103    0.00232278    0.00022363
     atom  207 type  2   force =     0.00172113    0.00232304    0.00022355
     atom  208 type  2   force =     0.00172116    0.00232288    0.00022357
     atom  209 type  3   force =     0.00000000    0.00000000    0.00000000
     atom  210 type  3   force =     0.00000000    0.00000000    0.00000000
     atom  211 type  3   force =     0.00000000    0.00000000    0.00000000
     atom  212 type  3   force =     0.00000000    0.00000000    0.00000000
     atom  213 type  3   force =     0.00000000    0.00000000    0.00000000
     atom  214 type  3   force =     0.00000000    0.00000000    0.00000000
     atom  215 type  3   force =     0.00000000    0.00000000    0.00000000
     atom  216 type  3   force =     0.00000000    0.00000000    0.00000000
     atom  217 type  1   force =     0.00403858   -0.01083132   -0.00097750
     atom  218 type  1   force =     0.00403856   -0.01083132   -0.00097752
     atom  219 type  1   force =     0.00403859   -0.01083133   -0.00097751
     atom  220 type  1   force =     0.00403867   -0.01083137   -0.00097751
     atom  221 type  1   force =     0.00403856   -0.01083133   -0.00097752
     atom  222 type  1   force =     0.00403854   -0.01083133   -0.00097751
     atom  223 type  1   force =     0.00403851   -0.01083136   -0.00097753
     atom  224 type  1   force =     0.00403858   -0.01083133   -0.00097751
     atom  225 type  2   force =     0.00198110    0.00345298   -0.00000448
     atom  226 type  2   force =     0.00229026    0.00380055   -0.00000103
     atom  227 type  2   force =     0.00229024    0.00380061   -0.00000111
     atom  228 type  2   force =     0.00229028    0.00380053   -0.00000107
     atom  229 type  2   force =     0.00229023    0.00380057   -0.00000106
     atom  230 type  2   force =     0.00229026    0.00380051   -0.00000109
     atom  231 type  2   force =     0.00229013    0.00380051   -0.00000107
     atom  232 type  2   force =     0.00229022    0.00380051   -0.00000107
     atom  233 type  3   force =     0.00000000    0.00000000    0.00000000
     atom  234 type  3   force =     0.00000000    0.00000000    0.00000000
     atom  235 type  3   force =     0.00000000    0.00000000    0.00000000
     atom  236 type  3   force =     0.00000000    0.00000000    0.00000000
     atom  237 type  3   force =     0.00000000    0.00000000    0.00000000
     atom  238 type  3   force =     0.00000000    0.00000000    0.00000000
     atom  239 type  3   force =     0.00000000    0.00000000    0.00000000
     atom  240 type  3   force =     0.00000000    0.00000000    0.00000000
     atom  241 type  1   force =     0.00438512    0.00311520   -0.00260956
     atom  242 type  1   force =     0.00438513    0.00311520   -0.00260956
     atom  243 type  1   force =     0.00438507    0.00311512   -0.00260973
     atom  244 type  1   force =     0.00438517    0.00311519   -0.00260957
     atom  245 type  1   force =     0.00438513    0.00311521   -0.00260956
     atom  246 type  1   force =     0.00438516    0.00311519   -0.00260962
     atom  247 type  1   force =     0.00438515    0.00311521   -0.00260957
     atom  248 type  1   force =     0.00438516    0.00311521   -0.00260957
     atom  249 type  1   force =     0.00481508   -0.01340074   -0.00489608
     atom  250 type  1   force =     0.00481508   -0.01340074   -0.00489607
     atom  251 type  1   force =     0.00481510   -0.01340085   -0.00489611
     atom  252 type  1   force =     0.00481508   -0.01340076   -0.00489608
     atom  253 type  1   force =     0.00481509   -0.01340073   -0.00489609
     atom  254 type  1   force =     0.00481514   -0.01340081   -0.00489611
     atom  255 type  1   force =     0.00481510   -0.01340074   -0.00489609
     atom  256 type  1   force =     0.00481508   -0.01340071   -0.00489608
     atom  257 type  2   force =     0.00179763    0.00643119   -0.00006797
     atom  258 type  2   force =     0.00179765    0.00643117   -0.00006805
     atom  259 type  2   force =     0.00179723    0.00643120   -0.00006842
     atom  260 type  2   force =     0.00179768    0.00643117   -0.00006802
     atom  261 type  2   force =     0.00179758    0.00643121   -0.00006798
     atom  262 type  2   force =     0.00179765    0.00643113   -0.00006804
     atom  263 type  2   force =     0.00179768    0.00643122   -0.00006800
     atom  264 type  2   force =     0.00179765    0.00643119   -0.00006801
     atom  265 type  2   force =    -0.00019476   -0.00302121   -0.00027352
     atom  266 type  2   force =    -0.00019479   -0.00302127   -0.00027350
     atom  267 type  2   force =    -0.00019474   -0.00302148   -0.00027341
     atom  268 type  2   force =    -0.00019476   -0.00302124   -0.00027351
     atom  269 type  2   force =    -0.00019473   -0.00302120   -0.00027355
     atom  270 type  2   force =    -0.00019465   -0.00302118   -0.00027347
     atom  271 type  2   force =    -0.00019475   -0.00302120   -0.00027353
     atom  272 type  2   force =    -0.00019474   -0.00302127   -0.00027354
     atom  273 type  2   force =     0.00277912    0.00233810   -0.00032859
     atom  274 type  2   force =     0.00277917    0.00233790   -0.00032847
     atom  275 type  2   force =     0.00277878    0.00233808   -0.00032858
     atom  276 type  2   force =     0.00277913    0.00233795   -0.00032855
     atom  277 type  2   force =     0.00277925    0.00233801   -0.00032857
     atom  278 type  2   force =     0.00277917    0.00233797   -0.00032852
     atom  279 type  2   force =     0.00277914    0.00233797   -0.00032847
     atom  280 type  2   force =     0.00277914    0.00233791   -0.00032855
     atom  281 type  3   force =     0.00000000    0.00000000    0.00000000
     atom  282 type  3   force =     0.00000000    0.00000000    0.00000000
     atom  283 type  3   force =     0.00000000    0.00000000    0.00000000
     atom  284 type  3   force =     0.00000000    0.00000000    0.00000000
     atom  285 type  3   force =     0.00000000    0.00000000    0.00000000
     atom  286 type  3   force =     0.00000000    0.00000000    0.00000000
     atom  287 type  3   force =     0.00000000    0.00000000    0.00000000
     atom  288 type  3   force =     0.00000000    0.00000000    0.00000000
     atom  289 type  2   force =    -0.00157227   -0.00087745   -0.00038517
     atom  290 type  2   force =    -0.00157219   -0.00087747   -0.00038511
     atom  291 type  2   force =    -0.00157231   -0.00087700   -0.00038517
     atom  292 type  2   force =    -0.00157220   -0.00087755   -0.00038512
     atom  293 type  2   force =    -0.00157215   -0.00087749   -0.00038513
     atom  294 type  2   force =    -0.00157220   -0.00087751   -0.00038510
     atom  295 type  2   force =    -0.00157221   -0.00087744   -0.00038508
     atom  296 type  2   force =    -0.00157219   -0.00087760   -0.00038513
     atom  297 type  3   force =     0.00000000    0.00000000    0.00000000
     atom  298 type  3   force =     0.00000000    0.00000000    0.00000000
     atom  299 type  3   force =     0.00000000    0.00000000    0.00000000
     atom  300 type  3   force =     0.00000000    0.00000000    0.00000000
     atom  301 type  3   force =     0.00000000    0.00000000    0.00000000
     atom  302 type  3   force =     0.00000000    0.00000000    0.00000000
     atom  303 type  3   force =     0.00000000    0.00000000    0.00000000
     atom  304 type  3   force =     0.00000000    0.00000000    0.00000000
     atom  305 type  1   force =    -0.00412426    0.00325624    0.00297490
     atom  306 type  1   force =    -0.00412427    0.00325624    0.00297490
     atom  307 type  1   force =    -0.00412447    0.00325621    0.00297497
     atom  308 type  1   force =    -0.00412425    0.00325621    0.00297488
     atom  309 type  1   force =    -0.00412425    0.00325625    0.00297492
     atom  310 type  1   force =    -0.00412421    0.00325619    0.00297486
     atom  311 type  1   force =    -0.00412424    0.00325623    0.00297488
     atom  312 type  1   force =    -0.00412427    0.00325624    0.00297491
     atom  313 type  1   force =    -0.00666365   -0.01284249    0.00256026
     atom  314 type  1   force =    -0.00666366   -0.01284252    0.00256027
     atom  315 type  1   force =    -0.00666375   -0.01284263    0.00256032
     atom  316 type  1   force =    -0.00666365   -0.01284251    0.00256026
     atom  317 type  1   force =    -0.00666364   -0.01284246    0.00256026
     atom  318 type  1   force =    -0.00666361   -0.01284250    0.00256027
     atom  319 type  1   force =    -0.00666363   -0.01284248    0.00256026
     atom  320 type  1   force =    -0.00666363   -0.01284249    0.00256026
     atom  321 type  2   force =    -0.00232288    0.00172110   -0.00022358
     atom  322 type  2   force =    -0.00232291    0.00172111   -0.00022354
     atom  323 type  2   force =    -0.00232412    0.00172211   -0.00022381
     atom  324 type  2   force =    -0.00232283    0.00172110   -0.00022363
     atom  325 type  2   force =    -0.00232289    0.00172112   -0.00022359
     atom  326 type  2   force =    -0.00232287    0.00172110   -0.00022357
     atom  327 type  2   force =    -0.00232288    0.00172116   -0.00022364
     atom  328 type  2   force =    -0.00232286    0.00172110   -0.00022359
     atom  329 type  3   force =     0.00000000    0.00000000    0.00000000
     atom  330 type  3   force =     0.00000000    0.00000000    0.00000000
     atom  331 type  3   force =     0.00000000    0.00000000    0.00000000
     atom  332 type  3   force =     0.00000000    0.00000000    0.00000000
     atom  333 type  3   force =     0.00000000    0.00000000    0.00000000
     atom  334 type  3   force =     0.00000000    0.00000000    0.00000000
     atom  335 type  3   force =     0.00000000    0.00000000    0.00000000
     atom  336 type  3   force =     0.00000000    0.00000000    0.00000000
     atom  337 type  1   force =     0.01083130    0.00403859    0.00097751
     atom  338 type  1   force =     0.01083132    0.00403857    0.00097751
     atom  339 type  1   force =     0.01083154    0.00403898    0.00097760
     atom  340 type  1   force =     0.01083133    0.00403857    0.00097751
     atom  341 type  1   force =     0.01083130    0.00403857    0.00097751
     atom  342 type  1   force =     0.01083129    0.00403855    0.00097750
     atom  343 type  1   force =     0.01083137    0.00403859    0.00097751
     atom  344 type  1   force =     0.01083131    0.00403855    0.00097752
     atom  345 type  2   force =    -0.00379988    0.00229017    0.00000042
     atom  346 type  2   force =    -0.00380048    0.00229016    0.00000106
     atom  347 type  2   force =    -0.00380066    0.00229038    0.00000101
     atom  348 type  2   force =    -0.00380053    0.00229024    0.00000106
     atom  349 type  2   force =    -0.00380049    0.00229021    0.00000106
     atom  350 type  2   force =    -0.00380054    0.00229023    0.00000111
     atom  351 type  2   force =    -0.00380064    0.00229027    0.00000112
     atom  352 type  2   force =    -0.00380057    0.00229020    0.00000108
     atom  353 type  3   force =     0.00000000    0.00000000    0.00000000
     atom  354 type  3   force =     0.00000000    0.00000000    0.00000000
     atom  355 type  3   force =     0.00000000    0.00000000    0.00000000
     atom  356 type  3   force =     0.00000000    0.00000000    0.00000000
     atom  357 type  3   force =     0.00000000    0.00000000    0.00000000
     atom  358 type  3   force =     0.00000000    0.00000000    0.00000000
     atom  359 type  3   force =     0.00000000    0.00000000    0.00000000
     atom  360 type  3   force =     0.00000000    0.00000000    0.00000000
     atom  361 type  1   force =    -0.00438515   -0.00311520   -0.00260958
     atom  362 type  1   force =    -0.00438515   -0.00311521   -0.00260958
     atom  363 type  1   force =    -0.00438493   -0.00311514   -0.00260974
     atom  364 type  1   force =    -0.00438509   -0.00311521   -0.00260954
     atom  365 type  1   force =    -0.00438517   -0.00311522   -0.00260959
     atom  366 type  1   force =    -0.00438522   -0.00311524   -0.00260962
     atom  367 type  1   force =    -0.00438512   -0.00311519   -0.00260956
     atom  368 type  1   force =    -0.00438512   -0.00311521   -0.00260955
     atom  369 type  1   force =    -0.00481498    0.01340073   -0.00489611
     atom  370 type  1   force =    -0.00481507    0.01340072   -0.00489607
     atom  371 type  1   force =    -0.00481509    0.01340076   -0.00489609
     atom  372 type  1   force =    -0.00481510    0.01340074   -0.00489608
     atom  373 type  1   force =    -0.00481510    0.01340076   -0.00489609
     atom  374 type  1   force =    -0.00481506    0.01340072   -0.00489607
     atom  375 type  1   force =    -0.00481511    0.01340076   -0.00489611
     atom  376 type  1   force =    -0.00481511    0.01340073   -0.00489608
     atom  377 type  2   force =    -0.00179755   -0.00643134   -0.00006809
     atom  378 type  2   force =    -0.00179761   -0.00643127   -0.00006799
     atom  379 type  2   force =    -0.00179768   -0.00643118   -0.00006798
     atom  380 type  2   force =    -0.00179772   -0.00643115   -0.00006804
     atom  381 type  2   force =    -0.00179765   -0.00643119   -0.00006801
     atom  382 type  2   force =    -0.00179762   -0.00643125   -0.00006803
     atom  383 type  2   force =    -0.00179767   -0.00643121   -0.00006802
     atom  384 type  2   force =    -0.00179767   -0.00643119   -0.00006804
     atom  385 type  2   force =     0.00019496    0.00302123   -0.00027356
     atom  386 type  2   force =     0.00019478    0.00302112   -0.00027352
     atom  387 type  2   force =     0.00019474    0.00302121   -0.00027352
     atom  388 type  2   force =     0.00019479    0.00302124   -0.00027359
     atom  389 type  2   force =     0.00019476    0.00302126   -0.00027355
     atom  390 type  2   force =     0.00019481    0.00302121   -0.00027354
     atom  391 type  2   force =     0.00019478    0.00302118   -0.00027355
     atom  392 type  2   force =     0.00019471    0.00302120   -0.00027353
     atom  393 type  2   force =    -0.00277899   -0.00233807   -0.00032855
     atom  394 type  2   force =    -0.00277910   -0.00233813   -0.00032866
     atom  395 type  2   force =    -0.00277919   -0.00233800   -0.00032856
     atom  396 type  2   force =    -0.00277919   -0.00233793   -0.00032851
     atom  397 type  2   force =    -0.00277917   -0.00233796   -0.00032852
     atom  398 type  2   force =    -0.00277912   -0.00233796   -0.00032851
     atom  399 type  2   force =    -0.00277926   -0.00233795   -0.00032850
     atom  400 type  2   force =    -0.00277923   -0.00233794   -0.00032853
     atom  401 type  3   force =     0.00000000    0.00000000    0.00000000
     atom  402 type  3   force =     0.00000000    0.00000000    0.00000000
     atom  403 type  3   force =     0.00000000    0.00000000    0.00000000
     atom  404 type  3   force =     0.00000000    0.00000000    0.00000000
     atom  405 type  3   force =     0.00000000    0.00000000    0.00000000
     atom  406 type  3   force =     0.00000000    0.00000000    0.00000000
     atom  407 type  3   force =     0.00000000    0.00000000    0.00000000
     atom  408 type  3   force =     0.00000000    0.00000000    0.00000000
     atom  409 type  2   force =     0.00157230    0.00087751   -0.00038511
     atom  410 type  2   force =     0.00157220    0.00087736   -0.00038507
     atom  411 type  2   force =     0.00157221    0.00087750   -0.00038512
     atom  412 type  2   force =     0.00157218    0.00087748   -0.00038511
     atom  413 type  2   force =     0.00157223    0.00087753   -0.00038511
     atom  414 type  2   force =     0.00157218    0.00087746   -0.00038507
     atom  415 type  2   force =     0.00157216    0.00087750   -0.00038512
     atom  416 type  2   force =     0.00157216    0.00087746   -0.00038513
     atom  417 type  3   force =     0.00000000    0.00000000    0.00000000
     atom  418 type  3   force =     0.00000000    0.00000000    0.00000000
     atom  419 type  3   force =     0.00000000    0.00000000    0.00000000
     atom  420 type  3   force =     0.00000000    0.00000000    0.00000000
     atom  421 type  3   force =     0.00000000    0.00000000    0.00000000
     atom  422 type  3   force =     0.00000000    0.00000000    0.00000000
     atom  423 type  3   force =     0.00000000    0.00000000    0.00000000
     atom  424 type  3   force =     0.00000000    0.00000000    0.00000000
     atom  425 type  1   force =     0.00412453   -0.00325628    0.00297507
     atom  426 type  1   force =     0.00412426   -0.00325627    0.00297488
     atom  427 type  1   force =     0.00412424   -0.00325622    0.00297487
     atom  428 type  1   force =     0.00412425   -0.00325624    0.00297490
     atom  429 type  1   force =     0.00412426   -0.00325624    0.00297491
     atom  430 type  1   force =     0.00412427   -0.00325625    0.00297492
     atom  431 type  1   force =     0.00412419   -0.00325621    0.00297487
     atom  432 type  1   force =     0.00412421   -0.00325622    0.00297485
     atom  433 type  1   force =     0.00666384    0.01284270    0.00256037
     atom  434 type  1   force =     0.00666365    0.01284247    0.00256026
     atom  435 type  1   force =     0.00666365    0.01284251    0.00256027
     atom  436 type  1   force =     0.00666365    0.01284250    0.00256027
     atom  437 type  1   force =     0.00666368    0.01284254    0.00256026
     atom  438 type  1   force =     0.00666364    0.01284248    0.00256027
     atom  439 type  1   force =     0.00666360    0.01284246    0.00256024
     atom  440 type  1   force =     0.00666361    0.01284246    0.00256025
     atom  441 type  2   force =     0.00232325   -0.00172145   -0.00022371
     atom  442 type  2   force =     0.00232284   -0.00172114   -0.00022354
     atom  443 type  2   force =     0.00232285   -0.00172114   -0.00022362
     atom  444 type  2   force =     0.00232289   -0.00172111   -0.00022358
     atom  445 type  2   force =     0.00232285   -0.00172112   -0.00022361
     atom  446 type  2   force =     0.00232288   -0.00172110   -0.00022367
     atom  447 type  2   force =     0.00232283   -0.00172113   -0.00022361
     atom  448 type  2   force =     0.00232290   -0.00172109   -0.00022360
     atom  449 type  3   force =     0.00000000    0.00000000    0.00000000
     atom  450 type  3   force =     0.00000000    0.00000000    0.00000000
     atom  451 type  3   force =     0.00000000    0.00000000    0.00000000
     atom  452 type  3   force =     0.00000000    0.00000000    0.00000000
     atom  453 type  3   force =     0.00000000    0.00000000    0.00000000
     atom  454 type  3   force =     0.00000000    0.00000000    0.00000000
     atom  455 type  3   force =     0.00000000    0.00000000    0.00000000
     atom  456 type  3   force =     0.00000000    0.00000000    0.00000000
     atom  457 type  1   force =    -0.01083134   -0.00403858    0.00097751
     atom  458 type  1   force =    -0.01083135   -0.00403857    0.00097750
     atom  459 type  1   force =    -0.01083132   -0.00403870    0.00097752
     atom  460 type  1   force =    -0.01083121   -0.00403856    0.00097750
     atom  461 type  1   force =    -0.01083134   -0.00403858    0.00097751
     atom  462 type  1   force =    -0.01083134   -0.00403857    0.00097750
     atom  463 type  1   force =    -0.01083130   -0.00403857    0.00097750
     atom  464 type  1   force =    -0.01083124   -0.00403855    0.00097752
     atom  465 type  2   force =     0.00380045   -0.00229018    0.00000109
     atom  466 type  2   force =     0.00380056   -0.00229027    0.00000108
     atom  467 type  2   force =     0.00380040   -0.00229004    0.00000098
     atom  468 type  2   force =     0.00380054   -0.00229029    0.00000105
     atom  469 type  2   force =     0.00380052   -0.00229022    0.00000106
     atom  470 type  2   force =     0.00380055   -0.00229034    0.00000105
     atom  471 type  2   force =     0.00380050   -0.00229025    0.00000109
     atom  472 type  2   force =     0.00380053   -0.00229024    0.00000107
     atom  473 type  3   force =     0.00000000    0.00000000    0.00000000
     atom  474 type  3   force =     0.00000000    0.00000000    0.00000000
     atom  475 type  3   force =     0.00000000    0.00000000    0.00000000
     atom  476 type  3   force =     0.00000000    0.00000000    0.00000000
     atom  477 type  3   force =     0.00000000    0.00000000    0.00000000
     atom  478 type  3   force =     0.00000000    0.00000000    0.00000000
     atom  479 type  3   force =     0.00000000    0.00000000    0.00000000
     atom  480 type  3   force =     0.00000000    0.00000000    0.00000000
     atom  481 type  4   force =     0.00000000    0.00000000    0.00000000
     atom  482 type  4   force =     0.00000000    0.00000000    0.00000000
     atom  483 type  4   force =     0.00000000    0.00000000    0.00000000
     atom  484 type  4   force =     0.00000000    0.00000000    0.00000000
     atom  485 type  4   force =     0.00000000    0.00000000    0.00000000
     atom  486 type  4   force =     0.00000000    0.00000000    0.00000000
     atom  487 type  4   force =     0.00000000    0.00000000    0.00000000
     atom  488 type  4   force =     0.00000000    0.00000000    0.00000000
     atom  489 type  4   force =     0.00000000    0.00000000    0.00000000
     atom  490 type  4   force =     0.00000000    0.00000000    0.00000000
     atom  491 type  4   force =     0.00000000    0.00000000    0.00000000
     atom  492 type  4   force =     0.00000000    0.00000000    0.00000000
     atom  493 type  4   force =     0.00000000    0.00000000    0.00000000
     atom  494 type  4   force =     0.00000000    0.00000000    0.00000000
     atom  495 type  4   force =     0.00000000    0.00000000    0.00000000
     atom  496 type  4   force =     0.00000000    0.00000000    0.00000000
     The Hubbard contrib.    to forces
     atom    1 type  1   force =     0.00000000    0.00000000    0.00000000
     atom    2 type  1   force =     0.00000000    0.00000000    0.00000000
     atom    3 type  1   force =     0.00000000    0.00000000    0.00000000
     atom    4 type  1   force =     0.00000000    0.00000000    0.00000000
     atom    5 type  1   force =     0.00000000    0.00000000    0.00000000
     atom    6 type  1   force =     0.00000000    0.00000000    0.00000000
     atom    7 type  1   force =     0.00000000    0.00000000    0.00000000
     atom    8 type  1   force =     0.00000000    0.00000000    0.00000000
     atom    9 type  1   force =     0.00000000    0.00000000    0.00000000
     atom   10 type  1   force =     0.00000000    0.00000000    0.00000000
     atom   11 type  1   force =     0.00000000    0.00000000    0.00000000
     atom   12 type  1   force =     0.00000000    0.00000000    0.00000000
     atom   13 type  1   force =     0.00000000    0.00000000    0.00000000
     atom   14 type  1   force =     0.00000000    0.00000000    0.00000000
     atom   15 type  1   force =     0.00000000    0.00000000    0.00000000
     atom   16 type  1   force =     0.00000000    0.00000000    0.00000000
     atom   17 type  2   force =     0.00000000    0.00000000    0.00000000
     atom   18 type  2   force =     0.00000000    0.00000000    0.00000000
     atom   19 type  2   force =     0.00000000    0.00000000    0.00000000
     atom   20 type  2   force =     0.00000000    0.00000000    0.00000000
     atom   21 type  2   force =     0.00000000    0.00000000    0.00000000
     atom   22 type  2   force =     0.00000000    0.00000000    0.00000000
     atom   23 type  2   force =     0.00000000    0.00000000    0.00000000
     atom   24 type  2   force =     0.00000000    0.00000000    0.00000000
     atom   25 type  2   force =     0.00000000    0.00000000    0.00000000
     atom   26 type  2   force =     0.00000000    0.00000000    0.00000000
     atom   27 type  2   force =     0.00000000    0.00000000    0.00000000
     atom   28 type  2   force =     0.00000000    0.00000000    0.00000000
     atom   29 type  2   force =     0.00000000    0.00000000    0.00000000
     atom   30 type  2   force =     0.00000000    0.00000000    0.00000000
     atom   31 type  2   force =     0.00000000    0.00000000    0.00000000
     atom   32 type  2   force =     0.00000000    0.00000000    0.00000000
     atom   33 type  2   force =     0.00000000    0.00000000    0.00000000
     atom   34 type  2   force =     0.00000000    0.00000000    0.00000000
     atom   35 type  2   force =     0.00000000    0.00000000    0.00000000
     atom   36 type  2   force =     0.00000000    0.00000000    0.00000000
     atom   37 type  2   force =     0.00000000    0.00000000    0.00000000
     atom   38 type  2   force =     0.00000000    0.00000000    0.00000000
     atom   39 type  2   force =     0.00000000    0.00000000    0.00000000
     atom   40 type  2   force =     0.00000000    0.00000000    0.00000000
     atom   41 type  3   force =     0.00000000    0.00000000    0.00000000
     atom   42 type  3   force =     0.00000000    0.00000000    0.00000000
     atom   43 type  3   force =     0.00000000    0.00000000    0.00000000
     atom   44 type  3   force =     0.00000000    0.00000000    0.00000000
     atom   45 type  3   force =     0.00000000    0.00000000    0.00000000
     atom   46 type  3   force =     0.00000000    0.00000000    0.00000000
     atom   47 type  3   force =     0.00000000    0.00000000    0.00000000
     atom   48 type  3   force =     0.00000000    0.00000000    0.00000000
     atom   49 type  2   force =     0.00000000    0.00000000    0.00000000
     atom   50 type  2   force =     0.00000000    0.00000000    0.00000000
     atom   51 type  2   force =     0.00000000    0.00000000    0.00000000
     atom   52 type  2   force =     0.00000000    0.00000000    0.00000000
     atom   53 type  2   force =     0.00000000    0.00000000    0.00000000
     atom   54 type  2   force =     0.00000000    0.00000000    0.00000000
     atom   55 type  2   force =     0.00000000    0.00000000    0.00000000
     atom   56 type  2   force =     0.00000000    0.00000000    0.00000000
     atom   57 type  3   force =     0.00000000    0.00000000    0.00000000
     atom   58 type  3   force =     0.00000000    0.00000000    0.00000000
     atom   59 type  3   force =     0.00000000    0.00000000    0.00000000
     atom   60 type  3   force =     0.00000000    0.00000000    0.00000000
     atom   61 type  3   force =     0.00000000    0.00000000    0.00000000
     atom   62 type  3   force =     0.00000000    0.00000000    0.00000000
     atom   63 type  3   force =     0.00000000    0.00000000    0.00000000
     atom   64 type  3   force =     0.00000000    0.00000000    0.00000000
     atom   65 type  1   force =     0.00000000    0.00000000    0.00000000
     atom   66 type  1   force =     0.00000000    0.00000000    0.00000000
     atom   67 type  1   force =     0.00000000    0.00000000    0.00000000
     atom   68 type  1   force =     0.00000000    0.00000000    0.00000000
     atom   69 type  1   force =     0.00000000    0.00000000    0.00000000
     atom   70 type  1   force =     0.00000000    0.00000000    0.00000000
     atom   71 type  1   force =     0.00000000    0.00000000    0.00000000
     atom   72 type  1   force =     0.00000000    0.00000000    0.00000000
     atom   73 type  1   force =     0.00000000    0.00000000    0.00000000
     atom   74 type  1   force =     0.00000000    0.00000000    0.00000000
     atom   75 type  1   force =     0.00000000    0.00000000    0.00000000
     atom   76 type  1   force =     0.00000000    0.00000000    0.00000000
     atom   77 type  1   force =     0.00000000    0.00000000    0.00000000
     atom   78 type  1   force =     0.00000000    0.00000000    0.00000000
     atom   79 type  1   force =     0.00000000    0.00000000    0.00000000
     atom   80 type  1   force =     0.00000000    0.00000000    0.00000000
     atom   81 type  2   force =     0.00000000    0.00000000    0.00000000
     atom   82 type  2   force =     0.00000000    0.00000000    0.00000000
     atom   83 type  2   force =     0.00000000    0.00000000    0.00000000
     atom   84 type  2   force =     0.00000000    0.00000000    0.00000000
     atom   85 type  2   force =     0.00000000    0.00000000    0.00000000
     atom   86 type  2   force =     0.00000000    0.00000000    0.00000000
     atom   87 type  2   force =     0.00000000    0.00000000    0.00000000
     atom   88 type  2   force =     0.00000000    0.00000000    0.00000000
     atom   89 type  3   force =     0.00000000    0.00000000    0.00000000
     atom   90 type  3   force =     0.00000000    0.00000000    0.00000000
     atom   91 type  3   force =     0.00000000    0.00000000    0.00000000
     atom   92 type  3   force =     0.00000000    0.00000000    0.00000000
     atom   93 type  3   force =     0.00000000    0.00000000    0.00000000
     atom   94 type  3   force =     0.00000000    0.00000000    0.00000000
     atom   95 type  3   force =     0.00000000    0.00000000    0.00000000
     atom   96 type  3   force =     0.00000000    0.00000000    0.00000000
     atom   97 type  1   force =     0.00000000    0.00000000    0.00000000
     atom   98 type  1   force =     0.00000000    0.00000000    0.00000000
     atom   99 type  1   force =     0.00000000    0.00000000    0.00000000
     atom  100 type  1   force =     0.00000000    0.00000000    0.00000000
     atom  101 type  1   force =     0.00000000    0.00000000    0.00000000
     atom  102 type  1   force =     0.00000000    0.00000000    0.00000000
     atom  103 type  1   force =     0.00000000    0.00000000    0.00000000
     atom  104 type  1   force =     0.00000000    0.00000000    0.00000000
     atom  105 type  2   force =     0.00000000    0.00000000    0.00000000
     atom  106 type  2   force =     0.00000000    0.00000000    0.00000000
     atom  107 type  2   force =     0.00000000    0.00000000    0.00000000
     atom  108 type  2   force =     0.00000000    0.00000000    0.00000000
     atom  109 type  2   force =     0.00000000    0.00000000    0.00000000
     atom  110 type  2   force =     0.00000000    0.00000000    0.00000000
     atom  111 type  2   force =     0.00000000    0.00000000    0.00000000
     atom  112 type  2   force =     0.00000000    0.00000000    0.00000000
     atom  113 type  3   force =     0.00000000    0.00000000    0.00000000
     atom  114 type  3   force =     0.00000000    0.00000000    0.00000000
     atom  115 type  3   force =     0.00000000    0.00000000    0.00000000
     atom  116 type  3   force =     0.00000000    0.00000000    0.00000000
     atom  117 type  3   force =     0.00000000    0.00000000    0.00000000
     atom  118 type  3   force =     0.00000000    0.00000000    0.00000000
     atom  119 type  3   force =     0.00000000    0.00000000    0.00000000
     atom  120 type  3   force =     0.00000000    0.00000000    0.00000000
     atom  121 type  1   force =     0.00000000    0.00000000    0.00000000
     atom  122 type  1   force =     0.00000000    0.00000000    0.00000000
     atom  123 type  1   force =     0.00000000    0.00000000    0.00000000
     atom  124 type  1   force =     0.00000000    0.00000000    0.00000000
     atom  125 type  1   force =     0.00000000    0.00000000    0.00000000
     atom  126 type  1   force =     0.00000000    0.00000000    0.00000000
     atom  127 type  1   force =     0.00000000    0.00000000    0.00000000
     atom  128 type  1   force =     0.00000000    0.00000000    0.00000000
     atom  129 type  1   force =     0.00000000    0.00000000    0.00000000
     atom  130 type  1   force =     0.00000000    0.00000000    0.00000000
     atom  131 type  1   force =     0.00000000    0.00000000    0.00000000
     atom  132 type  1   force =     0.00000000    0.00000000    0.00000000
     atom  133 type  1   force =     0.00000000    0.00000000    0.00000000
     atom  134 type  1   force =     0.00000000    0.00000000    0.00000000
     atom  135 type  1   force =     0.00000000    0.00000000    0.00000000
     atom  136 type  1   force =     0.00000000    0.00000000    0.00000000
     atom  137 type  2   force =     0.00000000    0.00000000    0.00000000
     atom  138 type  2   force =     0.00000000    0.00000000    0.00000000
     atom  139 type  2   force =     0.00000000    0.00000000    0.00000000
     atom  140 type  2   force =     0.00000000    0.00000000    0.00000000
     atom  141 type  2   force =     0.00000000    0.00000000    0.00000000
     atom  142 type  2   force =     0.00000000    0.00000000    0.00000000
     atom  143 type  2   force =     0.00000000    0.00000000    0.00000000
     atom  144 type  2   force =     0.00000000    0.00000000    0.00000000
     atom  145 type  2   force =     0.00000000    0.00000000    0.00000000
     atom  146 type  2   force =     0.00000000    0.00000000    0.00000000
     atom  147 type  2   force =     0.00000000    0.00000000    0.00000000
     atom  148 type  2   force =     0.00000000    0.00000000    0.00000000
     atom  149 type  2   force =     0.00000000    0.00000000    0.00000000
     atom  150 type  2   force =     0.00000000    0.00000000    0.00000000
     atom  151 type  2   force =     0.00000000    0.00000000    0.00000000
     atom  152 type  2   force =     0.00000000    0.00000000    0.00000000
     atom  153 type  2   force =     0.00000000    0.00000000    0.00000000
     atom  154 type  2   force =     0.00000000    0.00000000    0.00000000
     atom  155 type  2   force =     0.00000000    0.00000000    0.00000000
     atom  156 type  2   force =     0.00000000    0.00000000    0.00000000
     atom  157 type  2   force =     0.00000000    0.00000000    0.00000000
     atom  158 type  2   force =     0.00000000    0.00000000    0.00000000
     atom  159 type  2   force =     0.00000000    0.00000000    0.00000000
     atom  160 type  2   force =     0.00000000    0.00000000    0.00000000
     atom  161 type  3   force =     0.00000000    0.00000000    0.00000000
     atom  162 type  3   force =     0.00000000    0.00000000    0.00000000
     atom  163 type  3   force =     0.00000000    0.00000000    0.00000000
     atom  164 type  3   force =     0.00000000    0.00000000    0.00000000
     atom  165 type  3   force =     0.00000000    0.00000000    0.00000000
     atom  166 type  3   force =     0.00000000    0.00000000    0.00000000
     atom  167 type  3   force =     0.00000000    0.00000000    0.00000000
     atom  168 type  3   force =     0.00000000    0.00000000    0.00000000
     atom  169 type  2   force =     0.00000000    0.00000000    0.00000000
     atom  170 type  2   force =     0.00000000    0.00000000    0.00000000
     atom  171 type  2   force =     0.00000000    0.00000000    0.00000000
     atom  172 type  2   force =     0.00000000    0.00000000    0.00000000
     atom  173 type  2   force =     0.00000000    0.00000000    0.00000000
     atom  174 type  2   force =     0.00000000    0.00000000    0.00000000
     atom  175 type  2   force =     0.00000000    0.00000000    0.00000000
     atom  176 type  2   force =     0.00000000    0.00000000    0.00000000
     atom  177 type  3   force =     0.00000000    0.00000000    0.00000000
     atom  178 type  3   force =     0.00000000    0.00000000    0.00000000
     atom  179 type  3   force =     0.00000000    0.00000000    0.00000000
     atom  180 type  3   force =     0.00000000    0.00000000    0.00000000
     atom  181 type  3   force =     0.00000000    0.00000000    0.00000000
     atom  182 type  3   force =     0.00000000    0.00000000    0.00000000
     atom  183 type  3   force =     0.00000000    0.00000000    0.00000000
     atom  184 type  3   force =     0.00000000    0.00000000    0.00000000
     atom  185 type  1   force =     0.00000000    0.00000000    0.00000000
     atom  186 type  1   force =     0.00000000    0.00000000    0.00000000
     atom  187 type  1   force =     0.00000000    0.00000000    0.00000000
     atom  188 type  1   force =     0.00000000    0.00000000    0.00000000
     atom  189 type  1   force =     0.00000000    0.00000000    0.00000000
     atom  190 type  1   force =     0.00000000    0.00000000    0.00000000
     atom  191 type  1   force =     0.00000000    0.00000000    0.00000000
     atom  192 type  1   force =     0.00000000    0.00000000    0.00000000
     atom  193 type  1   force =     0.00000000    0.00000000    0.00000000
     atom  194 type  1   force =     0.00000000    0.00000000    0.00000000
     atom  195 type  1   force =     0.00000000    0.00000000    0.00000000
     atom  196 type  1   force =     0.00000000    0.00000000    0.00000000
     atom  197 type  1   force =     0.00000000    0.00000000    0.00000000
     atom  198 type  1   force =     0.00000000    0.00000000    0.00000000
     atom  199 type  1   force =     0.00000000    0.00000000    0.00000000
     atom  200 type  1   force =     0.00000000    0.00000000    0.00000000
     atom  201 type  2   force =     0.00000000    0.00000000    0.00000000
     atom  202 type  2   force =     0.00000000    0.00000000    0.00000000
     atom  203 type  2   force =     0.00000000    0.00000000    0.00000000
     atom  204 type  2   force =     0.00000000    0.00000000    0.00000000
     atom  205 type  2   force =     0.00000000    0.00000000    0.00000000
     atom  206 type  2   force =     0.00000000    0.00000000    0.00000000
     atom  207 type  2   force =     0.00000000    0.00000000    0.00000000
     atom  208 type  2   force =     0.00000000    0.00000000    0.00000000
     atom  209 type  3   force =     0.00000000    0.00000000    0.00000000
     atom  210 type  3   force =     0.00000000    0.00000000    0.00000000
     atom  211 type  3   force =     0.00000000    0.00000000    0.00000000
     atom  212 type  3   force =     0.00000000    0.00000000    0.00000000
     atom  213 type  3   force =     0.00000000    0.00000000    0.00000000
     atom  214 type  3   force =     0.00000000    0.00000000    0.00000000
     atom  215 type  3   force =     0.00000000    0.00000000    0.00000000
     atom  216 type  3   force =     0.00000000    0.00000000    0.00000000
     atom  217 type  1   force =     0.00000000    0.00000000    0.00000000
     atom  218 type  1   force =     0.00000000    0.00000000    0.00000000
     atom  219 type  1   force =     0.00000000    0.00000000    0.00000000
     atom  220 type  1   force =     0.00000000    0.00000000    0.00000000
     atom  221 type  1   force =     0.00000000    0.00000000    0.00000000
     atom  222 type  1   force =     0.00000000    0.00000000    0.00000000
     atom  223 type  1   force =     0.00000000    0.00000000    0.00000000
     atom  224 type  1   force =     0.00000000    0.00000000    0.00000000
     atom  225 type  2   force =     0.00000000    0.00000000    0.00000000
     atom  226 type  2   force =     0.00000000    0.00000000    0.00000000
     atom  227 type  2   force =     0.00000000    0.00000000    0.00000000
     atom  228 type  2   force =     0.00000000    0.00000000    0.00000000
     atom  229 type  2   force =     0.00000000    0.00000000    0.00000000
     atom  230 type  2   force =     0.00000000    0.00000000    0.00000000
     atom  231 type  2   force =     0.00000000    0.00000000    0.00000000
     atom  232 type  2   force =     0.00000000    0.00000000    0.00000000
     atom  233 type  3   force =     0.00000000    0.00000000    0.00000000
     atom  234 type  3   force =     0.00000000    0.00000000    0.00000000
     atom  235 type  3   force =     0.00000000    0.00000000    0.00000000
     atom  236 type  3   force =     0.00000000    0.00000000    0.00000000
     atom  237 type  3   force =     0.00000000    0.00000000    0.00000000
     atom  238 type  3   force =     0.00000000    0.00000000    0.00000000
     atom  239 type  3   force =     0.00000000    0.00000000    0.00000000
     atom  240 type  3   force =     0.00000000    0.00000000    0.00000000
     atom  241 type  1   force =     0.00000000    0.00000000    0.00000000
     atom  242 type  1   force =     0.00000000    0.00000000    0.00000000
     atom  243 type  1   force =     0.00000000    0.00000000    0.00000000
     atom  244 type  1   force =     0.00000000    0.00000000    0.00000000
     atom  245 type  1   force =     0.00000000    0.00000000    0.00000000
     atom  246 type  1   force =     0.00000000    0.00000000    0.00000000
     atom  247 type  1   force =     0.00000000    0.00000000    0.00000000
     atom  248 type  1   force =     0.00000000    0.00000000    0.00000000
     atom  249 type  1   force =     0.00000000    0.00000000    0.00000000
     atom  250 type  1   force =     0.00000000    0.00000000    0.00000000
     atom  251 type  1   force =     0.00000000    0.00000000    0.00000000
     atom  252 type  1   force =     0.00000000    0.00000000    0.00000000
     atom  253 type  1   force =     0.00000000    0.00000000    0.00000000
     atom  254 type  1   force =     0.00000000    0.00000000    0.00000000
     atom  255 type  1   force =     0.00000000    0.00000000    0.00000000
     atom  256 type  1   force =     0.00000000    0.00000000    0.00000000
     atom  257 type  2   force =     0.00000000    0.00000000    0.00000000
     atom  258 type  2   force =     0.00000000    0.00000000    0.00000000
     atom  259 type  2   force =     0.00000000    0.00000000    0.00000000
     atom  260 type  2   force =     0.00000000    0.00000000    0.00000000
     atom  261 type  2   force =     0.00000000    0.00000000    0.00000000
     atom  262 type  2   force =     0.00000000    0.00000000    0.00000000
     atom  263 type  2   force =     0.00000000    0.00000000    0.00000000
     atom  264 type  2   force =     0.00000000    0.00000000    0.00000000
     atom  265 type  2   force =     0.00000000    0.00000000    0.00000000
     atom  266 type  2   force =     0.00000000    0.00000000    0.00000000
     atom  267 type  2   force =     0.00000000    0.00000000    0.00000000
     atom  268 type  2   force =     0.00000000    0.00000000    0.00000000
     atom  269 type  2   force =     0.00000000    0.00000000    0.00000000
     atom  270 type  2   force =     0.00000000    0.00000000    0.00000000
     atom  271 type  2   force =     0.00000000    0.00000000    0.00000000
     atom  272 type  2   force =     0.00000000    0.00000000    0.00000000
     atom  273 type  2   force =     0.00000000    0.00000000    0.00000000
     atom  274 type  2   force =     0.00000000    0.00000000    0.00000000
     atom  275 type  2   force =     0.00000000    0.00000000    0.00000000
     atom  276 type  2   force =     0.00000000    0.00000000    0.00000000
     atom  277 type  2   force =     0.00000000    0.00000000    0.00000000
     atom  278 type  2   force =     0.00000000    0.00000000    0.00000000
     atom  279 type  2   force =     0.00000000    0.00000000    0.00000000
     atom  280 type  2   force =     0.00000000    0.00000000    0.00000000
     atom  281 type  3   force =     0.00000000    0.00000000    0.00000000
     atom  282 type  3   force =     0.00000000    0.00000000    0.00000000
     atom  283 type  3   force =     0.00000000    0.00000000    0.00000000
     atom  284 type  3   force =     0.00000000    0.00000000    0.00000000
     atom  285 type  3   force =     0.00000000    0.00000000    0.00000000
     atom  286 type  3   force =     0.00000000    0.00000000    0.00000000
     atom  287 type  3   force =     0.00000000    0.00000000    0.00000000
     atom  288 type  3   force =     0.00000000    0.00000000    0.00000000
     atom  289 type  2   force =     0.00000000    0.00000000    0.00000000
     atom  290 type  2   force =     0.00000000    0.00000000    0.00000000
     atom  291 type  2   force =     0.00000000    0.00000000    0.00000000
     atom  292 type  2   force =     0.00000000    0.00000000    0.00000000
     atom  293 type  2   force =     0.00000000    0.00000000    0.00000000
     atom  294 type  2   force =     0.00000000    0.00000000    0.00000000
     atom  295 type  2   force =     0.00000000    0.00000000    0.00000000
     atom  296 type  2   force =     0.00000000    0.00000000    0.00000000
     atom  297 type  3   force =     0.00000000    0.00000000    0.00000000
     atom  298 type  3   force =     0.00000000    0.00000000    0.00000000
     atom  299 type  3   force =     0.00000000    0.00000000    0.00000000
     atom  300 type  3   force =     0.00000000    0.00000000    0.00000000
     atom  301 type  3   force =     0.00000000    0.00000000    0.00000000
     atom  302 type  3   force =     0.00000000    0.00000000    0.00000000
     atom  303 type  3   force =     0.00000000    0.00000000    0.00000000
     atom  304 type  3   force =     0.00000000    0.00000000    0.00000000
     atom  305 type  1   force =     0.00000000    0.00000000    0.00000000
     atom  306 type  1   force =     0.00000000    0.00000000    0.00000000
     atom  307 type  1   force =     0.00000000    0.00000000    0.00000000
     atom  308 type  1   force =     0.00000000    0.00000000    0.00000000
     atom  309 type  1   force =     0.00000000    0.00000000    0.00000000
     atom  310 type  1   force =     0.00000000    0.00000000    0.00000000
     atom  311 type  1   force =     0.00000000    0.00000000    0.00000000
     atom  312 type  1   force =     0.00000000    0.00000000    0.00000000
     atom  313 type  1   force =     0.00000000    0.00000000    0.00000000
     atom  314 type  1   force =     0.00000000    0.00000000    0.00000000
     atom  315 type  1   force =     0.00000000    0.00000000    0.00000000
     atom  316 type  1   force =     0.00000000    0.00000000    0.00000000
     atom  317 type  1   force =     0.00000000    0.00000000    0.00000000
     atom  318 type  1   force =     0.00000000    0.00000000    0.00000000
     atom  319 type  1   force =     0.00000000    0.00000000    0.00000000
     atom  320 type  1   force =     0.00000000    0.00000000    0.00000000
     atom  321 type  2   force =     0.00000000    0.00000000    0.00000000
     atom  322 type  2   force =     0.00000000    0.00000000    0.00000000
     atom  323 type  2   force =     0.00000000    0.00000000    0.00000000
     atom  324 type  2   force =     0.00000000    0.00000000    0.00000000
     atom  325 type  2   force =     0.00000000    0.00000000    0.00000000
     atom  326 type  2   force =     0.00000000    0.00000000    0.00000000
     atom  327 type  2   force =     0.00000000    0.00000000    0.00000000
     atom  328 type  2   force =     0.00000000    0.00000000    0.00000000
     atom  329 type  3   force =     0.00000000    0.00000000    0.00000000
     atom  330 type  3   force =     0.00000000    0.00000000    0.00000000
     atom  331 type  3   force =     0.00000000    0.00000000    0.00000000
     atom  332 type  3   force =     0.00000000    0.00000000    0.00000000
     atom  333 type  3   force =     0.00000000    0.00000000    0.00000000
     atom  334 type  3   force =     0.00000000    0.00000000    0.00000000
     atom  335 type  3   force =     0.00000000    0.00000000    0.00000000
     atom  336 type  3   force =     0.00000000    0.00000000    0.00000000
     atom  337 type  1   force =     0.00000000    0.00000000    0.00000000
     atom  338 type  1   force =     0.00000000    0.00000000    0.00000000
     atom  339 type  1   force =     0.00000000    0.00000000    0.00000000
     atom  340 type  1   force =     0.00000000    0.00000000    0.00000000
     atom  341 type  1   force =     0.00000000    0.00000000    0.00000000
     atom  342 type  1   force =     0.00000000    0.00000000    0.00000000
     atom  343 type  1   force =     0.00000000    0.00000000    0.00000000
     atom  344 type  1   force =     0.00000000    0.00000000    0.00000000
     atom  345 type  2   force =     0.00000000    0.00000000    0.00000000
     atom  346 type  2   force =     0.00000000    0.00000000    0.00000000
     atom  347 type  2   force =     0.00000000    0.00000000    0.00000000
     atom  348 type  2   force =     0.00000000    0.00000000    0.00000000
     atom  349 type  2   force =     0.00000000    0.00000000    0.00000000
     atom  350 type  2   force =     0.00000000    0.00000000    0.00000000
     atom  351 type  2   force =     0.00000000    0.00000000    0.00000000
     atom  352 type  2   force =     0.00000000    0.00000000    0.00000000
     atom  353 type  3   force =     0.00000000    0.00000000    0.00000000
     atom  354 type  3   force =     0.00000000    0.00000000    0.00000000
     atom  355 type  3   force =     0.00000000    0.00000000    0.00000000
     atom  356 type  3   force =     0.00000000    0.00000000    0.00000000
     atom  357 type  3   force =     0.00000000    0.00000000    0.00000000
     atom  358 type  3   force =     0.00000000    0.00000000    0.00000000
     atom  359 type  3   force =     0.00000000    0.00000000    0.00000000
     atom  360 type  3   force =     0.00000000    0.00000000    0.00000000
     atom  361 type  1   force =     0.00000000    0.00000000    0.00000000
     atom  362 type  1   force =     0.00000000    0.00000000    0.00000000
     atom  363 type  1   force =     0.00000000    0.00000000    0.00000000
     atom  364 type  1   force =     0.00000000    0.00000000    0.00000000
     atom  365 type  1   force =     0.00000000    0.00000000    0.00000000
     atom  366 type  1   force =     0.00000000    0.00000000    0.00000000
     atom  367 type  1   force =     0.00000000    0.00000000    0.00000000
     atom  368 type  1   force =     0.00000000    0.00000000    0.00000000
     atom  369 type  1   force =     0.00000000    0.00000000    0.00000000
     atom  370 type  1   force =     0.00000000    0.00000000    0.00000000
     atom  371 type  1   force =     0.00000000    0.00000000    0.00000000
     atom  372 type  1   force =     0.00000000    0.00000000    0.00000000
     atom  373 type  1   force =     0.00000000    0.00000000    0.00000000
     atom  374 type  1   force =     0.00000000    0.00000000    0.00000000
     atom  375 type  1   force =     0.00000000    0.00000000    0.00000000
     atom  376 type  1   force =     0.00000000    0.00000000    0.00000000
     atom  377 type  2   force =     0.00000000    0.00000000    0.00000000
     atom  378 type  2   force =     0.00000000    0.00000000    0.00000000
     atom  379 type  2   force =     0.00000000    0.00000000    0.00000000
     atom  380 type  2   force =     0.00000000    0.00000000    0.00000000
     atom  381 type  2   force =     0.00000000    0.00000000    0.00000000
     atom  382 type  2   force =     0.00000000    0.00000000    0.00000000
     atom  383 type  2   force =     0.00000000    0.00000000    0.00000000
     atom  384 type  2   force =     0.00000000    0.00000000    0.00000000
     atom  385 type  2   force =     0.00000000    0.00000000    0.00000000
     atom  386 type  2   force =     0.00000000    0.00000000    0.00000000
     atom  387 type  2   force =     0.00000000    0.00000000    0.00000000
     atom  388 type  2   force =     0.00000000    0.00000000    0.00000000
     atom  389 type  2   force =     0.00000000    0.00000000    0.00000000
     atom  390 type  2   force =     0.00000000    0.00000000    0.00000000
     atom  391 type  2   force =     0.00000000    0.00000000    0.00000000
     atom  392 type  2   force =     0.00000000    0.00000000    0.00000000
     atom  393 type  2   force =     0.00000000    0.00000000    0.00000000
     atom  394 type  2   force =     0.00000000    0.00000000    0.00000000
     atom  395 type  2   force =     0.00000000    0.00000000    0.00000000
     atom  396 type  2   force =     0.00000000    0.00000000    0.00000000
     atom  397 type  2   force =     0.00000000    0.00000000    0.00000000
     atom  398 type  2   force =     0.00000000    0.00000000    0.00000000
     atom  399 type  2   force =     0.00000000    0.00000000    0.00000000
     atom  400 type  2   force =     0.00000000    0.00000000    0.00000000
     atom  401 type  3   force =     0.00000000    0.00000000    0.00000000
     atom  402 type  3   force =     0.00000000    0.00000000    0.00000000
     atom  403 type  3   force =     0.00000000    0.00000000    0.00000000
     atom  404 type  3   force =     0.00000000    0.00000000    0.00000000
     atom  405 type  3   force =     0.00000000    0.00000000    0.00000000
     atom  406 type  3   force =     0.00000000    0.00000000    0.00000000
     atom  407 type  3   force =     0.00000000    0.00000000    0.00000000
     atom  408 type  3   force =     0.00000000    0.00000000    0.00000000
     atom  409 type  2   force =     0.00000000    0.00000000    0.00000000
     atom  410 type  2   force =     0.00000000    0.00000000    0.00000000
     atom  411 type  2   force =     0.00000000    0.00000000    0.00000000
     atom  412 type  2   force =     0.00000000    0.00000000    0.00000000
     atom  413 type  2   force =     0.00000000    0.00000000    0.00000000
     atom  414 type  2   force =     0.00000000    0.00000000    0.00000000
     atom  415 type  2   force =     0.00000000    0.00000000    0.00000000
     atom  416 type  2   force =     0.00000000    0.00000000    0.00000000
     atom  417 type  3   force =     0.00000000    0.00000000    0.00000000
     atom  418 type  3   force =     0.00000000    0.00000000    0.00000000
     atom  419 type  3   force =     0.00000000    0.00000000    0.00000000
     atom  420 type  3   force =     0.00000000    0.00000000    0.00000000
     atom  421 type  3   force =     0.00000000    0.00000000    0.00000000
     atom  422 type  3   force =     0.00000000    0.00000000    0.00000000
     atom  423 type  3   force =     0.00000000    0.00000000    0.00000000
     atom  424 type  3   force =     0.00000000    0.00000000    0.00000000
     atom  425 type  1   force =     0.00000000    0.00000000    0.00000000
     atom  426 type  1   force =     0.00000000    0.00000000    0.00000000
     atom  427 type  1   force =     0.00000000    0.00000000    0.00000000
     atom  428 type  1   force =     0.00000000    0.00000000    0.00000000
     atom  429 type  1   force =     0.00000000    0.00000000    0.00000000
     atom  430 type  1   force =     0.00000000    0.00000000    0.00000000
     atom  431 type  1   force =     0.00000000    0.00000000    0.00000000
     atom  432 type  1   force =     0.00000000    0.00000000    0.00000000
     atom  433 type  1   force =     0.00000000    0.00000000    0.00000000
     atom  434 type  1   force =     0.00000000    0.00000000    0.00000000
     atom  435 type  1   force =     0.00000000    0.00000000    0.00000000
     atom  436 type  1   force =     0.00000000    0.00000000    0.00000000
     atom  437 type  1   force =     0.00000000    0.00000000    0.00000000
     atom  438 type  1   force =     0.00000000    0.00000000    0.00000000
     atom  439 type  1   force =     0.00000000    0.00000000    0.00000000
     atom  440 type  1   force =     0.00000000    0.00000000    0.00000000
     atom  441 type  2   force =     0.00000000    0.00000000    0.00000000
     atom  442 type  2   force =     0.00000000    0.00000000    0.00000000
     atom  443 type  2   force =     0.00000000    0.00000000    0.00000000
     atom  444 type  2   force =     0.00000000    0.00000000    0.00000000
     atom  445 type  2   force =     0.00000000    0.00000000    0.00000000
     atom  446 type  2   force =     0.00000000    0.00000000    0.00000000
     atom  447 type  2   force =     0.00000000    0.00000000    0.00000000
     atom  448 type  2   force =     0.00000000    0.00000000    0.00000000
     atom  449 type  3   force =     0.00000000    0.00000000    0.00000000
     atom  450 type  3   force =     0.00000000    0.00000000    0.00000000
     atom  451 type  3   force =     0.00000000    0.00000000    0.00000000
     atom  452 type  3   force =     0.00000000    0.00000000    0.00000000
     atom  453 type  3   force =     0.00000000    0.00000000    0.00000000
     atom  454 type  3   force =     0.00000000    0.00000000    0.00000000
     atom  455 type  3   force =     0.00000000    0.00000000    0.00000000
     atom  456 type  3   force =     0.00000000    0.00000000    0.00000000
     atom  457 type  1   force =     0.00000000    0.00000000    0.00000000
     atom  458 type  1   force =     0.00000000    0.00000000    0.00000000
     atom  459 type  1   force =     0.00000000    0.00000000    0.00000000
     atom  460 type  1   force =     0.00000000    0.00000000    0.00000000
     atom  461 type  1   force =     0.00000000    0.00000000    0.00000000
     atom  462 type  1   force =     0.00000000    0.00000000    0.00000000
     atom  463 type  1   force =     0.00000000    0.00000000    0.00000000
     atom  464 type  1   force =     0.00000000    0.00000000    0.00000000
     atom  465 type  2   force =     0.00000000    0.00000000    0.00000000
     atom  466 type  2   force =     0.00000000    0.00000000    0.00000000
     atom  467 type  2   force =     0.00000000    0.00000000    0.00000000
     atom  468 type  2   force =     0.00000000    0.00000000    0.00000000
     atom  469 type  2   force =     0.00000000    0.00000000    0.00000000
     atom  470 type  2   force =     0.00000000    0.00000000    0.00000000
     atom  471 type  2   force =     0.00000000    0.00000000    0.00000000
     atom  472 type  2   force =     0.00000000    0.00000000    0.00000000
     atom  473 type  3   force =     0.00000000    0.00000000    0.00000000
     atom  474 type  3   force =     0.00000000    0.00000000    0.00000000
     atom  475 type  3   force =     0.00000000    0.00000000    0.00000000
     atom  476 type  3   force =     0.00000000    0.00000000    0.00000000
     atom  477 type  3   force =     0.00000000    0.00000000    0.00000000
     atom  478 type  3   force =     0.00000000    0.00000000    0.00000000
     atom  479 type  3   force =     0.00000000    0.00000000    0.00000000
     atom  480 type  3   force =     0.00000000    0.00000000    0.00000000
     atom  481 type  4   force =     0.00000000    0.00000000    0.00000000
     atom  482 type  4   force =     0.00000000    0.00000000    0.00000000
     atom  483 type  4   force =     0.00000000    0.00000000    0.00000000
     atom  484 type  4   force =     0.00000000    0.00000000    0.00000000
     atom  485 type  4   force =     0.00000000    0.00000000    0.00000000
     atom  486 type  4   force =     0.00000000    0.00000000    0.00000000
     atom  487 type  4   force =     0.00000000    0.00000000    0.00000000
     atom  488 type  4   force =     0.00000000    0.00000000    0.00000000
     atom  489 type  4   force =     0.00000000    0.00000000    0.00000000
     atom  490 type  4   force =     0.00000000    0.00000000    0.00000000
     atom  491 type  4   force =     0.00000000    0.00000000    0.00000000
     atom  492 type  4   force =     0.00000000    0.00000000    0.00000000
     atom  493 type  4   force =     0.00000000    0.00000000    0.00000000
     atom  494 type  4   force =     0.00000000    0.00000000    0.00000000
     atom  495 type  4   force =     0.00000000    0.00000000    0.00000000
     atom  496 type  4   force =     0.00000000    0.00000000    0.00000000
     The SCF correction term to forces
     atom    1 type  1   force =     0.00000588   -0.00000859   -0.00000343
     atom    2 type  1   force =     0.00000540   -0.00000736   -0.00000287
     atom    3 type  1   force =     0.00000694   -0.00000605   -0.00000206
     atom    4 type  1   force =     0.00000557   -0.00000810   -0.00000287
     atom    5 type  1   force =     0.00000706   -0.00000792   -0.00000313
     atom    6 type  1   force =     0.00000638   -0.00000522   -0.00000167
     atom    7 type  1   force =     0.00000838   -0.00000470   -0.00000070
     atom    8 type  1   force =     0.00000757   -0.00000750   -0.00000295
     atom    9 type  1   force =     0.00001156   -0.00000146    0.00000024
     atom   10 type  1   force =     0.00001139   -0.00000236    0.00000005
     atom   11 type  1   force =     0.00001046   -0.00000147    0.00000091
     atom   12 type  1   force =     0.00001037    0.00000216    0.00000232
     atom   13 type  1   force =     0.00000782    0.00000341    0.00000283
     atom   14 type  1   force =     0.00001322   -0.00000309   -0.00000053
     atom   15 type  1   force =     0.00001286   -0.00000173    0.00000016
     atom   16 type  1   force =     0.00000848    0.00000358    0.00000344
     atom   17 type  2   force =     0.00000043    0.00000512    0.00000123
     atom   18 type  2   force =     0.00000105    0.00000392    0.00000093
     atom   19 type  2   force =     0.00000122    0.00000424    0.00000113
     atom   20 type  2   force =     0.00000019    0.00000597    0.00000142
     atom   21 type  2   force =     0.00000077    0.00000578    0.00000145
     atom   22 type  2   force =     0.00000002    0.00000539    0.00000098
     atom   23 type  2   force =     0.00000011    0.00000547    0.00000094
     atom   24 type  2   force =     0.00000006    0.00000658    0.00000162
     atom   25 type  2   force =    -0.00000293    0.00000342    0.00000244
     atom   26 type  2   force =    -0.00000241    0.00000222    0.00000190
     atom   27 type  2   force =    -0.00000230    0.00000257    0.00000229
     atom   28 type  2   force =    -0.00000219    0.00000506    0.00000345
     atom   29 type  2   force =    -0.00000161    0.00000573    0.00000385
     atom   30 type  2   force =    -0.00000198    0.00000310    0.00000226
     atom   31 type  2   force =    -0.00000191    0.00000357    0.00000239
     atom   32 type  2   force =    -0.00000075    0.00000632    0.00000446
     atom   33 type  2   force =    -0.00000520    0.00000198    0.00000199
     atom   34 type  2   force =    -0.00000644    0.00000168    0.00000193
     atom   35 type  2   force =    -0.00000647    0.00000181    0.00000186
     atom   36 type  2   force =    -0.00000605    0.00000192    0.00000213
     atom   37 type  2   force =    -0.00000600    0.00000194    0.00000193
     atom   38 type  2   force =    -0.00000526    0.00000152    0.00000190
     atom   39 type  2   force =    -0.00000515    0.00000156    0.00000198
     atom   40 type  2   force =    -0.00000642    0.00000218    0.00000208
     atom   41 type  3   force =    -0.00000060   -0.00000078    0.00000102
     atom   42 type  3   force =    -0.00000064   -0.00000110    0.00000102
     atom   43 type  3   force =    -0.00000067   -0.00000104    0.00000101
     atom   44 type  3   force =    -0.00000063   -0.00000101    0.00000108
     atom   45 type  3   force =    -0.00000063   -0.00000102    0.00000098
     atom   46 type  3   force =    -0.00000053   -0.00000079    0.00000098
     atom   47 type  3   force =    -0.00000047   -0.00000088    0.00000100
     atom   48 type  3   force =    -0.00000067   -0.00000105    0.00000105
     atom   49 type  2   force =    -0.00000003    0.00000445   -0.00000208
     atom   50 type  2   force =    -0.00000027    0.00000595   -0.00000236
     atom   51 type  2   force =    -0.00000026    0.00000581   -0.00000233
     atom   52 type  2   force =     0.00000034    0.00000618   -0.00000231
     atom   53 type  2   force =    -0.00000048    0.00000453   -0.00000229
     atom   54 type  2   force =    -0.00000042    0.00000421   -0.00000181
     atom   55 type  2   force =    -0.00000013    0.00000459   -0.00000188
     atom   56 type  2   force =    -0.00000026    0.00000546   -0.00000231
     atom   57 type  3   force =     0.00000123    0.00000046   -0.00000058
     atom   58 type  3   force =     0.00000139    0.00000072   -0.00000063
     atom   59 type  3   force =     0.00000139    0.00000067   -0.00000064
     atom   60 type  3   force =     0.00000132    0.00000065   -0.00000064
     atom   61 type  3   force =     0.00000138    0.00000051   -0.00000065
     atom   62 type  3   force =     0.00000106    0.00000055   -0.00000050
     atom   63 type  3   force =     0.00000112    0.00000062   -0.00000054
     atom   64 type  3   force =     0.00000146    0.00000060   -0.00000066
     atom   65 type  1   force =     0.00000035    0.00001014    0.00000783
     atom   66 type  1   force =     0.00000022    0.00000956    0.00000751
     atom   67 type  1   force =    -0.00000058    0.00000930    0.00000757
     atom   68 type  1   force =    -0.00000141    0.00001045    0.00000799
     atom   69 type  1   force =    -0.00000206    0.00001027    0.00000751
     atom   70 type  1   force =     0.00000265    0.00001001    0.00000812
     atom   71 type  1   force =     0.00000185    0.00001013    0.00000790
     atom   72 type  1   force =    -0.00000037    0.00000994    0.00000777
     atom   73 type  1   force =     0.00001273    0.00001232    0.00001012
     atom   74 type  1   force =     0.00001176    0.00001175    0.00001004
     atom   75 type  1   force =     0.00001123    0.00001169    0.00001035
     atom   76 type  1   force =     0.00001288    0.00001476    0.00001201
     atom   77 type  1   force =     0.00001140    0.00001459    0.00001160
     atom   78 type  1   force =     0.00001429    0.00001235    0.00001047
     atom   79 type  1   force =     0.00001425    0.00001315    0.00001093
     atom   80 type  1   force =     0.00001271    0.00001539    0.00001254
     atom   81 type  2   force =    -0.00000796    0.00000430   -0.00000152
     atom   82 type  2   force =    -0.00000728    0.00000398   -0.00000169
     atom   83 type  2   force =    -0.00000743    0.00000413   -0.00000151
     atom   84 type  2   force =    -0.00000874    0.00000500   -0.00000141
     atom   85 type  2   force =    -0.00000645    0.00000454   -0.00000132
     atom   86 type  2   force =    -0.00000949    0.00000543   -0.00000187
     atom   87 type  2   force =    -0.00000935    0.00000533   -0.00000187
     atom   88 type  2   force =    -0.00000859    0.00000583   -0.00000128
     atom   89 type  3   force =    -0.00000129    0.00000048   -0.00000053
     atom   90 type  3   force =    -0.00000148    0.00000043   -0.00000047
     atom   91 type  3   force =    -0.00000148    0.00000045   -0.00000043
     atom   92 type  3   force =    -0.00000129    0.00000046   -0.00000048
     atom   93 type  3   force =    -0.00000167    0.00000051   -0.00000059
     atom   94 type  3   force =    -0.00000117    0.00000037   -0.00000035
     atom   95 type  3   force =    -0.00000138    0.00000051   -0.00000037
     atom   96 type  3   force =    -0.00000161    0.00000047   -0.00000060
     atom   97 type  1   force =    -0.00000809    0.00000063   -0.00000253
     atom   98 type  1   force =    -0.00000881    0.00000014   -0.00000277
     atom   99 type  1   force =    -0.00000920    0.00000053   -0.00000279
     atom  100 type  1   force =    -0.00000804    0.00000088   -0.00000255
     atom  101 type  1   force =    -0.00000950    0.00000117   -0.00000312
     atom  102 type  1   force =    -0.00000657    0.00000060   -0.00000262
     atom  103 type  1   force =    -0.00000763    0.00000159   -0.00000279
     atom  104 type  1   force =    -0.00000941    0.00000107   -0.00000310
     atom  105 type  2   force =     0.00000554   -0.00000585   -0.00000056
     atom  106 type  2   force =     0.00000683   -0.00000700   -0.00000052
     atom  107 type  2   force =     0.00000699   -0.00000707   -0.00000060
     atom  108 type  2   force =     0.00000591   -0.00000604   -0.00000055
     atom  109 type  2   force =     0.00000704   -0.00000698   -0.00000071
     atom  110 type  2   force =     0.00000598   -0.00000588   -0.00000040
     atom  111 type  2   force =     0.00000662   -0.00000625   -0.00000047
     atom  112 type  2   force =     0.00000703   -0.00000680   -0.00000072
     atom  113 type  3   force =    -0.00000017    0.00000093   -0.00000004
     atom  114 type  3   force =    -0.00000017    0.00000110   -0.00000003
     atom  115 type  3   force =    -0.00000022    0.00000110   -0.00000004
     atom  116 type  3   force =    -0.00000026    0.00000097   -0.00000006
     atom  117 type  3   force =    -0.00000013    0.00000110   -0.00000007
     atom  118 type  3   force =    -0.00000004    0.00000102   -0.00000000
     atom  119 type  3   force =    -0.00000002    0.00000100   -0.00000000
     atom  120 type  3   force =    -0.00000021    0.00000116   -0.00000006
     atom  121 type  1   force =    -0.00000694    0.00000743   -0.00000257
     atom  122 type  1   force =    -0.00000734    0.00000726   -0.00000241
     atom  123 type  1   force =    -0.00000636    0.00000640   -0.00000256
     atom  124 type  1   force =    -0.00000662    0.00000730   -0.00000249
     atom  125 type  1   force =    -0.00000631    0.00000779   -0.00000343
     atom  126 type  1   force =    -0.00000665    0.00000625   -0.00000204
     atom  127 type  1   force =    -0.00000606    0.00000689   -0.00000275
     atom  128 type  1   force =    -0.00000535    0.00000789   -0.00000352
     atom  129 type  1   force =    -0.00001039   -0.00000010    0.00000169
     atom  130 type  1   force =    -0.00001230    0.00000097    0.00000078
     atom  131 type  1   force =    -0.00001121   -0.00000077    0.00000127
     atom  132 type  1   force =    -0.00001008   -0.00000037    0.00000160
     atom  133 type  1   force =    -0.00001242    0.00000328   -0.00000091
     atom  134 type  1   force =    -0.00000915   -0.00000139    0.00000215
     atom  135 type  1   force =    -0.00000997   -0.00000073    0.00000151
     atom  136 type  1   force =    -0.00001202    0.00000282   -0.00000056
     atom  137 type  2   force =    -0.00000073   -0.00000482    0.00000105
     atom  138 type  2   force =    -0.00000025   -0.00000527    0.00000130
     atom  139 type  2   force =    -0.00000031   -0.00000565    0.00000136
     atom  140 type  2   force =    -0.00000068   -0.00000448    0.00000124
     atom  141 type  2   force =    -0.00000035   -0.00000495    0.00000077
     atom  142 type  2   force =    -0.00000110   -0.00000534    0.00000136
     atom  143 type  2   force =    -0.00000144   -0.00000529    0.00000109
     atom  144 type  2   force =    -0.00000058   -0.00000517    0.00000090
     atom  145 type  2   force =     0.00000173   -0.00000349    0.00000262
     atom  146 type  2   force =     0.00000233   -0.00000373    0.00000275
     atom  147 type  2   force =     0.00000255   -0.00000447    0.00000294
     atom  148 type  2   force =     0.00000219   -0.00000366    0.00000286
     atom  149 type  2   force =     0.00000190   -0.00000287    0.00000193
     atom  150 type  2   force =     0.00000168   -0.00000443    0.00000325
     atom  151 type  2   force =     0.00000252   -0.00000382    0.00000253
     atom  152 type  2   force =     0.00000259   -0.00000313    0.00000203
     atom  153 type  2   force =     0.00000620   -0.00000175    0.00000175
     atom  154 type  2   force =     0.00000524   -0.00000164    0.00000196
     atom  155 type  2   force =     0.00000461   -0.00000204    0.00000181
     atom  156 type  2   force =     0.00000593   -0.00000224    0.00000190
     atom  157 type  2   force =     0.00000583   -0.00000177    0.00000191
     atom  158 type  2   force =     0.00000642   -0.00000172    0.00000200
     atom  159 type  2   force =     0.00000634   -0.00000208    0.00000198
     atom  160 type  2   force =     0.00000547   -0.00000181    0.00000200
     atom  161 type  3   force =     0.00000058    0.00000108    0.00000097
     atom  162 type  3   force =     0.00000048    0.00000097    0.00000099
     atom  163 type  3   force =     0.00000044    0.00000081    0.00000097
     atom  164 type  3   force =     0.00000065    0.00000085    0.00000104
     atom  165 type  3   force =     0.00000060    0.00000087    0.00000102
     atom  166 type  3   force =     0.00000067    0.00000111    0.00000103
     atom  167 type  3   force =     0.00000071    0.00000099    0.00000102
     atom  168 type  3   force =     0.00000064    0.00000073    0.00000104
     atom  169 type  2   force =    -0.00000013   -0.00000443   -0.00000204
     atom  170 type  2   force =     0.00000046   -0.00000527   -0.00000219
     atom  171 type  2   force =     0.00000027   -0.00000603   -0.00000234
     atom  172 type  2   force =    -0.00000030   -0.00000502   -0.00000219
     atom  173 type  2   force =     0.00000036   -0.00000506   -0.00000243
     atom  174 type  2   force =     0.00000059   -0.00000401   -0.00000190
     atom  175 type  2   force =     0.00000042   -0.00000527   -0.00000212
     atom  176 type  2   force =     0.00000023   -0.00000519   -0.00000249
     atom  177 type  3   force =    -0.00000114   -0.00000052   -0.00000056
     atom  178 type  3   force =    -0.00000129   -0.00000062   -0.00000060
     atom  179 type  3   force =    -0.00000137   -0.00000077   -0.00000063
     atom  180 type  3   force =    -0.00000125   -0.00000057   -0.00000060
     atom  181 type  3   force =    -0.00000142   -0.00000055   -0.00000070
     atom  182 type  3   force =    -0.00000106   -0.00000050   -0.00000054
     atom  183 type  3   force =    -0.00000111   -0.00000070   -0.00000059
     atom  184 type  3   force =    -0.00000144   -0.00000059   -0.00000071
     atom  185 type  1   force =     0.00000058   -0.00000965    0.00000733
     atom  186 type  1   force =    -0.00000101   -0.00001038    0.00000808
     atom  187 type  1   force =     0.00000061   -0.00001060    0.00000784
     atom  188 type  1   force =     0.00000097   -0.00000999    0.00000760
     atom  189 type  1   force =    -0.00000258   -0.00000968    0.00000762
     atom  190 type  1   force =     0.00000107   -0.00000984    0.00000754
     atom  191 type  1   force =     0.00000149   -0.00001008    0.00000740
     atom  192 type  1   force =    -0.00000152   -0.00001047    0.00000810
     atom  193 type  1   force =    -0.00001187   -0.00001310    0.00001099
     atom  194 type  1   force =    -0.00001364   -0.00001382    0.00001126
     atom  195 type  1   force =    -0.00001295   -0.00001407    0.00001125
     atom  196 type  1   force =    -0.00001180   -0.00001343    0.00001116
     atom  197 type  1   force =    -0.00001356   -0.00001121    0.00000957
     atom  198 type  1   force =    -0.00001148   -0.00001373    0.00001132
     atom  199 type  1   force =    -0.00001121   -0.00001352    0.00001097
     atom  200 type  1   force =    -0.00001304   -0.00001150    0.00000992
     atom  201 type  2   force =     0.00000830   -0.00000467   -0.00000169
     atom  202 type  2   force =     0.00000879   -0.00000489   -0.00000155
     atom  203 type  2   force =     0.00000831   -0.00000484   -0.00000140
     atom  204 type  2   force =     0.00000694   -0.00000392   -0.00000154
     atom  205 type  2   force =     0.00000950   -0.00000526   -0.00000194
     atom  206 type  2   force =     0.00000725   -0.00000482   -0.00000137
     atom  207 type  2   force =     0.00000622   -0.00000424   -0.00000137
     atom  208 type  2   force =     0.00000846   -0.00000475   -0.00000185
     atom  209 type  3   force =     0.00000140   -0.00000050   -0.00000056
     atom  210 type  3   force =     0.00000149   -0.00000049   -0.00000050
     atom  211 type  3   force =     0.00000142   -0.00000050   -0.00000040
     atom  212 type  3   force =     0.00000125   -0.00000043   -0.00000050
     atom  213 type  3   force =     0.00000163   -0.00000057   -0.00000061
     atom  214 type  3   force =     0.00000117   -0.00000050   -0.00000037
     atom  215 type  3   force =     0.00000117   -0.00000043   -0.00000033
     atom  216 type  3   force =     0.00000156   -0.00000049   -0.00000057
     atom  217 type  1   force =     0.00000899   -0.00000129   -0.00000280
     atom  218 type  1   force =     0.00000937   -0.00000060   -0.00000297
     atom  219 type  1   force =     0.00000906   -0.00000044   -0.00000286
     atom  220 type  1   force =     0.00000799   -0.00000055   -0.00000257
     atom  221 type  1   force =     0.00000992   -0.00000147   -0.00000307
     atom  222 type  1   force =     0.00000724   -0.00000098   -0.00000273
     atom  223 type  1   force =     0.00000622   -0.00000096   -0.00000257
     atom  224 type  1   force =     0.00000898   -0.00000098   -0.00000295
     atom  225 type  2   force =    -0.00000581    0.00000611   -0.00000052
     atom  226 type  2   force =    -0.00000707    0.00000713   -0.00000057
     atom  227 type  2   force =    -0.00000717    0.00000707   -0.00000057
     atom  228 type  2   force =    -0.00000670    0.00000659   -0.00000057
     atom  229 type  2   force =    -0.00000674    0.00000682   -0.00000065
     atom  230 type  2   force =    -0.00000578    0.00000584   -0.00000033
     atom  231 type  2   force =    -0.00000586    0.00000588   -0.00000031
     atom  232 type  2   force =    -0.00000724    0.00000732   -0.00000056
     atom  233 type  3   force =     0.00000008   -0.00000094   -0.00000005
     atom  234 type  3   force =     0.00000021   -0.00000113   -0.00000003
     atom  235 type  3   force =     0.00000015   -0.00000113   -0.00000004
     atom  236 type  3   force =     0.00000005   -0.00000096   -0.00000006
     atom  237 type  3   force =     0.00000021   -0.00000110   -0.00000009
     atom  238 type  3   force =     0.00000013   -0.00000098   -0.00000002
     atom  239 type  3   force =     0.00000018   -0.00000104   -0.00000003
     atom  240 type  3   force =     0.00000015   -0.00000107   -0.00000008
     atom  241 type  1   force =    -0.00000851   -0.00000413    0.00000379
     atom  242 type  1   force =    -0.00000806   -0.00000514    0.00000316
     atom  243 type  1   force =    -0.00000802   -0.00000634    0.00000278
     atom  244 type  1   force =    -0.00000780   -0.00000576    0.00000313
     atom  245 type  1   force =    -0.00000858   -0.00000555    0.00000341
     atom  246 type  1   force =    -0.00000655   -0.00000476    0.00000266
     atom  247 type  1   force =    -0.00000664   -0.00000540    0.00000270
     atom  248 type  1   force =    -0.00000844   -0.00000573    0.00000346
     atom  249 type  1   force =    -0.00000217   -0.00001176    0.00000012
     atom  250 type  1   force =    -0.00000018   -0.00001030   -0.00000140
     atom  251 type  1   force =    -0.00000124   -0.00001095   -0.00000085
     atom  252 type  1   force =    -0.00000151   -0.00001181   -0.00000031
     atom  253 type  1   force =    -0.00000102   -0.00001072   -0.00000079
     atom  254 type  1   force =     0.00000071   -0.00001052   -0.00000120
     atom  255 type  1   force =     0.00000054   -0.00001056   -0.00000097
     atom  256 type  1   force =    -0.00000122   -0.00001085   -0.00000062
     atom  257 type  2   force =     0.00000485   -0.00000155   -0.00000105
     atom  258 type  2   force =     0.00000489   -0.00000178   -0.00000120
     atom  259 type  2   force =     0.00000452   -0.00000157   -0.00000131
     atom  260 type  2   force =     0.00000551   -0.00000094   -0.00000131
     atom  261 type  2   force =     0.00000394   -0.00000096   -0.00000137
     atom  262 type  2   force =     0.00000650   -0.00000141   -0.00000116
     atom  263 type  2   force =     0.00000613   -0.00000136   -0.00000132
     atom  264 type  2   force =     0.00000427   -0.00000106   -0.00000120
     atom  265 type  2   force =     0.00000294    0.00000366   -0.00000201
     atom  266 type  2   force =     0.00000332    0.00000296   -0.00000252
     atom  267 type  2   force =     0.00000297    0.00000237   -0.00000253
     atom  268 type  2   force =     0.00000370    0.00000256   -0.00000267
     atom  269 type  2   force =     0.00000272    0.00000287   -0.00000246
     atom  270 type  2   force =     0.00000454    0.00000293   -0.00000268
     atom  271 type  2   force =     0.00000430    0.00000248   -0.00000283
     atom  272 type  2   force =     0.00000282    0.00000260   -0.00000233
     atom  273 type  2   force =     0.00000236    0.00000501   -0.00000186
     atom  274 type  2   force =     0.00000194    0.00000436   -0.00000195
     atom  275 type  2   force =     0.00000161    0.00000471   -0.00000204
     atom  276 type  2   force =     0.00000203    0.00000595   -0.00000206
     atom  277 type  2   force =     0.00000159    0.00000563   -0.00000224
     atom  278 type  2   force =     0.00000279    0.00000528   -0.00000195
     atom  279 type  2   force =     0.00000253    0.00000561   -0.00000211
     atom  280 type  2   force =     0.00000169    0.00000588   -0.00000212
     atom  281 type  3   force =    -0.00000081    0.00000052   -0.00000100
     atom  282 type  3   force =    -0.00000083    0.00000039   -0.00000099
     atom  283 type  3   force =    -0.00000089    0.00000040   -0.00000101
     atom  284 type  3   force =    -0.00000100    0.00000061   -0.00000107
     atom  285 type  3   force =    -0.00000075    0.00000065   -0.00000109
     atom  286 type  3   force =    -0.00000091    0.00000049   -0.00000105
     atom  287 type  3   force =    -0.00000097    0.00000049   -0.00000110
     atom  288 type  3   force =    -0.00000079    0.00000066   -0.00000111
     atom  289 type  2   force =     0.00000483    0.00000049    0.00000236
     atom  290 type  2   force =     0.00000489   -0.00000020    0.00000217
     atom  291 type  2   force =     0.00000465   -0.00000017    0.00000205
     atom  292 type  2   force =     0.00000579    0.00000018    0.00000266
     atom  293 type  2   force =     0.00000339    0.00000071    0.00000192
     atom  294 type  2   force =     0.00000617   -0.00000029    0.00000242
     atom  295 type  2   force =     0.00000601   -0.00000035    0.00000229
     atom  296 type  2   force =     0.00000390    0.00000058    0.00000215
     atom  297 type  3   force =     0.00000067   -0.00000125    0.00000066
     atom  298 type  3   force =     0.00000059   -0.00000123    0.00000063
     atom  299 type  3   force =     0.00000051   -0.00000124    0.00000059
     atom  300 type  3   force =     0.00000071   -0.00000133    0.00000073
     atom  301 type  3   force =     0.00000040   -0.00000116    0.00000057
     atom  302 type  3   force =     0.00000074   -0.00000147    0.00000066
     atom  303 type  3   force =     0.00000064   -0.00000151    0.00000062
     atom  304 type  3   force =     0.00000039   -0.00000114    0.00000060
     atom  305 type  1   force =     0.00001064    0.00000056   -0.00000835
     atom  306 type  1   force =     0.00001009    0.00000203   -0.00000798
     atom  307 type  1   force =     0.00000968    0.00000013   -0.00000799
     atom  308 type  1   force =     0.00001082   -0.00000061   -0.00000859
     atom  309 type  1   force =     0.00000983    0.00000126   -0.00000833
     atom  310 type  1   force =     0.00001124    0.00000137   -0.00000813
     atom  311 type  1   force =     0.00001114    0.00000096   -0.00000838
     atom  312 type  1   force =     0.00001010    0.00000073   -0.00000816
     atom  313 type  1   force =     0.00001164   -0.00001217   -0.00001012
     atom  314 type  1   force =     0.00001275   -0.00001135   -0.00001108
     atom  315 type  1   force =     0.00001261   -0.00001196   -0.00001096
     atom  316 type  1   force =     0.00001283   -0.00001313   -0.00001082
     atom  317 type  1   force =     0.00001243   -0.00001141   -0.00001095
     atom  318 type  1   force =     0.00001333   -0.00001204   -0.00001079
     atom  319 type  1   force =     0.00001352   -0.00001219   -0.00001094
     atom  320 type  1   force =     0.00001252   -0.00001159   -0.00001078
     atom  321 type  2   force =     0.00000363    0.00000730    0.00000176
     atom  322 type  2   force =     0.00000396    0.00000678    0.00000153
     atom  323 type  2   force =     0.00000428    0.00000699    0.00000139
     atom  324 type  2   force =     0.00000495    0.00000872    0.00000171
     atom  325 type  2   force =     0.00000335    0.00000696    0.00000167
     atom  326 type  2   force =     0.00000499    0.00000804    0.00000157
     atom  327 type  2   force =     0.00000522    0.00000844    0.00000152
     atom  328 type  2   force =     0.00000393    0.00000756    0.00000179
     atom  329 type  3   force =     0.00000024    0.00000142    0.00000058
     atom  330 type  3   force =     0.00000029    0.00000131    0.00000045
     atom  331 type  3   force =     0.00000047    0.00000123    0.00000044
     atom  332 type  3   force =     0.00000041    0.00000152    0.00000054
     atom  333 type  3   force =     0.00000034    0.00000127    0.00000061
     atom  334 type  3   force =     0.00000029    0.00000149    0.00000044
     atom  335 type  3   force =     0.00000042    0.00000142    0.00000047
     atom  336 type  3   force =     0.00000044    0.00000130    0.00000061
     atom  337 type  1   force =     0.00000025    0.00000869    0.00000313
     atom  338 type  1   force =     0.00000083    0.00000694    0.00000290
     atom  339 type  1   force =     0.00000088    0.00000736    0.00000260
     atom  340 type  1   force =     0.00000092    0.00000913    0.00000334
     atom  341 type  1   force =    -0.00000026    0.00000833    0.00000264
     atom  342 type  1   force =     0.00000102    0.00000793    0.00000318
     atom  343 type  1   force =     0.00000083    0.00000847    0.00000291
     atom  344 type  1   force =     0.00000015    0.00000849    0.00000279
     atom  345 type  2   force =    -0.00000702   -0.00000642    0.00000060
     atom  346 type  2   force =    -0.00000609   -0.00000586    0.00000033
     atom  347 type  2   force =    -0.00000598   -0.00000597    0.00000037
     atom  348 type  2   force =    -0.00000713   -0.00000686    0.00000062
     atom  349 type  2   force =    -0.00000572   -0.00000585    0.00000045
     atom  350 type  2   force =    -0.00000733   -0.00000600    0.00000062
     atom  351 type  2   force =    -0.00000722   -0.00000643    0.00000060
     atom  352 type  2   force =    -0.00000586   -0.00000579    0.00000058
     atom  353 type  3   force =     0.00000106    0.00000014    0.00000003
     atom  354 type  3   force =     0.00000092    0.00000009   -0.00000000
     atom  355 type  3   force =     0.00000093    0.00000007    0.00000001
     atom  356 type  3   force =     0.00000106    0.00000019    0.00000008
     atom  357 type  3   force =     0.00000100    0.00000008    0.00000002
     atom  358 type  3   force =     0.00000111    0.00000021   -0.00000001
     atom  359 type  3   force =     0.00000117    0.00000019    0.00000000
     atom  360 type  3   force =     0.00000101    0.00000018    0.00000006
     atom  361 type  1   force =     0.00000815    0.00000476    0.00000348
     atom  362 type  1   force =     0.00000728    0.00000617    0.00000280
     atom  363 type  1   force =     0.00000771    0.00000594    0.00000249
     atom  364 type  1   force =     0.00000774    0.00000474    0.00000358
     atom  365 type  1   force =     0.00000914    0.00000415    0.00000389
     atom  366 type  1   force =     0.00000641    0.00000539    0.00000245
     atom  367 type  1   force =     0.00000686    0.00000393    0.00000277
     atom  368 type  1   force =     0.00000892    0.00000450    0.00000358
     atom  369 type  1   force =    -0.00000037    0.00001024   -0.00000190
     atom  370 type  1   force =     0.00000093    0.00001149   -0.00000035
     atom  371 type  1   force =     0.00000190    0.00001148   -0.00000007
     atom  372 type  1   force =    -0.00000112    0.00001014   -0.00000193
     atom  373 type  1   force =    -0.00000088    0.00001019   -0.00000135
     atom  374 type  1   force =     0.00000240    0.00001083   -0.00000009
     atom  375 type  1   force =     0.00000277    0.00001075    0.00000021
     atom  376 type  1   force =    -0.00000032    0.00001075   -0.00000097
     atom  377 type  2   force =    -0.00000507    0.00000149   -0.00000164
     atom  378 type  2   force =    -0.00000530    0.00000108   -0.00000099
     atom  379 type  2   force =    -0.00000523    0.00000108   -0.00000114
     atom  380 type  2   force =    -0.00000521    0.00000134   -0.00000139
     atom  381 type  2   force =    -0.00000628    0.00000186   -0.00000125
     atom  382 type  2   force =    -0.00000383    0.00000148   -0.00000124
     atom  383 type  2   force =    -0.00000373    0.00000145   -0.00000105
     atom  384 type  2   force =    -0.00000621    0.00000116   -0.00000127
     atom  385 type  2   force =    -0.00000386   -0.00000251   -0.00000312
     atom  386 type  2   force =    -0.00000348   -0.00000346   -0.00000215
     atom  387 type  2   force =    -0.00000295   -0.00000292   -0.00000224
     atom  388 type  2   force =    -0.00000408   -0.00000250   -0.00000305
     atom  389 type  2   force =    -0.00000450   -0.00000334   -0.00000271
     atom  390 type  2   force =    -0.00000223   -0.00000317   -0.00000206
     atom  391 type  2   force =    -0.00000199   -0.00000307   -0.00000193
     atom  392 type  2   force =    -0.00000451   -0.00000244   -0.00000287
     atom  393 type  2   force =    -0.00000189   -0.00000499   -0.00000223
     atom  394 type  2   force =    -0.00000244   -0.00000532   -0.00000187
     atom  395 type  2   force =    -0.00000215   -0.00000570   -0.00000201
     atom  396 type  2   force =    -0.00000191   -0.00000505   -0.00000213
     atom  397 type  2   force =    -0.00000275   -0.00000450   -0.00000188
     atom  398 type  2   force =    -0.00000167   -0.00000492   -0.00000205
     atom  399 type  2   force =    -0.00000144   -0.00000514   -0.00000191
     atom  400 type  2   force =    -0.00000233   -0.00000536   -0.00000194
     atom  401 type  3   force =     0.00000078   -0.00000050   -0.00000107
     atom  402 type  3   force =     0.00000080   -0.00000058   -0.00000102
     atom  403 type  3   force =     0.00000095   -0.00000055   -0.00000106
     atom  404 type  3   force =     0.00000084   -0.00000051   -0.00000106
     atom  405 type  3   force =     0.00000085   -0.00000041   -0.00000101
     atom  406 type  3   force =     0.00000076   -0.00000053   -0.00000103
     atom  407 type  3   force =     0.00000086   -0.00000051   -0.00000100
     atom  408 type  3   force =     0.00000098   -0.00000052   -0.00000104
     atom  409 type  2   force =    -0.00000505   -0.00000059    0.00000224
     atom  410 type  2   force =    -0.00000438   -0.00000008    0.00000198
     atom  411 type  2   force =    -0.00000471    0.00000005    0.00000203
     atom  412 type  2   force =    -0.00000596   -0.00000027    0.00000246
     atom  413 type  2   force =    -0.00000354   -0.00000055    0.00000204
     atom  414 type  2   force =    -0.00000586    0.00000038    0.00000254
     atom  415 type  2   force =    -0.00000608    0.00000049    0.00000252
     atom  416 type  2   force =    -0.00000420   -0.00000021    0.00000232
     atom  417 type  3   force =    -0.00000069    0.00000127    0.00000062
     atom  418 type  3   force =    -0.00000049    0.00000122    0.00000059
     atom  419 type  3   force =    -0.00000051    0.00000121    0.00000060
     atom  420 type  3   force =    -0.00000076    0.00000133    0.00000068
     atom  421 type  3   force =    -0.00000040    0.00000114    0.00000058
     atom  422 type  3   force =    -0.00000072    0.00000142    0.00000070
     atom  423 type  3   force =    -0.00000067    0.00000148    0.00000070
     atom  424 type  3   force =    -0.00000051    0.00000124    0.00000066
     atom  425 type  1   force =    -0.00001037   -0.00000156   -0.00000838
     atom  426 type  1   force =    -0.00001084   -0.00000098   -0.00000829
     atom  427 type  1   force =    -0.00001048   -0.00000022   -0.00000861
     atom  428 type  1   force =    -0.00001033   -0.00000206   -0.00000836
     atom  429 type  1   force =    -0.00001128   -0.00000226   -0.00000797
     atom  430 type  1   force =    -0.00000972   -0.00000065   -0.00000803
     atom  431 type  1   force =    -0.00000972   -0.00000075   -0.00000807
     atom  432 type  1   force =    -0.00001115   -0.00000049   -0.00000819
     atom  433 type  1   force =    -0.00001360    0.00001187   -0.00001173
     atom  434 type  1   force =    -0.00001259    0.00001221   -0.00001050
     atom  435 type  1   force =    -0.00001184    0.00001201   -0.00001037
     atom  436 type  1   force =    -0.00001393    0.00001179   -0.00001194
     atom  437 type  1   force =    -0.00001323    0.00001169   -0.00001055
     atom  438 type  1   force =    -0.00001124    0.00001111   -0.00000999
     atom  439 type  1   force =    -0.00001087    0.00001095   -0.00000978
     atom  440 type  1   force =    -0.00001353    0.00001250   -0.00001092
     atom  441 type  2   force =    -0.00000432   -0.00000669    0.00000118
     atom  442 type  2   force =    -0.00000403   -0.00000747    0.00000175
     atom  443 type  2   force =    -0.00000471   -0.00000887    0.00000182
     atom  444 type  2   force =    -0.00000446   -0.00000707    0.00000146
     atom  445 type  2   force =    -0.00000444   -0.00000711    0.00000145
     atom  446 type  2   force =    -0.00000309   -0.00000658    0.00000165
     atom  447 type  2   force =    -0.00000353   -0.00000741    0.00000188
     atom  448 type  2   force =    -0.00000523   -0.00000816    0.00000145
     atom  449 type  3   force =    -0.00000037   -0.00000158    0.00000060
     atom  450 type  3   force =    -0.00000040   -0.00000130    0.00000046
     atom  451 type  3   force =    -0.00000040   -0.00000127    0.00000040
     atom  452 type  3   force =    -0.00000029   -0.00000148    0.00000054
     atom  453 type  3   force =    -0.00000036   -0.00000133    0.00000061
     atom  454 type  3   force =    -0.00000035   -0.00000144    0.00000041
     atom  455 type  3   force =    -0.00000017   -0.00000141    0.00000041
     atom  456 type  3   force =    -0.00000031   -0.00000124    0.00000057
     atom  457 type  1   force =    -0.00000098   -0.00000941    0.00000320
     atom  458 type  1   force =    -0.00000105   -0.00000692    0.00000266
     atom  459 type  1   force =    -0.00000067   -0.00000699    0.00000245
     atom  460 type  1   force =    -0.00000040   -0.00000861    0.00000289
     atom  461 type  1   force =    -0.00000006   -0.00000849    0.00000308
     atom  462 type  1   force =    -0.00000100   -0.00000782    0.00000317
     atom  463 type  1   force =    -0.00000062   -0.00000722    0.00000326
     atom  464 type  1   force =     0.00000029   -0.00000802    0.00000270
     atom  465 type  2   force =     0.00000679    0.00000628    0.00000059
     atom  466 type  2   force =     0.00000605    0.00000553    0.00000040
     atom  467 type  2   force =     0.00000585    0.00000569    0.00000038
     atom  468 type  2   force =     0.00000699    0.00000687    0.00000075
     atom  469 type  2   force =     0.00000578    0.00000605    0.00000034
     atom  470 type  2   force =     0.00000755    0.00000662    0.00000052
     atom  471 type  2   force =     0.00000761    0.00000686    0.00000048
     atom  472 type  2   force =     0.00000593    0.00000653    0.00000054
     atom  473 type  3   force =    -0.00000108   -0.00000019    0.00000003
     atom  474 type  3   force =    -0.00000097   -0.00000014    0.00000000
     atom  475 type  3   force =    -0.00000094   -0.00000016    0.00000001
     atom  476 type  3   force =    -0.00000110   -0.00000020    0.00000005
     atom  477 type  3   force =    -0.00000093   -0.00000010    0.00000003
     atom  478 type  3   force =    -0.00000103   -0.00000016    0.00000000
     atom  479 type  3   force =    -0.00000103   -0.00000017    0.00000002
     atom  480 type  3   force =    -0.00000096   -0.00000001    0.00000005
     atom  481 type  4   force =    -0.00000132    0.00000195   -0.00000065
     atom  482 type  4   force =    -0.00000086    0.00000066    0.00000206
     atom  483 type  4   force =     0.00000136   -0.00000166   -0.00000176
     atom  484 type  4   force =    -0.00000065    0.00000030   -0.00000079
     atom  485 type  4   force =    -0.00000045   -0.00000032    0.00000072
     atom  486 type  4   force =     0.00000002   -0.00000136   -0.00000318
     atom  487 type  4   force =     0.00000306   -0.00000373   -0.00000207
     atom  488 type  4   force =     0.00000142   -0.00000089    0.00000005
     atom  489 type  4   force =    -0.00000158   -0.00000107    0.00000010
     atom  490 type  4   force =     0.00000010    0.00000177   -0.00000088
     atom  491 type  4   force =    -0.00000001   -0.00000049   -0.00000029
     atom  492 type  4   force =    -0.00000263   -0.00000239    0.00000006
     atom  493 type  4   force =    -0.00000054   -0.00000073   -0.00000141
     atom  494 type  4   force =     0.00000116    0.00000013   -0.00000050
     atom  495 type  4   force =     0.00000109    0.00000004   -0.00000195
     atom  496 type  4   force =     0.00000078   -0.00000287   -0.00000186

     Total force =     0.015425     Total SCF correction =     0.000197


     Computing stress (Cartesian axis) and pressure

          total   stress  (Ry/bohr**3)                   (kbar)     P=       -1.97
  -0.00001408   0.00000029  -0.00000003           -2.07        0.04       -0.00
   0.00000029  -0.00001403  -0.00000003            0.04       -2.06       -0.00
  -0.00000003  -0.00000003  -0.00001209           -0.00       -0.00       -1.78

     kinetic stress (kbar)  10030.41      0.01     -0.01
                                0.01  10030.41     -0.01
                               -0.01     -0.01  10716.58

     local   stress (kbar) -23379.07     -0.00     -0.13
                               -0.00 -23378.97     -0.18
                               -0.13     -0.18  -2297.30

     nonloc. stress (kbar)   2420.52      0.00      0.00
                                0.00   2420.52      0.00
                                0.00      0.00   2341.33

     hartree stress (kbar)  13178.60     -0.02      0.04
                               -0.02  13178.55      0.07
                                0.04      0.07   6149.32

     exc-cor stress (kbar)  -1776.02     -0.00      0.00
                               -0.00  -1776.02      0.00
                                0.00      0.00  -1797.58

     corecor stress (kbar)  -1052.43     -0.00     -0.00
                               -0.00  -1052.43     -0.00
                               -0.00     -0.00  -1036.21

     ewald   stress (kbar)    575.92      0.05      0.09
                                0.05    575.88      0.11
                                0.09      0.11 -14077.92

     hubbard stress (kbar)      0.00      0.00      0.00
                                0.00      0.00      0.00
                                0.00      0.00      0.00

     DFT-D   stress (kbar)      0.00      0.00      0.00
                                0.00      0.00      0.00
                                0.00      0.00      0.00

     XDM     stress (kbar)      0.00      0.00      0.00
                                0.00      0.00      0.00
                                0.00      0.00      0.00

     dft-nl  stress (kbar)      0.00      0.00      0.00
                                0.00      0.00      0.00
                                0.00      0.00      0.00

     TS-vdW  stress (kbar)      0.00      0.00      0.00
                                0.00      0.00      0.00
                                0.00      0.00      0.00

     MDB     stress (kbar)      0.00      0.00      0.00
                                0.00      0.00      0.00
                                0.00      0.00      0.00

     3D-RISM stress (kbar)      0.00      0.00      0.00
                                0.00      0.00      0.00
                                0.00      0.00      0.00


     init_run     :    151.04s CPU    154.60s WALL (       1 calls)
     electrons    :   6340.47s CPU   6483.32s WALL (       1 calls)
     forces       :     76.63s CPU     80.29s WALL (       1 calls)
     stress       :   1665.14s CPU   1683.06s WALL (       1 calls)

     Called by init_run:
     wfcinit      :    140.20s CPU    143.08s WALL (       1 calls)
     wfcinit:atom :      0.10s CPU      0.20s WALL (       1 calls)
     wfcinit:wfcr :    138.95s CPU    141.39s WALL (       1 calls)
     potinit      :      3.99s CPU      4.01s WALL (       1 calls)
     hinit0       :      3.77s CPU      3.81s WALL (       1 calls)

     Called by electrons:
     c_bands      :   5809.67s CPU   5915.85s WALL (      18 calls)
     sum_band     :    487.54s CPU    512.25s WALL (      18 calls)
     v_of_rho     :      5.75s CPU      5.96s WALL (      19 calls)
     v_h          :      0.43s CPU      0.46s WALL (      19 calls)
     v_xc         :      5.89s CPU      6.10s WALL (      21 calls)
     newd         :     24.84s CPU     36.89s WALL (      19 calls)
     PAW_pot      :     12.18s CPU     12.21s WALL (      19 calls)
     mix_rho      :      1.94s CPU      2.12s WALL (      18 calls)

     Called by c_bands:
     init_us_2    :     10.59s CPU     11.92s WALL (      37 calls)
     init_us_2:cp :     10.59s CPU     11.92s WALL (      37 calls)
     cegterg      :   5785.86s CPU   5890.15s WALL (      18 calls)

     Called by sum_band:
     sum_band:wei :      0.00s CPU      0.00s WALL (      18 calls)
     sum_band:loo :    463.92s CPU    475.50s WALL (      18 calls)
     sum_band:buf :      0.00s CPU      0.00s WALL (      18 calls)
     sum_band:ini :      5.23s CPU      5.74s WALL (      18 calls)
     sum_band:cal :    256.97s CPU    260.52s WALL (      18 calls)
     sum_band:bec :      0.79s CPU      0.79s WALL (      18 calls)
     addusdens    :     19.73s CPU     31.83s WALL (      18 calls)
                                        0.00s GPU  (      18 calls)
     addusd:skk   :      4.98s CPU     10.42s WALL (      72 calls)
                                        0.00s GPU  (      72 calls)

     Called by *egterg:
     cdiaghg      :    527.59s CPU    532.09s WALL (     103 calls)
     cegterg:over :    723.98s CPU    729.72s WALL (      85 calls)
     cegterg:upda :    353.14s CPU    357.99s WALL (      85 calls)
     cegterg:last :    820.34s CPU    828.86s WALL (      44 calls)
     cdiaghg:chol :     12.29s CPU     12.32s WALL (     103 calls)
     cdiaghg:inve :      2.09s CPU      2.10s WALL (     103 calls)
     cdiaghg:para :     45.53s CPU     47.64s WALL (     206 calls)
     h_psi        :   2624.31s CPU   2693.67s WALL (     104 calls)
     s_psi        :    629.90s CPU    634.39s WALL (     104 calls)
     g_psi        :      2.85s CPU      2.94s WALL (      85 calls)

     Called by h_psi:
     h_psi:calbec :    809.01s CPU    820.98s WALL (     104 calls)
     vloc_psi     :   1158.55s CPU   1208.45s WALL (     104 calls)
     add_vuspsi   :    653.98s CPU    659.14s WALL (     104 calls)

     General routines
     calbec       :   1139.61s CPU   1155.80s WALL (     127 calls)
     fft          :      9.15s CPU      9.48s WALL (     270 calls)
     ffts         :      0.72s CPU      0.81s WALL (      37 calls)
     fftw         :   1254.68s CPU   1309.16s WALL (  131034 calls)
     interpolate  :      0.74s CPU      0.81s WALL (      19 calls)

     Parallel routines

     PAW routines
     PAW_pot      :     12.18s CPU     12.21s WALL (      19 calls)

     PWSCF        :      2h17m CPU      2h20m WALL


   This run was terminated on:   2:23:36  25May2025            

=------------------------------------------------------------------------------=
   JOB DONE.
=------------------------------------------------------------------------------=
