
     Program PWSCF v.7.2 starts on 23May2025 at  0:46: 6 

     This program is part of the open-source Quantum ESPRESSO suite
     for quantum simulation of materials; please cite
         "P. Giannozzi et al., J. Phys.:Condens. Matter 21 395502 (2009);
         "P. Giannozzi et al., J. Phys.:Condens. Matter 29 465901 (2017);
         "P. Giannozzi et al., J. Chem. Phys. 152 154105 (2020);
          URL http://www.quantum-espresso.org", 
     in publications or presentations arising from this work. More details at
     http://www.quantum-espresso.org/quote

     Parallel version (MPI), running on    32 processors

     MPI processes distributed on     1 nodes
     189083 MiB available memory on the printing compute node when the environment starts

     Waiting for input...
     Reading input from standard input

     Current dimensions of program PWSCF are:
     Max number of different atomic species (ntypx) = 10
     Max number of k-points (npk) =  40000
     Max angular momentum in pseudopotentials (lmaxx) =  4
     file C.pbesol-n-kjpaw_psl.1.0.0.UPF: wavefunction(s)  2S 2P renormalized

     R & G space division:  proc/nbgrp/npool/nimage =      32
     Subspace diagonalization in iterative solution of the eigenvalue problem:
     one sub-group per band group will be used
     custom distributed-memory algorithm (size of sub-group:  5*  5 procs)


     Parallelization info
     --------------------
     sticks:   dense  smooth     PW     G-vecs:    dense   smooth      PW
     Min         878     844    211                80117    75361    9423
     Max         882     845    212                80120    75364    9425
     Sum       28159   27021   6771              2563819  2411581  301561

     Using Slab Decomposition



     bravais-lattice index     =            0
     lattice parameter (alat)  =      37.6381  a.u.
     unit-cell volume          =   38409.3354 (a.u.)^3
     number of atoms/cell      =          496
     number of atomic types    =            4
     number of electrons       =      2016.00
     number of Kohn-Sham states=         1008
     kinetic-energy cutoff     =      60.0000  Ry
     charge density cutoff     =     250.0000  Ry
     scf convergence threshold =      1.2E-08
     mixing beta               =       0.4000
     number of iterations used =            8  plain     mixing
     Exchange-correlation= SLA  PW   PSX  PSC
                           (   1   4  10   8   0   0   0)

     celldm(1)=  37.638096  celldm(2)=   0.000000  celldm(3)=   0.000000
     celldm(4)=   0.000000  celldm(5)=   0.000000  celldm(6)=   0.000000

     crystal axes: (cart. coord. in units of alat)
               a(1) = (  -0.509774   0.509774   0.693009 )  
               a(2) = (   0.509774  -0.509774   0.693009 )  
               a(3) = (   0.509774   0.509774  -0.693009 )  

     reciprocal axes: (cart. coord. in units 2 pi/alat)
               b(1) = (  0.000000  0.980827  0.721491 )  
               b(2) = (  0.980827  0.000000  0.721491 )  
               b(3) = (  0.980827  0.980827  0.000000 )  


     PseudoPot. # 1 for N  read from file:
     ./pseudo/N.pbesol-theos.UPF
     MD5 check sum: 1b64827339d390a5a22afef3ff345c9d
     Pseudo is Ultrasoft + core correction, Zval =  5.0
     Generated using "atomic" code by A. Dal Corso  v.5.1
     Using radial grid of 1085 points,  4 beta functions with: 
                l(1) =   0
                l(2) =   0
                l(3) =   1
                l(4) =   1
     Q(r) pseudized with 0 coefficients 


     PseudoPot. # 2 for C  read from file:
     ./pseudo/C.pbesol-n-kjpaw_psl.1.0.0.UPF
     MD5 check sum: 5f3a56537b2bcef3348431d8311bb923
     Pseudo is Projector augmented-wave + core cor, Zval =  4.0
     Generated using "atomic" code by A. Dal Corso  v.6.0 svn rev. 13079
     Shape of augmentation charge: PSQ
     Using radial grid of 1073 points,  4 beta functions with: 
                l(1) =   0
                l(2) =   0
                l(3) =   1
                l(4) =   1
     Q(r) pseudized with 0 coefficients 


     PseudoPot. # 3 for H  read from file:
     ./pseudo/H.pbesol-rrkjus_psl.1.0.0.UPF
     MD5 check sum: 0324ed591cc0147dc3d88cad0d33f665
     Pseudo is Ultrasoft, Zval =  1.0
     Generated using "atomic" code by A. Dal Corso  v.6.0 svn rev. 13079
     Using radial grid of  929 points,  2 beta functions with: 
                l(1) =   0
                l(2) =   0
     Q(r) pseudized with 0 coefficients 


     PseudoPot. # 4 for Zn read from file:
     ./pseudo/zn_pbesol_v1.uspp.F.UPF
     MD5 check sum: 7d8615e52efe7c1e2b1899de8658bae2
     Pseudo is Ultrasoft, Zval = 20.0
     Generated by new atomic code, or converted to UPF format
     Using radial grid of  943 points,  6 beta functions with: 
                l(1) =   0
                l(2) =   0
                l(3) =   1
                l(4) =   1
                l(5) =   2
                l(6) =   2
     Q(r) pseudized with  8 coefficients,  rinner =    1.100   1.100   1.100
                                                       1.100   1.100

     atomic species   valence    mass     pseudopotential
        N              5.00    14.00670     N ( 1.00)
        C              4.00    12.01070     C ( 1.00)
        H              1.00     1.00794     H ( 1.00)
        Zn            20.00    65.38000     Zn( 1.00)

     No symmetry found


                                    s                        frac. trans.

      isym =  1     identity                                     

 cryst.   s( 1) = (     1          0          0      )
                  (     0          1          0      )
                  (     0          0          1      )

 cart.    s( 1) = (  1.0000000  0.0000000  0.0000000 )
                  (  0.0000000  1.0000000  0.0000000 )
                  (  0.0000000  0.0000000  1.0000000 )


   Cartesian axes

     site n.     atom                  positions (alat units)
         1           N   tau(   1) = (   0.2710468  -0.0829864   0.1173636  )
         2           N   tau(   2) = (   0.0161599   0.1719005   0.4638680  )
         3           N   tau(   3) = (   0.5259337  -0.3378733   0.4638680  )
         4           N   tau(   4) = (   0.2710468  -0.0829864   0.8103725  )
         5           N   tau(   5) = (   0.5259337   0.1719005  -0.2291408  )
         6           N   tau(   6) = (   0.2710468   0.4267874   0.1173636  )
         7           N   tau(   7) = (   0.7808206  -0.0829864   0.1173636  )
         8           N   tau(   8) = (   0.5259337   0.1719005   0.4638680  )
         9           N   tau(   9) = (   0.0792892   0.1480962   0.4576515  )
        10           N   tau(  10) = (  -0.1755977   0.4029831   0.8041559  )
        11           N   tau(  11) = (   0.3341761  -0.1067907   0.8041559  )
        12           N   tau(  12) = (   0.0792892   0.1480962   1.1506604  )
        13           N   tau(  13) = (   0.3341761   0.4029831   0.1111471  )
        14           N   tau(  14) = (   0.0792892   0.6578701   0.4576515  )
        15           N   tau(  15) = (   0.5890630   0.1480962   0.4576515  )
        16           N   tau(  16) = (   0.3341761   0.4029831   0.8041559  )
        17           C   tau(  17) = (  -0.0968335   0.1355948   0.4273593  )
        18           C   tau(  18) = (  -0.3517204   0.3904817   0.7738637  )
        19           C   tau(  19) = (   0.1580534  -0.1192921   0.7738637  )
        20           C   tau(  20) = (  -0.0968335   0.1355948   1.1203682  )
        21           C   tau(  21) = (   0.1580534   0.3904817   0.0808549  )
        22           C   tau(  22) = (  -0.0968335   0.6453687   0.4273593  )
        23           C   tau(  23) = (   0.4129403   0.1355948   0.4273593  )
        24           C   tau(  24) = (   0.1580534   0.3904817   0.7738637  )
        25           C   tau(  25) = (  -0.0244840   0.1283983   0.4318794  )
        26           C   tau(  26) = (  -0.2793710   0.3832852   0.7783839  )
        27           C   tau(  27) = (   0.2304029  -0.1264886   0.7783839  )
        28           C   tau(  28) = (  -0.0244840   0.1283983   1.1248883  )
        29           C   tau(  29) = (   0.2304029   0.3832852   0.0853750  )
        30           C   tau(  30) = (  -0.0244840   0.6381721   0.4318794  )
        31           C   tau(  31) = (   0.4852898   0.1283983   0.4318794  )
        32           C   tau(  32) = (   0.2304029   0.3832852   0.7783839  )
        33           C   tau(  33) = (   0.1135697   0.3364209   0.0858899  )
        34           C   tau(  34) = (  -0.1413172   0.5913078   0.4323944  )
        35           C   tau(  35) = (   0.3684566   0.0815340   0.4323944  )
        36           C   tau(  36) = (   0.1135697   0.3364209   0.7788988  )
        37           C   tau(  37) = (   0.3684566   0.5913078  -0.2606145  )
        38           C   tau(  38) = (   0.1135697   0.8461947   0.0858899  )
        39           C   tau(  39) = (   0.6233435   0.3364209   0.0858899  )
        40           C   tau(  40) = (   0.3684566   0.5913078   0.4323944  )
        41           H   tau(  41) = (   0.1320089   0.2848859   0.0919123  )
        42           H   tau(  42) = (  -0.1228780   0.5397728   0.4384168  )
        43           H   tau(  43) = (   0.3868958   0.0299990   0.4384168  )
        44           H   tau(  44) = (   0.1320089   0.2848859   0.7849212  )
        45           H   tau(  45) = (   0.3868958   0.5397728  -0.2545921  )
        46           H   tau(  46) = (   0.1320089   0.7946597   0.0919123  )
        47           H   tau(  47) = (   0.6417827   0.2848859   0.0919123  )
        48           H   tau(  48) = (   0.3868958   0.5397728   0.4384168  )
        49           C   tau(  49) = (   0.0234072   0.4166034   0.0803957  )
        50           C   tau(  50) = (  -0.2314797   0.6714904   0.4269002  )
        51           C   tau(  51) = (   0.2782941   0.1617165   0.4269002  )
        52           C   tau(  52) = (   0.0234072   0.4166034   0.7734046  )
        53           C   tau(  53) = (   0.2782941   0.6714904  -0.2661087  )
        54           C   tau(  54) = (   0.0234072   0.9263773   0.0803957  )
        55           C   tau(  55) = (   0.5331811   0.4166034   0.0803957  )
        56           C   tau(  56) = (   0.2782941   0.6714904   0.4269002  )
        57           H   tau(  57) = (  -0.0300067   0.4299903   0.0814174  )
        58           H   tau(  58) = (  -0.2848936   0.6848772   0.4279218  )
        59           H   tau(  59) = (   0.2248802   0.1751034   0.4279218  )
        60           H   tau(  60) = (  -0.0300067   0.4299903   0.7744263  )
        61           H   tau(  61) = (   0.2248802   0.6848772  -0.2650870  )
        62           H   tau(  62) = (  -0.0300067   0.9397641   0.0814174  )
        63           H   tau(  63) = (   0.4797671   0.4299903   0.0814174  )
        64           H   tau(  64) = (   0.2248802   0.6848772   0.4279218  )
        65           N   tau(  65) = (   0.0137429   0.0791523   0.4063605  )
        66           N   tau(  66) = (  -0.2411440   0.3340392   0.7528650  )
        67           N   tau(  67) = (   0.2686298  -0.1757347   0.7528650  )
        68           N   tau(  68) = (   0.0137429   0.0791523   1.0993694  )
        69           N   tau(  69) = (   0.2686298   0.3340392   0.0598561  )
        70           N   tau(  70) = (   0.0137429   0.5889261   0.4063605  )
        71           N   tau(  71) = (   0.5235167   0.0791523   0.4063605  )
        72           N   tau(  72) = (   0.2686298   0.3340392   0.7528650  )
        73           N   tau(  73) = (   0.0778636   0.0929680   0.4236992  )
        74           N   tau(  74) = (  -0.1770233   0.3478549   0.7702037  )
        75           N   tau(  75) = (   0.3327505  -0.1619189   0.7702037  )
        76           N   tau(  76) = (   0.0778636   0.0929680   1.1167081  )
        77           N   tau(  77) = (   0.3327505   0.3478549   0.0771948  )
        78           N   tau(  78) = (   0.0778636   0.6027418   0.4236992  )
        79           N   tau(  79) = (   0.5876374   0.0929680   0.4236992  )
        80           N   tau(  80) = (   0.3327505   0.3478549   0.7702037  )
        81           C   tau(  81) = (  -0.1238286   0.2001118   0.4205514  )
        82           C   tau(  82) = (  -0.3787155   0.4549987   0.7670558  )
        83           C   tau(  83) = (   0.1310583  -0.0547751   0.7670558  )
        84           C   tau(  84) = (  -0.1238286   0.2001118   1.1135603  )
        85           C   tau(  85) = (   0.1310583   0.4549987   0.0740469  )
        86           C   tau(  86) = (  -0.1238286   0.7098857   0.4205514  )
        87           C   tau(  87) = (   0.3859452   0.2001118   0.4205514  )
        88           C   tau(  88) = (   0.1310583   0.4549987   0.7670558  )
        89           H   tau(  89) = (   0.1642405  -0.0112225   0.0668931  )
        90           H   tau(  90) = (  -0.0903755   0.2433936   0.4137658  )
        91           H   tau(  91) = (   0.4193983  -0.2663802   0.4137658  )
        92           H   tau(  92) = (   0.1645114  -0.0114933   0.7602702  )
        93           H   tau(  93) = (   0.4193983   0.2433936  -0.2792431  )
        94           H   tau(  94) = (   0.1645114   0.4982805   0.0672613  )
        95           H   tau(  95) = (   0.6742852  -0.0114933   0.0672613  )
        96           H   tau(  96) = (   0.4193983   0.2433936   0.4137658  )
        97           N   tau(  97) = (   0.0658052  -0.0414701   0.0746064  )
        98           N   tau(  98) = (  -0.1890817   0.2134168   0.4211109  )
        99           N   tau(  99) = (   0.3206921  -0.2963571   0.4211109  )
       100           N   tau( 100) = (   0.0658052  -0.0414701   0.7676153  )
       101           N   tau( 101) = (   0.3206921   0.2134168  -0.2718980  )
       102           N   tau( 102) = (   0.0658052   0.4683037   0.0746064  )
       103           N   tau( 103) = (   0.5755790  -0.0414701   0.0746064  )
       104           N   tau( 104) = (   0.3206921   0.2134168   0.4211109  )
       105           C   tau( 105) = (  -0.0451994   0.1596322   0.0850839  )
       106           C   tau( 106) = (  -0.3000863   0.4145191   0.4315883  )
       107           C   tau( 107) = (   0.2096875  -0.0952547   0.4315883  )
       108           C   tau( 108) = (  -0.0451994   0.1596322   0.7780928  )
       109           C   tau( 109) = (   0.2096875   0.4145191  -0.2614205  )
       110           C   tau( 110) = (  -0.0451994   0.6694060   0.0850839  )
       111           C   tau( 111) = (   0.4645744   0.1596322   0.0850839  )
       112           C   tau( 112) = (   0.2096875   0.4145191   0.4315883  )
       113           H   tau( 113) = (   0.0082067   0.3098036   0.0895138  )
       114           H   tau( 114) = (  -0.2466802   0.5646905   0.4360182  )
       115           H   tau( 115) = (   0.2630936   0.0549167   0.4360182  )
       116           H   tau( 116) = (   0.0082067   0.3098036   0.7825226  )
       117           H   tau( 117) = (   0.2630936   0.5646905  -0.2569907  )
       118           H   tau( 118) = (   0.0082067   0.8195774   0.0895138  )
       119           H   tau( 119) = (   0.5179805   0.3098036   0.0895138  )
       120           H   tau( 120) = (   0.2630936   0.5646905   0.4360182  )
       121           N   tau( 121) = (   0.2387270   0.0829864   0.1173636  )
       122           N   tau( 122) = (  -0.0161599   0.3378733   0.4638680  )
       123           N   tau( 123) = (   0.4936139  -0.1719005   0.4638680  )
       124           N   tau( 124) = (   0.2387270   0.0829864   0.8103725  )
       125           N   tau( 125) = (   0.4936139   0.3378733  -0.2291408  )
       126           N   tau( 126) = (   0.2387270   0.5927603   0.1173636  )
       127           N   tau( 127) = (   0.7485008   0.0829864   0.1173636  )
       128           N   tau( 128) = (   0.4936139   0.3378733   0.4638680  )
       129           N   tau( 129) = (   0.1755977   0.1067907   0.1111471  )
       130           N   tau( 130) = (  -0.0792892   0.3616776   0.4576515  )
       131           N   tau( 131) = (   0.4304846  -0.1480962   0.4576515  )
       132           N   tau( 132) = (   0.1755977   0.1067907   0.8041559  )
       133           N   tau( 133) = (   0.4304846   0.3616776  -0.2353574  )
       134           N   tau( 134) = (   0.1755977   0.6165645   0.1111471  )
       135           N   tau( 135) = (   0.6853715   0.1067907   0.1111471  )
       136           N   tau( 136) = (   0.4304846   0.3616776   0.4576515  )
       137           C   tau( 137) = (   0.3517204   0.1192921   0.0808549  )
       138           C   tau( 138) = (   0.0968335   0.3741790   0.4273593  )
       139           C   tau( 139) = (   0.6066073  -0.1355948   0.4273593  )
       140           C   tau( 140) = (   0.3517204   0.1192921   0.7738637  )
       141           C   tau( 141) = (   0.6066073   0.3741790  -0.2656496  )
       142           C   tau( 142) = (   0.3517204   0.6290659   0.0808549  )
       143           C   tau( 143) = (   0.8614942   0.1192921   0.0808549  )
       144           C   tau( 144) = (   0.6066073   0.3741790   0.4273593  )
       145           C   tau( 145) = (   0.2793710   0.1264886   0.0853750  )
       146           C   tau( 146) = (   0.0244840   0.3813755   0.4318794  )
       147           C   tau( 147) = (   0.5342579  -0.1283983   0.4318794  )
       148           C   tau( 148) = (   0.2793710   0.1264886   0.7783839  )
       149           C   tau( 149) = (   0.5342579   0.3813755  -0.2611294  )
       150           C   tau( 150) = (   0.2793710   0.6362624   0.0853750  )
       151           C   tau( 151) = (   0.7891448   0.1264886   0.0853750  )
       152           C   tau( 152) = (   0.5342579   0.3813755   0.4318794  )
       153           C   tau( 153) = (   0.1413172  -0.0815340   0.4323944  )
       154           C   tau( 154) = (  -0.1135697   0.1733530   0.7788988  )
       155           C   tau( 155) = (   0.3962041  -0.3364209   0.7788988  )
       156           C   tau( 156) = (   0.1413172  -0.0815340   1.1254033  )
       157           C   tau( 157) = (   0.3962041   0.1733530   0.0858899  )
       158           C   tau( 158) = (   0.1413172   0.4282399   0.4323944  )
       159           C   tau( 159) = (   0.6510910  -0.0815340   0.4323944  )
       160           C   tau( 160) = (   0.3962041   0.1733530   0.7788988  )
       161           H   tau( 161) = (   0.1228780  -0.0299990   0.4384168  )
       162           H   tau( 162) = (  -0.1320089   0.2248879   0.7849212  )
       163           H   tau( 163) = (   0.3777649  -0.2848859   0.7849212  )
       164           H   tau( 164) = (   0.1228780  -0.0299990   1.1314256  )
       165           H   tau( 165) = (   0.3777649   0.2248879   0.0919123  )
       166           H   tau( 166) = (   0.1228780   0.4797748   0.4384168  )
       167           H   tau( 167) = (   0.6326518  -0.0299990   0.4384168  )
       168           H   tau( 168) = (   0.3777649   0.2248879   0.7849212  )
       169           C   tau( 169) = (  -0.0234072   0.0931704   0.0803957  )
       170           C   tau( 170) = (  -0.2782942   0.3480573   0.4269002  )
       171           C   tau( 171) = (   0.2314797  -0.1617165   0.4269002  )
       172           C   tau( 172) = (  -0.0234072   0.0931704   0.7734046  )
       173           C   tau( 173) = (   0.2314797   0.3480573  -0.2661087  )
       174           C   tau( 174) = (  -0.0234072   0.6029442   0.0803957  )
       175           C   tau( 175) = (   0.4863666   0.0931704   0.0803957  )
       176           C   tau( 176) = (   0.2314797   0.3480573   0.4269002  )
       177           H   tau( 177) = (   0.0300067   0.0797836   0.0814174  )
       178           H   tau( 178) = (  -0.2248802   0.3346705   0.4279218  )
       179           H   tau( 179) = (   0.2848936  -0.1751034   0.4279218  )
       180           H   tau( 180) = (   0.0300067   0.0797836   0.7744263  )
       181           H   tau( 181) = (   0.2848936   0.3346705  -0.2650870  )
       182           H   tau( 182) = (   0.0300067   0.5895574   0.0814174  )
       183           H   tau( 183) = (   0.5397805   0.0797836   0.0814174  )
       184           H   tau( 184) = (   0.2848936   0.3346705   0.4279218  )
       185           N   tau( 185) = (   0.2411440   0.1757347   0.0598561  )
       186           N   tau( 186) = (  -0.0137429   0.4306216   0.4063605  )
       187           N   tau( 187) = (   0.4960309  -0.0791523   0.4063605  )
       188           N   tau( 188) = (   0.2411440   0.1757347   0.7528650  )
       189           N   tau( 189) = (   0.4960309   0.4306216  -0.2866484  )
       190           N   tau( 190) = (   0.2411440   0.6855085   0.0598561  )
       191           N   tau( 191) = (   0.7509178   0.1757347   0.0598561  )
       192           N   tau( 192) = (   0.4960309   0.4306216   0.4063605  )
       193           N   tau( 193) = (   0.1770233   0.1619189   0.0771948  )
       194           N   tau( 194) = (  -0.0778636   0.4168059   0.4236992  )
       195           N   tau( 195) = (   0.4319102  -0.0929680   0.4236992  )
       196           N   tau( 196) = (   0.1770233   0.1619189   0.7702037  )
       197           N   tau( 197) = (   0.4319102   0.4168059  -0.2693096  )
       198           N   tau( 198) = (   0.1770233   0.6716928   0.0771948  )
       199           N   tau( 199) = (   0.6867971   0.1619189   0.0771948  )
       200           N   tau( 200) = (   0.4319102   0.4168059   0.4236992  )
       201           C   tau( 201) = (   0.3787155   0.0547751   0.0740469  )
       202           C   tau( 202) = (   0.1238286   0.3096620   0.4205514  )
       203           C   tau( 203) = (   0.6336024  -0.2001118   0.4205514  )
       204           C   tau( 204) = (   0.3787155   0.0547751   0.7670558  )
       205           C   tau( 205) = (   0.6336024   0.3096620  -0.2724575  )
       206           C   tau( 206) = (   0.3787155   0.5645489   0.0740469  )
       207           C   tau( 207) = (   0.8884893   0.0547751   0.0740469  )
       208           C   tau( 208) = (   0.6336024   0.3096620   0.4205514  )
       209           H   tau( 209) = (   0.3452624   0.0114933   0.0672613  )
       210           H   tau( 210) = (   0.0903755   0.2663802   0.4137658  )
       211           H   tau( 211) = (   0.6001493  -0.2433936   0.4137658  )
       212           H   tau( 212) = (   0.3452624   0.0114933   0.7602702  )
       213           H   tau( 213) = (   0.6001493   0.2663802  -0.2792431  )
       214           H   tau( 214) = (   0.3452624   0.5212672   0.0672613  )
       215           H   tau( 215) = (   0.8550362   0.0114933   0.0672613  )
       216           H   tau( 216) = (   0.6001493   0.2663802   0.4137658  )
       217           N   tau( 217) = (   0.4439686   0.0414701   0.0746064  )
       218           N   tau( 218) = (   0.1890817   0.2963571   0.4211109  )
       219           N   tau( 219) = (   0.6988555  -0.2134168   0.4211109  )
       220           N   tau( 220) = (   0.4439686   0.0414701   0.7676153  )
       221           N   tau( 221) = (   0.6988555   0.2963571  -0.2718980  )
       222           N   tau( 222) = (   0.4439686   0.5512440   0.0746064  )
       223           N   tau( 223) = (   0.9537424   0.0414701   0.0746064  )
       224           N   tau( 224) = (   0.6988555   0.2963571   0.4211109  )
       225           C   tau( 225) = (   0.0451994   0.3501416   0.0850839  )
       226           C   tau( 226) = (  -0.2096875   0.6050285   0.4315883  )
       227           C   tau( 227) = (   0.3000863   0.0952547   0.4315883  )
       228           C   tau( 228) = (   0.0451994   0.3501416   0.7780928  )
       229           C   tau( 229) = (   0.3000863   0.6050285  -0.2614205  )
       230           C   tau( 230) = (   0.0451994   0.8599154   0.0850839  )
       231           C   tau( 231) = (   0.5549732   0.3501416   0.0850839  )
       232           C   tau( 232) = (   0.3000863   0.6050285   0.4315883  )
       233           H   tau( 233) = (  -0.0082067   0.1999702   0.0895138  )
       234           H   tau( 234) = (  -0.2630936   0.4548571   0.4360182  )
       235           H   tau( 235) = (   0.2466802  -0.0549167   0.4360182  )
       236           H   tau( 236) = (  -0.0082067   0.1999702   0.7825226  )
       237           H   tau( 237) = (   0.2466802   0.4548571  -0.2569907  )
       238           H   tau( 238) = (  -0.0082067   0.7097440   0.0895138  )
       239           H   tau( 239) = (   0.5015671   0.1999702   0.0895138  )
       240           H   tau( 240) = (   0.2466802   0.4548571   0.4360182  )
       241           N   tau( 241) = (   0.1719005  -0.0161599   0.2291408  )
       242           N   tau( 242) = (  -0.0829864   0.2387270   0.5756453  )
       243           N   tau( 243) = (   0.4267874  -0.2710468   0.5756453  )
       244           N   tau( 244) = (   0.1719005  -0.0161599   0.9221497  )
       245           N   tau( 245) = (   0.4267874   0.2387270  -0.1173636  )
       246           N   tau( 246) = (   0.1719005   0.4936139   0.2291408  )
       247           N   tau( 247) = (   0.6816743  -0.0161599   0.2291408  )
       248           N   tau( 248) = (   0.4267874   0.2387270   0.5756453  )
       249           N   tau( 249) = (   0.1480962  -0.0792892   0.2353574  )
       250           N   tau( 250) = (  -0.1067907   0.1755977   0.5818618  )
       251           N   tau( 251) = (   0.4029831  -0.3341761   0.5818618  )
       252           N   tau( 252) = (   0.1480962  -0.0792892   0.9283662  )
       253           N   tau( 253) = (   0.4029831   0.1755977  -0.1111471  )
       254           N   tau( 254) = (   0.1480962   0.4304846   0.2353574  )
       255           N   tau( 255) = (   0.6578701  -0.0792892   0.2353574  )
       256           N   tau( 256) = (   0.4029831   0.1755977   0.5818618  )
       257           C   tau( 257) = (   0.1355948   0.0968335   0.2656496  )
       258           C   tau( 258) = (  -0.1192921   0.3517204   0.6121540  )
       259           C   tau( 259) = (   0.3904817  -0.1580534   0.6121540  )
       260           C   tau( 260) = (   0.1355948   0.0968335   0.9586584  )
       261           C   tau( 261) = (   0.3904817   0.3517204  -0.0808549  )
       262           C   tau( 262) = (   0.1355948   0.6066073   0.2656496  )
       263           C   tau( 263) = (   0.6453687   0.0968335   0.2656496  )
       264           C   tau( 264) = (   0.3904817   0.3517204   0.6121540  )
       265           C   tau( 265) = (   0.1283983   0.0244840   0.2611294  )
       266           C   tau( 266) = (  -0.1264886   0.2793710   0.6076339  )
       267           C   tau( 267) = (   0.3832852  -0.2304029   0.6076339  )
       268           C   tau( 268) = (   0.1283983   0.0244840   0.9541383  )
       269           C   tau( 269) = (   0.3832852   0.2793710  -0.0853750  )
       270           C   tau( 270) = (   0.1283983   0.5342579   0.2611294  )
       271           C   tau( 271) = (   0.6381721   0.0244840   0.2611294  )
       272           C   tau( 272) = (   0.3832852   0.2793710   0.6076339  )
       273           C   tau( 273) = (   0.0815340   0.1413172   0.2606145  )
       274           C   tau( 274) = (  -0.1733530   0.3962041   0.6071189  )
       275           C   tau( 275) = (   0.3364209  -0.1135697   0.6071189  )
       276           C   tau( 276) = (   0.0815340   0.1413172   0.9536234  )
       277           C   tau( 277) = (   0.3364209   0.3962041  -0.0858899  )
       278           C   tau( 278) = (   0.0815340   0.6510910   0.2606145  )
       279           C   tau( 279) = (   0.5913078   0.1413172   0.2606145  )
       280           C   tau( 280) = (   0.3364209   0.3962041   0.6071189  )
       281           H   tau( 281) = (   0.0299990   0.1228780   0.2545921  )
       282           H   tau( 282) = (  -0.2248879   0.3777649   0.6010965  )
       283           H   tau( 283) = (   0.2848859  -0.1320089   0.6010965  )
       284           H   tau( 284) = (   0.0299990   0.1228780   0.9476010  )
       285           H   tau( 285) = (   0.2848859   0.3777649  -0.0919123  )
       286           H   tau( 286) = (   0.0299990   0.6326518   0.2545921  )
       287           H   tau( 287) = (   0.5397728   0.1228780   0.2545921  )
       288           H   tau( 288) = (   0.2848859   0.3777649   0.6010965  )
       289           C   tau( 289) = (   0.1617165   0.2314797   0.2661087  )
       290           C   tau( 290) = (  -0.0931704   0.4863666   0.6126131  )
       291           C   tau( 291) = (   0.4166034  -0.0234072   0.6126131  )
       292           C   tau( 292) = (   0.1617165   0.2314797   0.9591176  )
       293           C   tau( 293) = (   0.4166034   0.4863666  -0.0803957  )
       294           C   tau( 294) = (   0.1617165   0.7412535   0.2661087  )
       295           C   tau( 295) = (   0.6714904   0.2314797   0.2661087  )
       296           C   tau( 296) = (   0.4166034   0.4863666   0.6126131  )
       297           H   tau( 297) = (   0.1751034   0.2848936   0.2650870  )
       298           H   tau( 298) = (  -0.0797836   0.5397805   0.6115915  )
       299           H   tau( 299) = (   0.4299903   0.0300067   0.6115915  )
       300           H   tau( 300) = (   0.1751034   0.2848936   0.9580959  )
       301           H   tau( 301) = (   0.4299903   0.5397805  -0.0814174  )
       302           H   tau( 302) = (   0.1751034   0.7946674   0.2650870  )
       303           H   tau( 303) = (   0.6848772   0.2848936   0.2650870  )
       304           H   tau( 304) = (   0.4299903   0.5397805   0.6115915  )
       305           N   tau( 305) = (   0.0791523  -0.0137429   0.2866484  )
       306           N   tau( 306) = (  -0.1757347   0.2411440   0.6331528  )
       307           N   tau( 307) = (   0.3340392  -0.2686298   0.6331528  )
       308           N   tau( 308) = (   0.0791523  -0.0137429   0.9796572  )
       309           N   tau( 309) = (   0.3340392   0.2411440  -0.0598561  )
       310           N   tau( 310) = (   0.0791523   0.4960309   0.2866484  )
       311           N   tau( 311) = (   0.5889261  -0.0137429   0.2866484  )
       312           N   tau( 312) = (   0.3340392   0.2411440   0.6331528  )
       313           N   tau( 313) = (   0.0929680  -0.0778636   0.2693096  )
       314           N   tau( 314) = (  -0.1619189   0.1770233   0.6158141  )
       315           N   tau( 315) = (   0.3478549  -0.3327505   0.6158141  )
       316           N   tau( 316) = (   0.0929680  -0.0778636   0.9623185  )
       317           N   tau( 317) = (   0.3478549   0.1770233  -0.0771948  )
       318           N   tau( 318) = (   0.0929680   0.4319102   0.2693096  )
       319           N   tau( 319) = (   0.6027418  -0.0778636   0.2693096  )
       320           N   tau( 320) = (   0.3478549   0.1770233   0.6158141  )
       321           C   tau( 321) = (   0.2001118   0.1238286   0.2724575  )
       322           C   tau( 322) = (  -0.0547751   0.3787155   0.6189619  )
       323           C   tau( 323) = (   0.4549987  -0.1310583   0.6189619  )
       324           C   tau( 324) = (   0.2001118   0.1238286   0.9654664  )
       325           C   tau( 325) = (   0.4549987   0.3787155  -0.0740469  )
       326           C   tau( 326) = (   0.2001118   0.6336024   0.2724575  )
       327           C   tau( 327) = (   0.7098857   0.1238286   0.2724575  )
       328           C   tau( 328) = (   0.4549987   0.3787155   0.6189619  )
       329           H   tau( 329) = (   0.2433936   0.0903755   0.2792431  )
       330           H   tau( 330) = (  -0.0114933   0.3452624   0.6257475  )
       331           H   tau( 331) = (   0.4982805  -0.1645114   0.6257475  )
       332           H   tau( 332) = (   0.2433936   0.0903755   0.9722520  )
       333           H   tau( 333) = (   0.4982805   0.3452624  -0.0672613  )
       334           H   tau( 334) = (   0.2433936   0.6001493   0.2792431  )
       335           H   tau( 335) = (   0.7531674   0.0903755   0.2792431  )
       336           H   tau( 336) = (   0.4982805   0.3452624   0.6257475  )
       337           N   tau( 337) = (   0.2134168   0.1890817   0.2718980  )
       338           N   tau( 338) = (  -0.0414701   0.4439686   0.6184024  )
       339           N   tau( 339) = (   0.4683037  -0.0658052   0.6184024  )
       340           N   tau( 340) = (   0.2134168   0.1890817   0.9649069  )
       341           N   tau( 341) = (   0.4683037   0.4439686  -0.0746064  )
       342           N   tau( 342) = (   0.2134168   0.6988555   0.2718980  )
       343           N   tau( 343) = (   0.7231906   0.1890817   0.2718980  )
       344           N   tau( 344) = (   0.4683037   0.4439686   0.6184024  )
       345           C   tau( 345) = (  -0.0952547   0.3000863   0.2614205  )
       346           C   tau( 346) = (  -0.3501416   0.5549732   0.6079250  )
       347           C   tau( 347) = (   0.1596322   0.0451994   0.6079250  )
       348           C   tau( 348) = (  -0.0952547   0.3000863   0.9544294  )
       349           C   tau( 349) = (   0.1596322   0.5549732  -0.0850839  )
       350           C   tau( 350) = (  -0.0952547   0.8098601   0.2614205  )
       351           C   tau( 351) = (   0.4145191   0.3000863   0.2614205  )
       352           C   tau( 352) = (   0.1596322   0.5549732   0.6079250  )
       353           H   tau( 353) = (   0.0549167   0.2466802   0.2569907  )
       354           H   tau( 354) = (  -0.1999702   0.5015671   0.6034951  )
       355           H   tau( 355) = (   0.3098036  -0.0082067   0.6034951  )
       356           H   tau( 356) = (   0.0549167   0.2466802   0.9499995  )
       357           H   tau( 357) = (   0.3098036   0.5015671  -0.0895138  )
       358           H   tau( 358) = (   0.0549167   0.7564540   0.2569907  )
       359           H   tau( 359) = (   0.5646905   0.2466802   0.2569907  )
       360           H   tau( 360) = (   0.3098036   0.5015671   0.6034951  )
       361           N   tau( 361) = (   0.3378733   0.0161599   0.2291408  )
       362           N   tau( 362) = (   0.0829864   0.2710468   0.5756453  )
       363           N   tau( 363) = (   0.5927603  -0.2387270   0.5756453  )
       364           N   tau( 364) = (   0.3378733   0.0161599   0.9221497  )
       365           N   tau( 365) = (   0.5927603   0.2710468  -0.1173636  )
       366           N   tau( 366) = (   0.3378733   0.5259337   0.2291408  )
       367           N   tau( 367) = (   0.8476472   0.0161599   0.2291408  )
       368           N   tau( 368) = (   0.5927603   0.2710468   0.5756453  )
       369           N   tau( 369) = (   0.1067907   0.3341761  -0.1111471  )
       370           N   tau( 370) = (  -0.1480962   0.5890630   0.2353574  )
       371           N   tau( 371) = (   0.3616776   0.0792892   0.2353574  )
       372           N   tau( 372) = (   0.1067907   0.3341761   0.5818618  )
       373           N   tau( 373) = (   0.3616776   0.5890630  -0.4576515  )
       374           N   tau( 374) = (   0.1067907   0.8439499  -0.1111471  )
       375           N   tau( 375) = (   0.6165645   0.3341761  -0.1111471  )
       376           N   tau( 376) = (   0.3616776   0.5890630   0.2353574  )
       377           C   tau( 377) = (   0.1192921   0.1580534  -0.0808549  )
       378           C   tau( 378) = (  -0.1355948   0.4129403   0.2656496  )
       379           C   tau( 379) = (   0.3741790  -0.0968335   0.2656496  )
       380           C   tau( 380) = (   0.1192921   0.1580534   0.6121540  )
       381           C   tau( 381) = (   0.3741790   0.4129403  -0.4273593  )
       382           C   tau( 382) = (   0.1192921   0.6678273  -0.0808549  )
       383           C   tau( 383) = (   0.6290659   0.1580534  -0.0808549  )
       384           C   tau( 384) = (   0.3741790   0.4129403   0.2656496  )
       385           C   tau( 385) = (   0.1264886   0.2304029  -0.0853750  )
       386           C   tau( 386) = (  -0.1283983   0.4852898   0.2611294  )
       387           C   tau( 387) = (   0.3813755  -0.0244840   0.2611294  )
       388           C   tau( 388) = (   0.1264886   0.2304029   0.6076339  )
       389           C   tau( 389) = (   0.3813755   0.4852898  -0.4318794  )
       390           C   tau( 390) = (   0.1264886   0.7401767  -0.0853750  )
       391           C   tau( 391) = (   0.6362624   0.2304029  -0.0853750  )
       392           C   tau( 392) = (   0.3813755   0.4852898   0.2611294  )
       393           C   tau( 393) = (   0.1733530   0.1135697  -0.0858899  )
       394           C   tau( 394) = (  -0.0815340   0.3684566   0.2606145  )
       395           C   tau( 395) = (   0.4282399  -0.1413172   0.2606145  )
       396           C   tau( 396) = (   0.1733530   0.1135697   0.6071189  )
       397           C   tau( 397) = (   0.4282399   0.3684566  -0.4323944  )
       398           C   tau( 398) = (   0.1733530   0.6233435  -0.0858899  )
       399           C   tau( 399) = (   0.6831268   0.1135697  -0.0858899  )
       400           C   tau( 400) = (   0.4282399   0.3684566   0.2606145  )
       401           H   tau( 401) = (   0.2248879   0.1320089  -0.0919123  )
       402           H   tau( 402) = (  -0.0299990   0.3868958   0.2545921  )
       403           H   tau( 403) = (   0.4797748  -0.1228780   0.2545921  )
       404           H   tau( 404) = (   0.2248879   0.1320089   0.6010965  )
       405           H   tau( 405) = (   0.4797748   0.3868958  -0.4384168  )
       406           H   tau( 406) = (   0.2248879   0.6417827  -0.0919123  )
       407           H   tau( 407) = (   0.7346617   0.1320089  -0.0919123  )
       408           H   tau( 408) = (   0.4797748   0.3868958   0.2545921  )
       409           C   tau( 409) = (  -0.1617165   0.2782942   0.2661087  )
       410           C   tau( 410) = (  -0.4166034   0.5331811   0.6126131  )
       411           C   tau( 411) = (   0.0931704   0.0234072   0.6126131  )
       412           C   tau( 412) = (  -0.1617165   0.2782942   0.9591176  )
       413           C   tau( 413) = (   0.0931704   0.5331811  -0.0803957  )
       414           C   tau( 414) = (  -0.1617165   0.7880680   0.2661087  )
       415           C   tau( 415) = (   0.3480573   0.2782942   0.2661087  )
       416           C   tau( 416) = (   0.0931704   0.5331811   0.6126131  )
       417           H   tau( 417) = (  -0.1751034   0.2248802   0.2650870  )
       418           H   tau( 418) = (  -0.4299903   0.4797671   0.6115915  )
       419           H   tau( 419) = (   0.0797836  -0.0300067   0.6115915  )
       420           H   tau( 420) = (  -0.1751034   0.2248802   0.9580959  )
       421           H   tau( 421) = (   0.0797836   0.4797671  -0.0814174  )
       422           H   tau( 422) = (  -0.1751034   0.7346540   0.2650870  )
       423           H   tau( 423) = (   0.3346705   0.2248802   0.2650870  )
       424           H   tau( 424) = (   0.0797836   0.4797671   0.6115915  )
       425           N   tau( 425) = (   0.1757347   0.2686298  -0.0598561  )
       426           N   tau( 426) = (  -0.0791523   0.5235167   0.2866484  )
       427           N   tau( 427) = (   0.4306216   0.0137429   0.2866484  )
       428           N   tau( 428) = (   0.1757347   0.2686298   0.6331528  )
       429           N   tau( 429) = (   0.4306216   0.5235167  -0.4063605  )
       430           N   tau( 430) = (   0.1757347   0.7784037  -0.0598561  )
       431           N   tau( 431) = (   0.6855085   0.2686298  -0.0598561  )
       432           N   tau( 432) = (   0.4306216   0.5235167   0.2866484  )
       433           N   tau( 433) = (   0.1619189   0.3327505  -0.0771948  )
       434           N   tau( 434) = (  -0.0929680   0.5876374   0.2693096  )
       435           N   tau( 435) = (   0.4168059   0.0778636   0.2693096  )
       436           N   tau( 436) = (   0.1619189   0.3327505   0.6158141  )
       437           N   tau( 437) = (   0.4168059   0.5876374  -0.4236992  )
       438           N   tau( 438) = (   0.1619189   0.8425243  -0.0771948  )
       439           N   tau( 439) = (   0.6716928   0.3327505  -0.0771948  )
       440           N   tau( 440) = (   0.4168059   0.5876374   0.2693096  )
       441           C   tau( 441) = (   0.0547751   0.1310583  -0.0740469  )
       442           C   tau( 442) = (  -0.2001118   0.3859452   0.2724575  )
       443           C   tau( 443) = (   0.3096620  -0.1238286   0.2724575  )
       444           C   tau( 444) = (   0.0547751   0.1310583   0.6189619  )
       445           C   tau( 445) = (   0.3096620   0.3859452  -0.4205514  )
       446           C   tau( 446) = (   0.0547751   0.6408321  -0.0740469  )
       447           C   tau( 447) = (   0.5645489   0.1310583  -0.0740469  )
       448           C   tau( 448) = (   0.3096620   0.3859452   0.2724575  )
       449           H   tau( 449) = (   0.2663802  -0.0903755   0.2792431  )
       450           H   tau( 450) = (   0.0114933   0.1645114   0.6257475  )
       451           H   tau( 451) = (   0.5212672  -0.3452624   0.6257475  )
       452           H   tau( 452) = (   0.2663802  -0.0903755   0.9722520  )
       453           H   tau( 453) = (   0.5212672   0.1645114  -0.0672613  )
       454           H   tau( 454) = (   0.2663802   0.4193983   0.2792431  )
       455           H   tau( 455) = (   0.7761541  -0.0903755   0.2792431  )
       456           H   tau( 456) = (   0.5212672   0.1645114   0.6257475  )
       457           N   tau( 457) = (   0.2963571  -0.1890817   0.2718980  )
       458           N   tau( 458) = (   0.0414701   0.0658052   0.6184024  )
       459           N   tau( 459) = (   0.5512440  -0.4439686   0.6184024  )
       460           N   tau( 460) = (   0.2963571  -0.1890817   0.9649069  )
       461           N   tau( 461) = (   0.5512440   0.0658052  -0.0746064  )
       462           N   tau( 462) = (   0.2963571   0.3206921   0.2718980  )
       463           N   tau( 463) = (   0.8061309  -0.1890817   0.2718980  )
       464           N   tau( 464) = (   0.5512440   0.0658052   0.6184024  )
       465           C   tau( 465) = (   0.0952547   0.2096875   0.2614205  )
       466           C   tau( 466) = (  -0.1596322   0.4645744   0.6079250  )
       467           C   tau( 467) = (   0.3501416  -0.0451994   0.6079250  )
       468           C   tau( 468) = (   0.0952547   0.2096875   0.9544294  )
       469           C   tau( 469) = (   0.3501416   0.4645744  -0.0850839  )
       470           C   tau( 470) = (   0.0952547   0.7194613   0.2614205  )
       471           C   tau( 471) = (   0.6050285   0.2096875   0.2614205  )
       472           C   tau( 472) = (   0.3501416   0.4645744   0.6079250  )
       473           H   tau( 473) = (  -0.0549167   0.2630936   0.2569907  )
       474           H   tau( 474) = (  -0.3098036   0.5179805   0.6034951  )
       475           H   tau( 475) = (   0.1999702   0.0082067   0.6034951  )
       476           H   tau( 476) = (  -0.0549167   0.2630936   0.9499995  )
       477           H   tau( 477) = (   0.1999702   0.5179805  -0.0895138  )
       478           H   tau( 478) = (  -0.0549167   0.7728675   0.2569907  )
       479           H   tau( 479) = (   0.4548571   0.2630936   0.2569907  )
       480           H   tau( 480) = (   0.1999702   0.5179805   0.6034951  )
       481           Zn  tau( 481) = (   0.2548869   0.0000000   0.1732522  )
       482           Zn  tau( 482) = (   0.0000000   0.2548869   0.5197567  )
       483           Zn  tau( 483) = (   0.5097738  -0.2548869   0.5197567  )
       484           Zn  tau( 484) = (   0.2548869   0.0000000   0.8662611  )
       485           Zn  tau( 485) = (   0.5097738   0.2548869  -0.1732522  )
       486           Zn  tau( 486) = (   0.2548869   0.5097738   0.1732522  )
       487           Zn  tau( 487) = (   0.7646607   0.0000000   0.1732522  )
       488           Zn  tau( 488) = (   0.5097738   0.2548869   0.5197567  )
       489           Zn  tau( 489) = (   0.0000000   0.0000000   0.3465044  )
       490           Zn  tau( 490) = (  -0.2548869   0.2548869   0.6930089  )
       491           Zn  tau( 491) = (   0.2548869  -0.2548869   0.6930089  )
       492           Zn  tau( 492) = (   0.0000000   0.0000000   1.0395133  )
       493           Zn  tau( 493) = (   0.2548869   0.2548869   0.0000000  )
       494           Zn  tau( 494) = (   0.0000000   0.5097738   0.3465044  )
       495           Zn  tau( 495) = (   0.5097738   0.0000000   0.3465044  )
       496           Zn  tau( 496) = (   0.2548869   0.2548869   0.6930089  )

   Crystallographic axes

     site n.     atom                  positions (cryst. coord.)
         1           N   tau(   1) = (  0.0032815  0.3505269  0.1844547  )
         2           N   tau(   2) = (  0.5032815  0.3505269  0.1844547  )
         3           N   tau(   3) = (  0.0032815  0.8505269  0.1844547  )
         4           N   tau(   4) = (  0.5032815  0.8505269  0.1844547  )
         5           N   tau(   5) = (  0.0032815  0.3505269  0.6844547  )
         6           N   tau(   6) = (  0.5032815  0.3505269  0.6844547  )
         7           N   tau(   7) = (  0.0032815  0.8505269  0.6844547  )
         8           N   tau(   8) = (  0.5032815  0.8505269  0.6844547  )
         9           N   tau(   9) = (  0.4754485  0.4079607  0.2230258  )
        10           N   tau(  10) = (  0.9754485  0.4079607  0.2230258  )
        11           N   tau(  11) = (  0.4754485  0.9079607  0.2230258  )
        12           N   tau(  12) = (  0.9754485  0.9079607  0.2230258  )
        13           N   tau(  13) = (  0.4754485  0.4079607  0.7230258  )
        14           N   tau(  14) = (  0.9754485  0.4079607  0.7230258  )
        15           N   tau(  15) = (  0.4754485  0.9079607  0.7230258  )
        16           N   tau(  16) = (  0.9754485  0.9079607  0.7230258  )
        17           C   tau(  17) = (  0.4413312  0.2133592  0.0380182  )
        18           C   tau(  18) = (  0.9413312  0.2133592  0.0380182  )
        19           C   tau(  19) = (  0.4413312  0.7133592  0.0380182  )
        20           C   tau(  20) = (  0.9413312  0.7133592  0.0380182  )
        21           C   tau(  21) = (  0.4413312  0.2133592  0.5380182  )
        22           C   tau(  22) = (  0.9413312  0.2133592  0.5380182  )
        23           C   tau(  23) = (  0.4413312  0.7133592  0.5380182  )
        24           C   tau(  24) = (  0.9413312  0.7133592  0.5380182  )
        25           C   tau(  25) = (  0.4375339  0.2875827  0.1019219  )
        26           C   tau(  26) = (  0.9375339  0.2875827  0.1019219  )
        27           C   tau(  27) = (  0.4375339  0.7875827  0.1019219  )
        28           C   tau(  28) = (  0.9375339  0.7875827  0.1019219  )
        29           C   tau(  29) = (  0.4375339  0.2875827  0.6019219  )
        30           C   tau(  30) = (  0.9375339  0.2875827  0.6019219  )
        31           C   tau(  31) = (  0.4375339  0.7875827  0.6019219  )
        32           C   tau(  32) = (  0.9375339  0.7875827  0.6019219  )
        33           C   tau(  33) = (  0.3919396  0.1733611  0.4413630  )
        34           C   tau(  34) = (  0.8919396  0.1733611  0.4413630  )
        35           C   tau(  35) = (  0.3919396  0.6733611  0.4413630  )
        36           C   tau(  36) = (  0.8919396  0.6733611  0.4413630  )
        37           C   tau(  37) = (  0.3919396  0.1733611  0.9413630  )
        38           C   tau(  38) = (  0.8919396  0.1733611  0.9413630  )
        39           C   tau(  39) = (  0.3919396  0.6733611  0.9413630  )
        40           C   tau(  40) = (  0.8919396  0.6733611  0.9413630  )
        41           H   tau(  41) = (  0.3457378  0.1957919  0.4089018  )
        42           H   tau(  42) = (  0.8457378  0.1957919  0.4089018  )
        43           H   tau(  43) = (  0.3457378  0.6957919  0.4089018  )
        44           H   tau(  44) = (  0.8457378  0.6957919  0.4089018  )
        45           H   tau(  45) = (  0.3457378  0.1957919  0.9089018  )
        46           H   tau(  46) = (  0.8457378  0.1957919  0.9089018  )
        47           H   tau(  47) = (  0.3457378  0.6957919  0.9089018  )
        48           H   tau(  48) = (  0.8457378  0.6957919  0.9089018  )
        49           C   tau(  49) = (  0.4666208  0.0809633  0.4315744  )
        50           C   tau(  50) = (  0.9666208  0.0809633  0.4315744  )
        51           C   tau(  51) = (  0.4666208  0.5809633  0.4315744  )
        52           C   tau(  52) = (  0.9666208  0.5809633  0.4315744  )
        53           C   tau(  53) = (  0.4666208  0.0809633  0.9315744  )
        54           C   tau(  54) = (  0.9666208  0.0809633  0.9315744  )
        55           C   tau(  55) = (  0.4666208  0.5809633  0.9315744  )
        56           C   tau(  56) = (  0.9666208  0.5809633  0.9315744  )
        57           H   tau(  57) = (  0.4804881  0.0293106  0.3923147  )
        58           H   tau(  58) = (  0.9804881  0.0293106  0.3923147  )
        59           H   tau(  59) = (  0.4804881  0.5293106  0.3923147  )
        60           H   tau(  60) = (  0.9804881  0.5293106  0.3923147  )
        61           H   tau(  61) = (  0.4804881  0.0293106  0.8923147  )
        62           H   tau(  62) = (  0.9804881  0.0293106  0.8923147  )
        63           H   tau(  63) = (  0.4804881  0.5293106  0.8923147  )
        64           H   tau(  64) = (  0.9804881  0.5293106  0.8923147  )
        65           N   tau(  65) = (  0.3708203  0.3066651  0.0911141  )
        66           N   tau(  66) = (  0.8708203  0.3066651  0.0911141  )
        67           N   tau(  67) = (  0.3708203  0.8066651  0.0911141  )
        68           N   tau(  68) = (  0.8708203  0.8066651  0.0911141  )
        69           N   tau(  69) = (  0.3708203  0.3066651  0.5911141  )
        70           N   tau(  70) = (  0.8708203  0.3066651  0.5911141  )
        71           N   tau(  71) = (  0.3708203  0.8066651  0.5911141  )
        72           N   tau(  72) = (  0.8708203  0.8066651  0.5911141  )
        73           N   tau(  73) = (  0.3968809  0.3820661  0.1675562  )
        74           N   tau(  74) = (  0.8968809  0.3820661  0.1675562  )
        75           N   tau(  75) = (  0.3968809  0.8820661  0.1675562  )
        76           N   tau(  76) = (  0.8968809  0.8820661  0.1675562  )
        77           N   tau(  77) = (  0.3968809  0.3820661  0.6675562  )
        78           N   tau(  78) = (  0.8968809  0.3820661  0.6675562  )
        79           N   tau(  79) = (  0.3968809  0.8820661  0.6675562  )
        80           N   tau(  80) = (  0.8968809  0.8820661  0.6675562  )
        81           C   tau(  81) = (  0.4996994  0.1819698  0.0748207  )
        82           C   tau(  82) = (  0.9996994  0.1819698  0.0748207  )
        83           C   tau(  83) = (  0.4996994  0.6819698  0.0748207  )
        84           C   tau(  84) = (  0.9996994  0.6819698  0.0748207  )
        85           C   tau(  85) = (  0.4996994  0.1819698  0.5748207  )
        86           C   tau(  86) = (  0.9996994  0.1819698  0.5748207  )
        87           C   tau(  87) = (  0.4996994  0.6819698  0.5748207  )
        88           C   tau(  88) = (  0.9996994  0.6819698  0.5748207  )
        89           H   tau(  89) = (  0.0372555  0.2093544  0.1500843  )
        90           H   tau(  90) = (  0.5372555  0.2098857  0.1500843  )
        91           H   tau(  91) = (  0.0372555  0.7098857  0.1500843  )
        92           H   tau(  92) = (  0.5372555  0.7098857  0.1500843  )
        93           H   tau(  93) = (  0.0372555  0.2098857  0.6500843  )
        94           H   tau(  94) = (  0.5372555  0.2098857  0.6500843  )
        95           H   tau(  95) = (  0.0372555  0.7098857  0.6500843  )
        96           H   tau(  96) = (  0.5372555  0.7098857  0.6500843  )
        97           N   tau(  97) = (  0.0131529  0.1183715  0.0238685  )
        98           N   tau(  98) = (  0.5131529  0.1183715  0.0238685  )
        99           N   tau(  99) = (  0.0131529  0.6183715  0.0238685  )
       100           N   tau( 100) = (  0.5131529  0.6183715  0.0238685  )
       101           N   tau( 101) = (  0.0131529  0.1183715  0.5238685  )
       102           N   tau( 102) = (  0.5131529  0.1183715  0.5238685  )
       103           N   tau( 103) = (  0.0131529  0.6183715  0.5238685  )
       104           N   tau( 104) = (  0.5131529  0.6183715  0.5238685  )
       105           C   tau( 105) = (  0.2179589  0.0170545  0.1122388  )
       106           C   tau( 106) = (  0.7179589  0.0170545  0.1122388  )
       107           C   tau( 107) = (  0.2179589  0.5170545  0.1122388  )
       108           C   tau( 108) = (  0.7179589  0.5170545  0.1122388  )
       109           C   tau( 109) = (  0.2179589  0.0170545  0.6122388  )
       110           C   tau( 110) = (  0.7179589  0.0170545  0.6122388  )
       111           C   tau( 111) = (  0.2179589  0.5170545  0.6122388  )
       112           C   tau( 112) = (  0.7179589  0.5170545  0.6122388  )
       113           H   tau( 113) = (  0.3684472  0.0726328  0.3119132  )
       114           H   tau( 114) = (  0.8684472  0.0726328  0.3119132  )
       115           H   tau( 115) = (  0.3684472  0.5726328  0.3119132  )
       116           H   tau( 116) = (  0.8684472  0.5726328  0.3119132  )
       117           H   tau( 117) = (  0.3684472  0.0726328  0.8119132  )
       118           H   tau( 118) = (  0.8684472  0.0726328  0.8119132  )
       119           H   tau( 119) = (  0.3684472  0.5726328  0.8119132  )
       120           H   tau( 120) = (  0.8684472  0.5726328  0.8119132  )
       121           N   tau( 121) = (  0.1660722  0.3188268  0.3155453  )
       122           N   tau( 122) = (  0.6660722  0.3188268  0.3155453  )
       123           N   tau( 123) = (  0.1660722  0.8188268  0.3155453  )
       124           N   tau( 124) = (  0.6660722  0.8188268  0.3155453  )
       125           N   tau( 125) = (  0.1660722  0.3188268  0.8155453  )
       126           N   tau( 126) = (  0.6660722  0.3188268  0.8155453  )
       127           N   tau( 127) = (  0.1660722  0.8188268  0.8155453  )
       128           N   tau( 128) = (  0.6660722  0.8188268  0.8155453  )
       129           N   tau( 129) = (  0.1849349  0.2524227  0.2769742  )
       130           N   tau( 130) = (  0.6849349  0.2524227  0.2769742  )
       131           N   tau( 131) = (  0.1849349  0.7524227  0.2769742  )
       132           N   tau( 132) = (  0.6849349  0.7524227  0.2769742  )
       133           N   tau( 133) = (  0.1849349  0.2524227  0.7769742  )
       134           N   tau( 134) = (  0.6849349  0.2524227  0.7769742  )
       135           N   tau( 135) = (  0.1849349  0.7524227  0.7769742  )
       136           N   tau( 136) = (  0.6849349  0.7524227  0.7769742  )
       137           C   tau( 137) = (  0.1753410  0.4033130  0.4619818  )
       138           C   tau( 138) = (  0.6753410  0.4033130  0.4619818  )
       139           C   tau( 139) = (  0.1753410  0.9033130  0.4619818  )
       140           C   tau( 140) = (  0.6753410  0.9033130  0.4619818  )
       141           C   tau( 141) = (  0.1753410  0.4033130  0.9619818  )
       142           C   tau( 142) = (  0.6753410  0.4033130  0.9619818  )
       143           C   tau( 143) = (  0.1753410  0.9033130  0.9619818  )
       144           C   tau( 144) = (  0.6753410  0.9033130  0.9619818  )
       145           C   tau( 145) = (  0.1856608  0.3356120  0.3980781  )
       146           C   tau( 146) = (  0.6856608  0.3356120  0.3980781  )
       147           C   tau( 147) = (  0.1856608  0.8356120  0.3980781  )
       148           C   tau( 148) = (  0.6856608  0.8356120  0.3980781  )
       149           C   tau( 149) = (  0.1856608  0.3356120  0.8980781  )
       150           C   tau( 150) = (  0.6856608  0.3356120  0.8980781  )
       151           C   tau( 151) = (  0.1856608  0.8356120  0.8980781  )
       152           C   tau( 152) = (  0.6856608  0.8356120  0.8980781  )
       153           C   tau( 153) = (  0.2319981  0.4505766  0.0586370  )
       154           C   tau( 154) = (  0.7319981  0.4505766  0.0586370  )
       155           C   tau( 155) = (  0.2319981  0.9505766  0.0586370  )
       156           C   tau( 156) = (  0.7319981  0.9505766  0.0586370  )
       157           C   tau( 157) = (  0.2319981  0.4505766  0.5586370  )
       158           C   tau( 158) = (  0.7319981  0.4505766  0.5586370  )
       159           C   tau( 159) = (  0.2319981  0.9505766  0.5586370  )
       160           C   tau( 160) = (  0.7319981  0.9505766  0.5586370  )
       161           H   tau( 161) = (  0.2868901  0.4368360  0.0910982  )
       162           H   tau( 162) = (  0.7868901  0.4368360  0.0910982  )
       163           H   tau( 163) = (  0.2868901  0.9368360  0.0910982  )
       164           H   tau( 164) = (  0.7868901  0.9368360  0.0910982  )
       165           H   tau( 165) = (  0.2868901  0.4368360  0.5910982  )
       166           H   tau( 166) = (  0.7868901  0.4368360  0.5910982  )
       167           H   tau( 167) = (  0.2868901  0.9368360  0.5910982  )
       168           H   tau( 168) = (  0.7868901  0.9368360  0.5910982  )
       169           C   tau( 169) = (  0.1493889  0.0350464  0.0684256  )
       170           C   tau( 170) = (  0.6493889  0.0350464  0.0684256  )
       171           C   tau( 171) = (  0.1493889  0.5350464  0.0684256  )
       172           C   tau( 172) = (  0.6493889  0.5350464  0.0684256  )
       173           C   tau( 173) = (  0.1493889  0.0350464  0.5684256  )
       174           C   tau( 174) = (  0.6493889  0.0350464  0.5684256  )
       175           C   tau( 175) = (  0.1493889  0.5350464  0.5684256  )
       176           C   tau( 176) = (  0.6493889  0.5350464  0.5684256  )
       177           H   tau( 177) = (  0.1369958  0.0881734  0.1076853  )
       178           H   tau( 178) = (  0.6369958  0.0881734  0.1076853  )
       179           H   tau( 179) = (  0.1369958  0.5881734  0.1076853  )
       180           H   tau( 180) = (  0.6369958  0.5881734  0.1076853  )
       181           H   tau( 181) = (  0.1369958  0.0881734  0.6076853  )
       182           H   tau( 182) = (  0.6369958  0.0881734  0.6076853  )
       183           H   tau( 183) = (  0.1369958  0.5881734  0.6076853  )
       184           H   tau( 184) = (  0.6369958  0.5881734  0.6076853  )
       185           N   tau( 185) = (  0.2155510  0.2797062  0.4088859  )
       186           N   tau( 186) = (  0.7155510  0.2797062  0.4088859  )
       187           N   tau( 187) = (  0.2155510  0.7797062  0.4088859  )
       188           N   tau( 188) = (  0.7155510  0.7797062  0.4088859  )
       189           N   tau( 189) = (  0.2155510  0.2797062  0.9088859  )
       190           N   tau( 190) = (  0.7155510  0.2797062  0.9088859  )
       191           N   tau( 191) = (  0.2155510  0.7797062  0.9088859  )
       192           N   tau( 192) = (  0.7155510  0.7797062  0.9088859  )
       193           N   tau( 193) = (  0.2145099  0.2293247  0.3324438  )
       194           N   tau( 194) = (  0.7145099  0.2293247  0.3324438  )
       195           N   tau( 195) = (  0.2145099  0.7293247  0.3324438  )
       196           N   tau( 196) = (  0.7145099  0.7293247  0.3324438  )
       197           N   tau( 197) = (  0.2145099  0.2293247  0.8324438  )
       198           N   tau( 198) = (  0.7145099  0.2293247  0.8324438  )
       199           N   tau( 199) = (  0.2145099  0.7293247  0.8324438  )
       200           N   tau( 200) = (  0.7145099  0.7293247  0.8324438  )
       201           C   tau( 201) = (  0.1071491  0.4248787  0.4251793  )
       202           C   tau( 202) = (  0.6071491  0.4248787  0.4251793  )
       203           C   tau( 203) = (  0.1071491  0.9248787  0.4251793  )
       204           C   tau( 204) = (  0.6071491  0.9248787  0.4251793  )
       205           C   tau( 205) = (  0.1071491  0.4248787  0.9251793  )
       206           C   tau( 206) = (  0.6071491  0.4248787  0.9251793  )
       207           C   tau( 207) = (  0.1071491  0.9248787  0.9251793  )
       208           C   tau( 208) = (  0.6071491  0.9248787  0.9251793  )
       209           H   tau( 209) = (  0.0598014  0.3871712  0.3499157  )
       210           H   tau( 210) = (  0.5598014  0.3871712  0.3499157  )
       211           H   tau( 211) = (  0.0598014  0.8871712  0.3499157  )
       212           H   tau( 212) = (  0.5598014  0.8871712  0.3499157  )
       213           H   tau( 213) = (  0.0598014  0.3871712  0.8499157  )
       214           H   tau( 214) = (  0.5598014  0.3871712  0.8499157  )
       215           H   tau( 215) = (  0.0598014  0.8871712  0.8499157  )
       216           H   tau( 216) = (  0.5598014  0.8871712  0.8499157  )
       217           N   tau( 217) = (  0.0945030  0.4892844  0.4761315  )
       218           N   tau( 218) = (  0.5945030  0.4892844  0.4761315  )
       219           N   tau( 219) = (  0.0945030  0.9892844  0.4761315  )
       220           N   tau( 220) = (  0.5945030  0.9892844  0.4761315  )
       221           N   tau( 221) = (  0.0945030  0.4892844  0.9761315  )
       222           N   tau( 222) = (  0.5945030  0.4892844  0.9761315  )
       223           N   tau( 223) = (  0.0945030  0.9892844  0.9761315  )
       224           N   tau( 224) = (  0.5945030  0.9892844  0.9761315  )
       225           C   tau( 225) = (  0.4048157  0.1057201  0.3877612  )
       226           C   tau( 226) = (  0.9048157  0.1057201  0.3877612  )
       227           C   tau( 227) = (  0.4048157  0.6057201  0.3877612  )
       228           C   tau( 228) = (  0.9048157  0.6057201  0.3877612  )
       229           C   tau( 229) = (  0.4048157  0.1057201  0.8877612  )
       230           C   tau( 230) = (  0.9048157  0.1057201  0.8877612  )
       231           C   tau( 231) = (  0.4048157  0.6057201  0.8877612  )
       232           C   tau( 232) = (  0.9048157  0.6057201  0.8877612  )
       233           H   tau( 233) = (  0.2607196  0.0565340  0.1880868  )
       234           H   tau( 234) = (  0.7607196  0.0565340  0.1880868  )
       235           H   tau( 235) = (  0.2607196  0.5565340  0.1880868  )
       236           H   tau( 236) = (  0.7607196  0.5565340  0.1880868  )
       237           H   tau( 237) = (  0.2607196  0.0565340  0.6880868  )
       238           H   tau( 238) = (  0.7607196  0.0565340  0.6880868  )
       239           H   tau( 239) = (  0.2607196  0.5565340  0.6880868  )
       240           H   tau( 240) = (  0.7607196  0.5565340  0.6880868  )
       241           N   tau( 241) = (  0.1494731  0.3339278  0.1527546  )
       242           N   tau( 242) = (  0.6494731  0.3339278  0.1527546  )
       243           N   tau( 243) = (  0.1494731  0.8339278  0.1527546  )
       244           N   tau( 244) = (  0.6494731  0.8339278  0.1527546  )
       245           N   tau( 245) = (  0.1494731  0.3339278  0.6527546  )
       246           N   tau( 246) = (  0.6494731  0.3339278  0.6527546  )
       247           N   tau( 247) = (  0.1494731  0.8339278  0.6527546  )
       248           N   tau( 248) = (  0.6494731  0.8339278  0.6527546  )
       249           N   tau( 249) = (  0.0920393  0.3150651  0.0674878  )
       250           N   tau( 250) = (  0.5920393  0.3150651  0.0674878  )
       251           N   tau( 251) = (  0.0920393  0.8150651  0.0674878  )
       252           N   tau( 252) = (  0.5920393  0.8150651  0.0674878  )
       253           N   tau( 253) = (  0.0920393  0.3150651  0.5674878  )
       254           N   tau( 254) = (  0.5920393  0.3150651  0.5674878  )
       255           N   tau( 255) = (  0.0920393  0.8150651  0.5674878  )
       256           N   tau( 256) = (  0.5920393  0.8150651  0.5674878  )
       257           C   tau( 257) = (  0.2866408  0.3246590  0.2279720  )
       258           C   tau( 258) = (  0.7866408  0.3246590  0.2279720  )
       259           C   tau( 259) = (  0.2866408  0.8246590  0.2279720  )
       260           C   tau( 260) = (  0.7866408  0.8246590  0.2279720  )
       261           C   tau( 261) = (  0.2866408  0.3246590  0.7279720  )
       262           C   tau( 262) = (  0.7866408  0.3246590  0.7279720  )
       263           C   tau( 263) = (  0.2866408  0.8246590  0.7279720  )
       264           C   tau( 264) = (  0.7866408  0.8246590  0.7279720  )
       265           C   tau( 265) = (  0.2124173  0.3143392  0.1499511  )
       266           C   tau( 266) = (  0.7124173  0.3143392  0.1499511  )
       267           C   tau( 267) = (  0.2124173  0.8143392  0.1499511  )
       268           C   tau( 268) = (  0.7124173  0.8143392  0.1499511  )
       269           C   tau( 269) = (  0.2124173  0.3143392  0.6499511  )
       270           C   tau( 270) = (  0.7124173  0.3143392  0.6499511  )
       271           C   tau( 271) = (  0.2124173  0.8143392  0.6499511  )
       272           C   tau( 272) = (  0.7124173  0.8143392  0.6499511  )
       273           C   tau( 273) = (  0.3266389  0.2680019  0.2185785  )
       274           C   tau( 274) = (  0.8266389  0.2680019  0.2185785  )
       275           C   tau( 275) = (  0.3266389  0.7680019  0.2185785  )
       276           C   tau( 276) = (  0.8266389  0.7680019  0.2185785  )
       277           C   tau( 277) = (  0.3266389  0.2680019  0.7185785  )
       278           C   tau( 278) = (  0.8266389  0.2680019  0.7185785  )
       279           C   tau( 279) = (  0.3266389  0.7680019  0.7185785  )
       280           C   tau( 280) = (  0.8266389  0.7680019  0.7185785  )
       281           H   tau( 281) = (  0.3042081  0.2131099  0.1499459  )
       282           H   tau( 282) = (  0.8042081  0.2131099  0.1499459  )
       283           H   tau( 283) = (  0.3042081  0.7131099  0.1499459  )
       284           H   tau( 284) = (  0.8042081  0.7131099  0.1499459  )
       285           H   tau( 285) = (  0.3042081  0.2131099  0.6499459  )
       286           H   tau( 286) = (  0.8042081  0.2131099  0.6499459  )
       287           H   tau( 287) = (  0.3042081  0.7131099  0.6499459  )
       288           H   tau( 288) = (  0.8042081  0.7131099  0.6499459  )
       289           C   tau( 289) = (  0.4190367  0.3506111  0.3856575  )
       290           C   tau( 290) = (  0.9190367  0.3506111  0.3856575  )
       291           C   tau( 291) = (  0.4190367  0.8506111  0.3856575  )
       292           C   tau( 292) = (  0.9190367  0.8506111  0.3856575  )
       293           C   tau( 293) = (  0.4190367  0.3506111  0.8856575  )
       294           C   tau( 294) = (  0.9190367  0.3506111  0.8856575  )
       295           C   tau( 295) = (  0.4190367  0.8506111  0.8856575  )
       296           C   tau( 296) = (  0.9190367  0.8506111  0.8856575  )
       297           H   tau( 297) = (  0.4706894  0.3630042  0.4511775  )
       298           H   tau( 298) = (  0.9706894  0.3630042  0.4511775  )
       299           H   tau( 299) = (  0.4706894  0.8630042  0.4511775  )
       300           H   tau( 300) = (  0.9706894  0.8630042  0.4511775  )
       301           H   tau( 301) = (  0.4706894  0.3630042  0.9511775  )
       302           H   tau( 302) = (  0.9706894  0.3630042  0.9511775  )
       303           H   tau( 303) = (  0.4706894  0.8630042  0.9511775  )
       304           H   tau( 304) = (  0.9706894  0.8630042  0.9511775  )
       305           N   tau( 305) = (  0.1933349  0.2844490  0.0641553  )
       306           N   tau( 306) = (  0.6933349  0.2844490  0.0641553  )
       307           N   tau( 307) = (  0.1933349  0.7844490  0.0641553  )
       308           N   tau( 308) = (  0.6933349  0.7844490  0.0641553  )
       309           N   tau( 309) = (  0.1933349  0.2844490  0.5641553  )
       310           N   tau( 310) = (  0.6933349  0.2844490  0.5641553  )
       311           N   tau( 311) = (  0.1933349  0.7844490  0.5641553  )
       312           N   tau( 312) = (  0.6933349  0.7844490  0.5641553  )
       313           N   tau( 313) = (  0.1179339  0.2854901  0.0148148  )
       314           N   tau( 314) = (  0.6179339  0.2854901  0.0148148  )
       315           N   tau( 315) = (  0.1179339  0.7854901  0.0148148  )
       316           N   tau( 316) = (  0.6179339  0.7854901  0.0148148  )
       317           N   tau( 317) = (  0.1179339  0.2854901  0.5148148  )
       318           N   tau( 318) = (  0.6179339  0.2854901  0.5148148  )
       319           N   tau( 319) = (  0.1179339  0.7854901  0.5148148  )
       320           N   tau( 320) = (  0.6179339  0.7854901  0.5148148  )
       321           C   tau( 321) = (  0.3180302  0.3928509  0.3177296  )
       322           C   tau( 322) = (  0.8180302  0.3928509  0.3177296  )
       323           C   tau( 323) = (  0.3180302  0.8928509  0.3177296  )
       324           C   tau( 324) = (  0.8180302  0.8928509  0.3177296  )
       325           C   tau( 325) = (  0.3180302  0.3928509  0.8177296  )
       326           C   tau( 326) = (  0.8180302  0.3928509  0.8177296  )
       327           C   tau( 327) = (  0.3180302  0.8928509  0.8177296  )
       328           C   tau( 328) = (  0.8180302  0.8928509  0.8177296  )
       329           H   tau( 329) = (  0.2901143  0.4401986  0.3273698  )
       330           H   tau( 330) = (  0.7901143  0.4401986  0.3273698  )
       331           H   tau( 331) = (  0.2901143  0.9401986  0.3273698  )
       332           H   tau( 332) = (  0.7901143  0.9401986  0.3273698  )
       333           H   tau( 333) = (  0.2901143  0.4401986  0.8273698  )
       334           H   tau( 334) = (  0.7901143  0.4401986  0.8273698  )
       335           H   tau( 335) = (  0.2901143  0.9401986  0.8273698  )
       336           H   tau( 336) = (  0.7901143  0.9401986  0.8273698  )
       337           N   tau( 337) = (  0.3816285  0.4054970  0.3947814  )
       338           N   tau( 338) = (  0.8816285  0.4054970  0.3947814  )
       339           N   tau( 339) = (  0.3816285  0.9054970  0.3947814  )
       340           N   tau( 340) = (  0.8816285  0.9054970  0.3947814  )
       341           N   tau( 341) = (  0.3816285  0.4054970  0.8947814  )
       342           N   tau( 342) = (  0.8816285  0.4054970  0.8947814  )
       343           N   tau( 343) = (  0.3816285  0.9054970  0.8947814  )
       344           N   tau( 344) = (  0.8816285  0.9054970  0.8947814  )
       345           C   tau( 345) = (  0.4829455  0.0951843  0.2009044  )
       346           C   tau( 346) = (  0.9829455  0.0951843  0.2009044  )
       347           C   tau( 347) = (  0.4829455  0.5951843  0.2009044  )
       348           C   tau( 348) = (  0.9829455  0.5951843  0.2009044  )
       349           C   tau( 349) = (  0.4829455  0.0951843  0.7009044  )
       350           C   tau( 350) = (  0.9829455  0.0951843  0.7009044  )
       351           C   tau( 351) = (  0.4829455  0.5951843  0.7009044  )
       352           C   tau( 352) = (  0.9829455  0.5951843  0.7009044  )
       353           H   tau( 353) = (  0.4273672  0.2392804  0.2958144  )
       354           H   tau( 354) = (  0.9273672  0.2392804  0.2958144  )
       355           H   tau( 355) = (  0.4273672  0.7392804  0.2958144  )
       356           H   tau( 356) = (  0.9273672  0.7392804  0.2958144  )
       357           H   tau( 357) = (  0.4273672  0.2392804  0.7958144  )
       358           H   tau( 358) = (  0.9273672  0.2392804  0.7958144  )
       359           H   tau( 359) = (  0.4273672  0.7392804  0.7958144  )
       360           H   tau( 360) = (  0.9273672  0.7392804  0.7958144  )
       361           N   tau( 361) = (  0.1811732  0.4967185  0.3472454  )
       362           N   tau( 362) = (  0.6811732  0.4967185  0.3472454  )
       363           N   tau( 363) = (  0.1811732  0.9967185  0.3472454  )
       364           N   tau( 364) = (  0.6811732  0.9967185  0.3472454  )
       365           N   tau( 365) = (  0.1811732  0.4967185  0.8472454  )
       366           N   tau( 366) = (  0.6811732  0.4967185  0.8472454  )
       367           N   tau( 367) = (  0.1811732  0.9967185  0.8472454  )
       368           N   tau( 368) = (  0.6811732  0.9967185  0.8472454  )
       369           N   tau( 369) = (  0.2475773  0.0245515  0.4325122  )
       370           N   tau( 370) = (  0.7475773  0.0245515  0.4325122  )
       371           N   tau( 371) = (  0.2475773  0.5245515  0.4325122  )
       372           N   tau( 372) = (  0.7475773  0.5245515  0.4325122  )
       373           N   tau( 373) = (  0.2475773  0.0245515  0.9325122  )
       374           N   tau( 374) = (  0.7475773  0.0245515  0.9325122  )
       375           N   tau( 375) = (  0.2475773  0.5245515  0.9325122  )
       376           N   tau( 376) = (  0.7475773  0.5245515  0.9325122  )
       377           C   tau( 377) = (  0.0966870  0.0586688  0.2720280  )
       378           C   tau( 378) = (  0.5966870  0.0586688  0.2720280  )
       379           C   tau( 379) = (  0.0966870  0.5586688  0.2720280  )
       380           C   tau( 380) = (  0.5966870  0.5586688  0.2720280  )
       381           C   tau( 381) = (  0.0966870  0.0586688  0.7720280  )
       382           C   tau( 382) = (  0.5966870  0.0586688  0.7720280  )
       383           C   tau( 383) = (  0.0966870  0.5586688  0.7720280  )
       384           C   tau( 384) = (  0.5966870  0.5586688  0.7720280  )
       385           C   tau( 385) = (  0.1643880  0.0624661  0.3500489  )
       386           C   tau( 386) = (  0.6643880  0.0624661  0.3500489  )
       387           C   tau( 387) = (  0.1643880  0.5624661  0.3500489  )
       388           C   tau( 388) = (  0.6643880  0.5624661  0.3500489  )
       389           C   tau( 389) = (  0.1643880  0.0624661  0.8500489  )
       390           C   tau( 390) = (  0.6643880  0.0624661  0.8500489  )
       391           C   tau( 391) = (  0.1643880  0.5624661  0.8500489  )
       392           C   tau( 392) = (  0.6643880  0.5624661  0.8500489  )
       393           C   tau( 393) = (  0.0494234  0.1080604  0.2814215  )
       394           C   tau( 394) = (  0.5494234  0.1080604  0.2814215  )
       395           C   tau( 395) = (  0.0494234  0.6080604  0.2814215  )
       396           C   tau( 396) = (  0.5494234  0.6080604  0.2814215  )
       397           C   tau( 397) = (  0.0494234  0.1080604  0.7814215  )
       398           C   tau( 398) = (  0.5494234  0.1080604  0.7814215  )
       399           C   tau( 399) = (  0.0494234  0.6080604  0.7814215  )
       400           C   tau( 400) = (  0.5494234  0.6080604  0.7814215  )
       401           H   tau( 401) = (  0.0631640  0.1542622  0.3500541  )
       402           H   tau( 402) = (  0.5631640  0.1542622  0.3500541  )
       403           H   tau( 403) = (  0.0631640  0.6542622  0.3500541  )
       404           H   tau( 404) = (  0.5631640  0.6542622  0.3500541  )
       405           H   tau( 405) = (  0.0631640  0.1542622  0.8500541  )
       406           H   tau( 406) = (  0.5631640  0.1542622  0.8500541  )
       407           H   tau( 407) = (  0.0631640  0.6542622  0.8500541  )
       408           H   tau( 408) = (  0.5631640  0.6542622  0.8500541  )
       409           C   tau( 409) = (  0.4649536  0.0333792  0.1143425  )
       410           C   tau( 410) = (  0.9649536  0.0333792  0.1143425  )
       411           C   tau( 411) = (  0.4649536  0.5333792  0.1143425  )
       412           C   tau( 412) = (  0.9649536  0.5333792  0.1143425  )
       413           C   tau( 413) = (  0.4649536  0.0333792  0.6143425  )
       414           C   tau( 414) = (  0.9649536  0.0333792  0.6143425  )
       415           C   tau( 415) = (  0.4649536  0.5333792  0.6143425  )
       416           C   tau( 416) = (  0.9649536  0.5333792  0.6143425  )
       417           H   tau( 417) = (  0.4118266  0.0195119  0.0488225  )
       418           H   tau( 418) = (  0.9118266  0.0195119  0.0488225  )
       419           H   tau( 419) = (  0.4118266  0.5195119  0.0488225  )
       420           H   tau( 420) = (  0.9118266  0.5195119  0.0488225  )
       421           H   tau( 421) = (  0.4118266  0.0195119  0.5488225  )
       422           H   tau( 422) = (  0.9118266  0.0195119  0.5488225  )
       423           H   tau( 423) = (  0.4118266  0.5195119  0.5488225  )
       424           H   tau( 424) = (  0.9118266  0.5195119  0.5488225  )
       425           N   tau( 425) = (  0.2202938  0.1291797  0.4358447  )
       426           N   tau( 426) = (  0.7202938  0.1291797  0.4358447  )
       427           N   tau( 427) = (  0.2202938  0.6291797  0.4358447  )
       428           N   tau( 428) = (  0.7202938  0.6291797  0.4358447  )
       429           N   tau( 429) = (  0.2202938  0.1291797  0.9358447  )
       430           N   tau( 430) = (  0.7202938  0.1291797  0.9358447  )
       431           N   tau( 431) = (  0.2202938  0.6291797  0.9358447  )
       432           N   tau( 432) = (  0.7202938  0.6291797  0.9358447  )
       433           N   tau( 433) = (  0.2706753  0.1031191  0.4851852  )
       434           N   tau( 434) = (  0.7706753  0.1031191  0.4851852  )
       435           N   tau( 435) = (  0.2706753  0.6031191  0.4851852  )
       436           N   tau( 436) = (  0.7706753  0.6031191  0.4851852  )
       437           N   tau( 437) = (  0.2706753  0.1031191  0.9851852  )
       438           N   tau( 438) = (  0.7706753  0.1031191  0.9851852  )
       439           N   tau( 439) = (  0.2706753  0.6031191  0.9851852  )
       440           N   tau( 440) = (  0.7706753  0.6031191  0.9851852  )
       441           C   tau( 441) = (  0.0751213  0.0003006  0.1822704  )
       442           C   tau( 442) = (  0.5751213  0.0003006  0.1822704  )
       443           C   tau( 443) = (  0.0751213  0.5003006  0.1822704  )
       444           C   tau( 444) = (  0.5751213  0.5003006  0.1822704  )
       445           C   tau( 445) = (  0.0751213  0.0003006  0.6822704  )
       446           C   tau( 446) = (  0.5751213  0.0003006  0.6822704  )
       447           C   tau( 447) = (  0.0751213  0.5003006  0.6822704  )
       448           C   tau( 448) = (  0.5751213  0.5003006  0.6822704  )
       449           H   tau( 449) = (  0.1128288  0.4627445  0.1726302  )
       450           H   tau( 450) = (  0.6128288  0.4627445  0.1726302  )
       451           H   tau( 451) = (  0.1128288  0.9627445  0.1726302  )
       452           H   tau( 452) = (  0.6128288  0.9627445  0.1726302  )
       453           H   tau( 453) = (  0.1128288  0.4627445  0.6726302  )
       454           H   tau( 454) = (  0.6128288  0.4627445  0.6726302  )
       455           H   tau( 455) = (  0.1128288  0.9627445  0.6726302  )
       456           H   tau( 456) = (  0.6128288  0.9627445  0.6726302  )
       457           N   tau( 457) = (  0.0107156  0.4868471  0.1052186  )
       458           N   tau( 458) = (  0.5107156  0.4868471  0.1052186  )
       459           N   tau( 459) = (  0.0107156  0.9868471  0.1052186  )
       460           N   tau( 460) = (  0.5107156  0.9868471  0.1052186  )
       461           N   tau( 461) = (  0.0107156  0.4868471  0.6052186  )
       462           N   tau( 462) = (  0.5107156  0.4868471  0.6052186  )
       463           N   tau( 463) = (  0.0107156  0.9868471  0.6052186  )
       464           N   tau( 464) = (  0.5107156  0.9868471  0.6052186  )
       465           C   tau( 465) = (  0.3942799  0.2820411  0.2990956  )
       466           C   tau( 466) = (  0.8942799  0.2820411  0.2990956  )
       467           C   tau( 467) = (  0.3942799  0.7820411  0.2990956  )
       468           C   tau( 468) = (  0.8942799  0.7820411  0.2990956  )
       469           C   tau( 469) = (  0.3942799  0.2820411  0.7990956  )
       470           C   tau( 470) = (  0.8942799  0.2820411  0.7990956  )
       471           C   tau( 471) = (  0.3942799  0.7820411  0.7990956  )
       472           C   tau( 472) = (  0.8942799  0.7820411  0.7990956  )
       473           H   tau( 473) = (  0.4434660  0.1315528  0.2041856  )
       474           H   tau( 474) = (  0.9434660  0.1315528  0.2041856  )
       475           H   tau( 475) = (  0.4434660  0.6315528  0.2041856  )
       476           H   tau( 476) = (  0.9434660  0.6315528  0.2041856  )
       477           H   tau( 477) = (  0.4434660  0.1315528  0.7041856  )
       478           H   tau( 478) = (  0.9434660  0.1315528  0.7041856  )
       479           H   tau( 479) = (  0.4434660  0.6315528  0.7041856  )
       480           H   tau( 480) = (  0.9434660  0.6315528  0.7041856  )
       481           Zn  tau( 481) = (  0.1250000  0.3750000  0.2500000  )
       482           Zn  tau( 482) = (  0.6250000  0.3750000  0.2500000  )
       483           Zn  tau( 483) = (  0.1250000  0.8750000  0.2500000  )
       484           Zn  tau( 484) = (  0.6250000  0.8750000  0.2500000  )
       485           Zn  tau( 485) = (  0.1250000  0.3750000  0.7500000  )
       486           Zn  tau( 486) = (  0.6250000  0.3750000  0.7500000  )
       487           Zn  tau( 487) = (  0.1250000  0.8750000  0.7500000  )
       488           Zn  tau( 488) = (  0.6250000  0.8750000  0.7500000  )
       489           Zn  tau( 489) = (  0.2500000  0.2500000  0.0000000  )
       490           Zn  tau( 490) = (  0.7500000  0.2500000  0.0000000  )
       491           Zn  tau( 491) = (  0.2500000  0.7500000  0.0000000  )
       492           Zn  tau( 492) = (  0.7500000  0.7500000  0.0000000  )
       493           Zn  tau( 493) = (  0.2500000  0.2500000  0.5000000  )
       494           Zn  tau( 494) = (  0.7500000  0.2500000  0.5000000  )
       495           Zn  tau( 495) = (  0.2500000  0.7500000  0.5000000  )
       496           Zn  tau( 496) = (  0.7500000  0.7500000  0.5000000  )

     number of k points=     1
                       cart. coord. in units 2pi/alat
        k(    1) = (   0.0000000   0.0000000   0.0000000), wk =   2.0000000

                       cryst. coord.
        k(    1) = (   0.0000000   0.0000000   0.0000000), wk =   2.0000000

     Dense  grid:  2563819 G-vectors     FFT dimensions: ( 192, 192, 192)

     Smooth grid:  2411581 G-vectors     FFT dimensions: ( 192, 192, 192)

     Dynamical RAM for                 wfc:     144.89 MB

     Dynamical RAM for     wfc (w. buffer):     144.89 MB

     Dynamical RAM for           str. fact:       4.89 MB

     Dynamical RAM for           local pot:       0.00 MB

     Dynamical RAM for          nlocal pot:     482.96 MB

     Dynamical RAM for                qrad:       5.08 MB

     Dynamical RAM for          rho,v,vnew:       8.73 MB

     Dynamical RAM for               rhoin:       2.91 MB

     Dynamical RAM for            rho*nmix:      19.56 MB

     Dynamical RAM for           G-vectors:       5.16 MB

     Dynamical RAM for          h,s,v(r/c):       7.43 MB

     Dynamical RAM for          <psi|beta>:      51.68 MB

     Dynamical RAM for                 psi:     289.78 MB

     Dynamical RAM for                hpsi:     289.78 MB

     Dynamical RAM for                spsi:     289.78 MB

     Dynamical RAM for      wfcinit/wfcrot:     570.99 MB

     Dynamical RAM for           addusdens:     462.11 MB

     Dynamical RAM for          addusforce:     930.48 MB

     Dynamical RAM for         addusstress:     245.73 MB

     Estimated static dynamical RAM per process >     669.17 MB

     Estimated max dynamical RAM per process >       1.58 GB

     Estimated total dynamical RAM >      50.60 GB

     Check: negative core charge=   -0.000014

     Initial potential from superposition of free atoms

     starting charge    2015.9874, renormalised to    2016.0000
     Starting wfcs are 1744 randomized atomic wfcs
     Checking if some PAW data can be deallocated... 
       PAW data deallocated on   10 nodes for type:  2

     total cpu time spent up to now is      161.6 secs

     Self-consistent Calculation

     iteration #  1     ecut=    60.00 Ry     beta= 0.40
     Davidson diagonalization with overlap

---- Real-time Memory Report at c_bands before calling an iterative solver
          1337 MiB given to the printing process from OS
             0 MiB allocation reported by mallinfo(arena+hblkhd)
        162796 MiB available memory on the node where the printing process lives
------------------
     ethr =  1.00E-02,  avg # of iterations =  3.0

     total cpu time spent up to now is      508.2 secs

     total energy              =  -14223.11861194 Ry
     estimated scf accuracy    <      42.09241128 Ry

     iteration #  2     ecut=    60.00 Ry     beta= 0.40
     Davidson diagonalization with overlap

---- Real-time Memory Report at c_bands before calling an iterative solver
          1720 MiB given to the printing process from OS
             0 MiB allocation reported by mallinfo(arena+hblkhd)
        164758 MiB available memory on the node where the printing process lives
------------------
     ethr =  2.09E-03,  avg # of iterations =  2.0

     total cpu time spent up to now is      790.7 secs

     total energy              =  -14223.75084027 Ry
     estimated scf accuracy    <       7.72038432 Ry

     iteration #  3     ecut=    60.00 Ry     beta= 0.40
     Davidson diagonalization with overlap

---- Real-time Memory Report at c_bands before calling an iterative solver
          1745 MiB given to the printing process from OS
             0 MiB allocation reported by mallinfo(arena+hblkhd)
        164181 MiB available memory on the node where the printing process lives
------------------
     ethr =  3.83E-04,  avg # of iterations =  4.0

     total cpu time spent up to now is     1160.8 secs

     total energy              =  -14225.17458954 Ry
     estimated scf accuracy    <       0.85056584 Ry

     iteration #  4     ecut=    60.00 Ry     beta= 0.40
     Davidson diagonalization with overlap

---- Real-time Memory Report at c_bands before calling an iterative solver
          1749 MiB given to the printing process from OS
             0 MiB allocation reported by mallinfo(arena+hblkhd)
        167630 MiB available memory on the node where the printing process lives
------------------
     ethr =  4.22E-05,  avg # of iterations =  4.0

     total cpu time spent up to now is     1485.3 secs

     total energy              =  -14225.24917165 Ry
     estimated scf accuracy    <       0.17076389 Ry

     iteration #  5     ecut=    60.00 Ry     beta= 0.40
     Davidson diagonalization with overlap

---- Real-time Memory Report at c_bands before calling an iterative solver
          1753 MiB given to the printing process from OS
             0 MiB allocation reported by mallinfo(arena+hblkhd)
        158333 MiB available memory on the node where the printing process lives
------------------
     ethr =  8.47E-06,  avg # of iterations =  5.0

     total cpu time spent up to now is     1844.9 secs

     total energy              =  -14225.27788630 Ry
     estimated scf accuracy    <       0.03000686 Ry

     iteration #  6     ecut=    60.00 Ry     beta= 0.40
     Davidson diagonalization with overlap

---- Real-time Memory Report at c_bands before calling an iterative solver
          1764 MiB given to the printing process from OS
             0 MiB allocation reported by mallinfo(arena+hblkhd)
        154148 MiB available memory on the node where the printing process lives
------------------
     ethr =  1.49E-06,  avg # of iterations =  6.0

     total cpu time spent up to now is     2233.7 secs

     total energy              =  -14225.28473370 Ry
     estimated scf accuracy    <       0.00789211 Ry

     iteration #  7     ecut=    60.00 Ry     beta= 0.40
     Davidson diagonalization with overlap

---- Real-time Memory Report at c_bands before calling an iterative solver
          1764 MiB given to the printing process from OS
             0 MiB allocation reported by mallinfo(arena+hblkhd)
        154435 MiB available memory on the node where the printing process lives
------------------
     ethr =  3.91E-07,  avg # of iterations =  5.0

     total cpu time spent up to now is     2630.7 secs

     total energy              =  -14225.28699874 Ry
     estimated scf accuracy    <       0.00170455 Ry

     iteration #  8     ecut=    60.00 Ry     beta= 0.40
     Davidson diagonalization with overlap

---- Real-time Memory Report at c_bands before calling an iterative solver
          1764 MiB given to the printing process from OS
             0 MiB allocation reported by mallinfo(arena+hblkhd)
        148880 MiB available memory on the node where the printing process lives
------------------
     ethr =  8.46E-08,  avg # of iterations =  5.0

     total cpu time spent up to now is     2986.0 secs

     total energy              =  -14225.28740784 Ry
     estimated scf accuracy    <       0.00013948 Ry

     iteration #  9     ecut=    60.00 Ry     beta= 0.40
     Davidson diagonalization with overlap

---- Real-time Memory Report at c_bands before calling an iterative solver
          1768 MiB given to the printing process from OS
             0 MiB allocation reported by mallinfo(arena+hblkhd)
        147264 MiB available memory on the node where the printing process lives
------------------
     ethr =  6.92E-09,  avg # of iterations =  6.0

     total cpu time spent up to now is     3437.2 secs

     total energy              =  -14225.28747033 Ry
     estimated scf accuracy    <       0.00005545 Ry

     iteration # 10     ecut=    60.00 Ry     beta= 0.40
     Davidson diagonalization with overlap

---- Real-time Memory Report at c_bands before calling an iterative solver
          1771 MiB given to the printing process from OS
             0 MiB allocation reported by mallinfo(arena+hblkhd)
        142335 MiB available memory on the node where the printing process lives
------------------
     ethr =  2.75E-09,  avg # of iterations =  4.0

     total cpu time spent up to now is     3713.5 secs

     total energy              =  -14225.28746846 Ry
     estimated scf accuracy    <       0.00001423 Ry

     iteration # 11     ecut=    60.00 Ry     beta= 0.40
     Davidson diagonalization with overlap

---- Real-time Memory Report at c_bands before calling an iterative solver
          1775 MiB given to the printing process from OS
             0 MiB allocation reported by mallinfo(arena+hblkhd)
        141565 MiB available memory on the node where the printing process lives
------------------
     ethr =  7.06E-10,  avg # of iterations =  6.0

     total cpu time spent up to now is     4212.5 secs

     total energy              =  -14225.28747629 Ry
     estimated scf accuracy    <       0.00001918 Ry

     iteration # 12     ecut=    60.00 Ry     beta= 0.40
     Davidson diagonalization with overlap

---- Real-time Memory Report at c_bands before calling an iterative solver
          1775 MiB given to the printing process from OS
             0 MiB allocation reported by mallinfo(arena+hblkhd)
        141714 MiB available memory on the node where the printing process lives
------------------
     ethr =  7.06E-10,  avg # of iterations =  2.0

     total cpu time spent up to now is     4472.6 secs

     total energy              =  -14225.28747345 Ry
     estimated scf accuracy    <       0.00000668 Ry

     iteration # 13     ecut=    60.00 Ry     beta= 0.40
     Davidson diagonalization with overlap

---- Real-time Memory Report at c_bands before calling an iterative solver
          1775 MiB given to the printing process from OS
             0 MiB allocation reported by mallinfo(arena+hblkhd)
        134654 MiB available memory on the node where the printing process lives
------------------
     ethr =  3.31E-10,  avg # of iterations =  6.0

     total cpu time spent up to now is     4924.3 secs

     total energy              =  -14225.28747637 Ry
     estimated scf accuracy    <       0.00000494 Ry

     iteration # 14     ecut=    60.00 Ry     beta= 0.40
     Davidson diagonalization with overlap

---- Real-time Memory Report at c_bands before calling an iterative solver
          1775 MiB given to the printing process from OS
             0 MiB allocation reported by mallinfo(arena+hblkhd)
        141490 MiB available memory on the node where the printing process lives
------------------
     ethr =  2.45E-10,  avg # of iterations =  4.0

     total cpu time spent up to now is     5199.9 secs

     total energy              =  -14225.28747676 Ry
     estimated scf accuracy    <       0.00000050 Ry

     iteration # 15     ecut=    60.00 Ry     beta= 0.40
     Davidson diagonalization with overlap

---- Real-time Memory Report at c_bands before calling an iterative solver
          1775 MiB given to the printing process from OS
             0 MiB allocation reported by mallinfo(arena+hblkhd)
        141331 MiB available memory on the node where the printing process lives
------------------
     ethr =  2.49E-11,  avg # of iterations =  6.0

     total cpu time spent up to now is     5670.1 secs

     total energy              =  -14225.28747713 Ry
     estimated scf accuracy    <       0.00000017 Ry

     iteration # 16     ecut=    60.00 Ry     beta= 0.40
     Davidson diagonalization with overlap

---- Real-time Memory Report at c_bands before calling an iterative solver
          1775 MiB given to the printing process from OS
             0 MiB allocation reported by mallinfo(arena+hblkhd)
        143398 MiB available memory on the node where the printing process lives
------------------
     ethr =  8.20E-12,  avg # of iterations =  5.0

     total cpu time spent up to now is     5956.7 secs

     total energy              =  -14225.28747708 Ry
     estimated scf accuracy    <       0.00000024 Ry

     iteration # 17     ecut=    60.00 Ry     beta= 0.40
     Davidson diagonalization with overlap

---- Real-time Memory Report at c_bands before calling an iterative solver
          1775 MiB given to the printing process from OS
             0 MiB allocation reported by mallinfo(arena+hblkhd)
        143065 MiB available memory on the node where the printing process lives
------------------
     ethr =  8.20E-12,  avg # of iterations =  4.0

     total cpu time spent up to now is     6220.5 secs

     total energy              =  -14225.28747704 Ry
     estimated scf accuracy    <       0.00000010 Ry

     iteration # 18     ecut=    60.00 Ry     beta= 0.40
     Davidson diagonalization with overlap

---- Real-time Memory Report at c_bands before calling an iterative solver
          1775 MiB given to the printing process from OS
             0 MiB allocation reported by mallinfo(arena+hblkhd)
        143073 MiB available memory on the node where the printing process lives
------------------
     ethr =  5.07E-12,  avg # of iterations =  6.0

     total cpu time spent up to now is     6640.4 secs

     total energy              =  -14225.28747708 Ry
     estimated scf accuracy    <       0.00000002 Ry

     iteration # 19     ecut=    60.00 Ry     beta= 0.40
     Davidson diagonalization with overlap

---- Real-time Memory Report at c_bands before calling an iterative solver
          1775 MiB given to the printing process from OS
             0 MiB allocation reported by mallinfo(arena+hblkhd)
        134091 MiB available memory on the node where the printing process lives
------------------
     ethr =  1.09E-12,  avg # of iterations =  2.0

     total cpu time spent up to now is     6893.4 secs

     End of self-consistent calculation

          k = 0.0000 0.0000 0.0000 (301561 PWs)   bands (ev):

  -122.8788-122.8787-122.8787-122.8787-122.8787-122.8787-122.8787-122.8775
  -122.8413-122.8412-122.8412-122.8412-122.8412-122.8411-122.8411-122.8411
   -77.2237 -77.2236 -77.2236 -77.2236 -77.2236 -77.2236 -77.2236 -77.2224
   -77.2190 -77.2190 -77.2189 -77.2189 -77.2189 -77.2189 -77.2189 -77.2189
   -77.2189 -77.2189 -77.2188 -77.2188 -77.2188 -77.2188 -77.2177 -77.2177
   -77.1924 -77.1924 -77.1923 -77.1923 -77.1923 -77.1923 -77.1923 -77.1923
   -77.1923 -77.1923 -77.1922 -77.1922 -77.1922 -77.1922 -77.1922 -77.1921
   -77.1649 -77.1649 -77.1649 -77.1648 -77.1648 -77.1648 -77.1647 -77.1647
   -21.8270 -21.8200 -21.8200 -21.8200 -21.8199 -21.8142 -21.8142 -21.8136
   -21.8135 -21.8118 -21.8097 -21.8059 -21.8059 -21.8058 -21.8058 -21.8007
   -21.8007 -21.8006 -21.8006 -21.8006 -21.8006 -21.8005 -21.8005 -21.7990
   -21.7989 -21.7963 -21.7963 -21.7963 -21.7962 -21.7962 -21.7960 -21.7945
   -16.7493 -16.7476 -16.7476 -16.7466 -16.7465 -16.7465 -16.7465 -16.7421
   -16.7142 -16.7071 -16.7070 -16.7070 -16.7070 -16.7005 -16.6995 -16.6995
   -16.6923 -16.6922 -16.6852 -16.6852 -16.6851 -16.6851 -16.6821 -16.6821
   -16.6803 -16.6802 -16.6785 -16.6785 -16.6784 -16.6784 -16.6784 -16.6784
   -16.5790 -16.5401 -16.5400 -16.5400 -16.5400 -16.5180 -16.5180 -16.5063
   -16.4943 -16.4942 -16.4921 -16.4682 -16.4682 -16.4681 -16.4681 -16.4374
   -16.4373 -16.4364 -16.4364 -16.4363 -16.4363 -16.4348 -16.4348 -16.4334
   -16.4334 -16.4247 -16.4247 -16.4247 -16.4246 -16.4232 -16.4231 -16.4198
   -15.4995 -15.4988 -15.4969 -15.4937 -15.4937 -15.4937 -15.4935 -15.4916
   -15.4878 -15.4877 -15.4877 -15.4876 -15.4874 -15.4874 -15.4870 -15.4870
   -15.4811 -15.4810 -15.4801 -15.4801 -15.4800 -15.4800 -15.4799 -15.4799
   -15.4788 -15.4787 -15.4787 -15.4787 -15.4763 -15.4763 -15.4748 -15.4748
   -13.2306 -13.2197 -13.2123 -13.2122 -13.2122 -13.2121 -13.2097 -13.2096
   -13.2075 -13.2043 -13.2042 -13.2035 -13.2034 -13.2034 -13.2034 -13.1950
   -13.1917 -13.1917 -13.1908 -13.1908 -13.1907 -13.1907 -13.1795 -13.1795
   -13.1794 -13.1794 -13.1782 -13.1781 -13.1778 -13.1778 -13.1778 -13.1777
   -12.1896 -12.1896 -12.1896 -12.1894 -12.1881 -12.1881 -12.1839 -12.1800
   -12.1798 -12.1719 -12.1690 -12.1689 -12.1689 -12.1687 -12.1524 -12.1523
   -12.1521 -12.1519 -12.1501 -12.1500 -12.1500 -12.1499 -12.1497 -12.1495
   -12.1335 -12.1253 -12.1252 -12.1209 -12.1178 -12.1178 -12.1177 -12.1175
    -9.9199  -9.9013  -9.8902  -9.8862  -9.8862  -9.8862  -9.8860  -9.8770
    -9.8609  -9.8609  -9.8609  -9.8608  -9.8574  -9.8573  -9.8498  -9.8497
    -9.8265  -9.8265  -9.8265  -9.8264  -9.8244  -9.8244  -9.8063  -9.8062
    -9.8054  -9.8054  -9.7973  -9.7973  -9.7973  -9.7972  -9.7957  -9.7956
    -9.6802  -9.6659  -9.6657  -9.6644  -9.6643  -9.6643  -9.6641  -9.6484
    -9.6484  -9.6470  -9.6469  -9.6469  -9.6467  -9.6447  -9.6446  -9.6385
    -9.6384  -9.6152  -9.6152  -9.6152  -9.6150  -9.6021  -9.6020  -9.5860
    -9.5826  -9.5596  -9.5595  -9.5456  -9.5455  -9.5455  -9.5453  -9.5259
    -8.5892  -8.5635  -8.5509  -8.5508  -8.5479  -8.5384  -8.5384  -8.5384
    -8.5383  -8.5297  -8.5296  -8.5295  -8.5294  -8.5118  -8.5118  -8.5114
    -8.4956  -8.4955  -8.4955  -8.4953  -8.4929  -8.4926  -8.4629  -8.4627
    -8.4623  -8.4622  -8.4622  -8.4619  -8.4497  -8.4496  -8.4495  -8.4495
    -8.4234  -8.4174  -8.4174  -8.4121  -8.4120  -8.4120  -8.4119  -8.3747
    -8.3698  -8.3698  -8.3697  -8.3696  -8.3631  -8.3630  -8.3625  -8.3624
    -8.3611  -8.3594  -8.3593  -8.3571  -8.3570  -8.3316  -8.3316  -8.3316
    -8.3315  -8.3227  -8.3222  -8.3221  -8.3221  -8.3220  -8.3124  -8.3124
    -7.0584  -6.9055  -6.8984  -6.8980  -6.8980  -6.8980  -6.8979  -6.7920
    -6.7919  -6.7584  -6.7583  -6.7139  -6.7138  -6.7138  -6.7138  -6.6758
    -6.6018  -6.6018  -6.5983  -6.5983  -6.5982  -6.5982  -6.5709  -6.5708
    -6.5610  -6.5610  -6.5610  -6.5609  -6.4882  -6.4881  -6.4860  -6.4859
    -5.8777  -5.8310  -5.8310  -5.8309  -5.8308  -5.8290  -5.7984  -5.7983
    -5.7835  -5.7835  -5.7759  -5.7759  -5.7759  -5.7755  -5.7634  -5.7633
    -5.7373  -5.7372  -5.7372  -5.7370  -5.7301  -5.7298  -5.7278  -5.7244
    -5.6855  -5.6855  -5.6854  -5.6854  -5.6451  -5.6449  -5.6348  -5.6323
    -5.6322  -5.6092  -5.6046  -5.6045  -5.5958  -5.5957  -5.5957  -5.5956
    -5.5809  -5.5602  -5.5453  -5.5450  -5.5421  -5.5421  -5.5420  -5.5420
    -5.5374  -5.5374  -5.5364  -5.5363  -5.5122  -5.5121  -5.5029  -5.5029
    -5.5011  -5.5011  -5.5011  -5.5009  -5.4825  -5.4825  -5.4825  -5.4822
    -5.0613  -5.0612  -5.0475  -5.0474  -5.0474  -5.0469  -5.0443  -5.0440
    -5.0302  -5.0301  -5.0298  -5.0297  -5.0297  -5.0290  -5.0260  -5.0180
    -5.0177  -5.0034  -4.9988  -4.9948  -4.9947  -4.9947  -4.9941  -4.9786
    -4.9783  -4.9660  -4.9660  -4.9660  -4.9656  -4.9569  -4.9534  -4.9533
    -4.9458  -4.8940  -4.8915  -4.8913  -4.8680  -4.8679  -4.8679  -4.8677
    -4.8622  -4.8519  -4.8516  -4.8441  -4.8440  -4.8440  -4.8438  -4.8340
    -4.8340  -4.8299  -4.8299  -4.8298  -4.8297  -4.8266  -4.8259  -4.8258
    -4.8037  -4.8036  -4.7992  -4.7991  -4.7925  -4.7925  -4.7924  -4.7922
    -4.7802  -4.7801  -4.7580  -4.7580  -4.7580  -4.7579  -4.7434  -4.7431
    -4.7410  -4.7410  -4.7216  -4.7216  -4.7216  -4.7215  -4.7132  -4.7131
    -4.7115  -4.7114  -4.7114  -4.7113  -4.6863  -4.6863  -4.6689  -4.6689
    -4.6477  -4.6132  -4.6132  -4.5880  -4.5879  -4.5879  -4.5879  -4.5015
    -4.3229  -4.2809  -4.2809  -4.2809  -4.2806  -4.2187  -4.2126  -4.2078
    -4.2075  -4.1876  -4.1876  -4.1412  -4.1412  -4.1411  -4.1411  -4.1409
    -4.1405  -4.1363  -4.1137  -4.1077  -4.1077  -4.1077  -4.1076  -4.1034
    -4.0975  -4.0975  -4.0853  -4.0853  -4.0853  -4.0851  -4.0652  -4.0571
    -3.9876  -3.9556  -3.9554  -3.8258  -3.8257  -3.8257  -3.8257  -3.7663
    -3.7662  -3.7662  -3.7660  -3.7308  -3.7101  -3.7100  -3.7100  -3.7098
    -3.6718  -3.6558  -3.6557  -3.6268  -3.5757  -3.5755  -3.5732  -3.5731
    -3.5595  -3.5595  -3.5040  -3.5039  -3.4255  -3.4254  -3.4254  -3.4253
    -3.4238  -3.4237  -3.3751  -3.3749  -3.3650  -3.3647  -3.3645  -3.3645
    -3.3644  -3.2780  -3.2779  -3.2779  -3.2777  -3.2412  -3.2411  -3.2410
    -3.2410  -3.2344  -3.2308  -3.2307  -3.2305  -3.2288  -3.2287  -3.2099
    -3.2098  -3.1857  -3.1762  -3.1761  -3.1761  -3.1759  -3.1714  -3.0957
    -3.0957  -3.0948  -3.0947  -3.0899  -3.0898  -3.0869  -3.0868  -3.0868
    -3.0866  -3.0453  -3.0453  -3.0453  -3.0452  -3.0179  -3.0055  -3.0054
    -2.9782  -2.9743  -2.9740  -2.9740  -2.9739  -2.9689  -2.9380  -2.9379
    -2.9350  -2.9349  -2.9349  -2.9348  -2.9293  -2.9292  -2.8984  -2.8835
    -2.8834  -2.7759  -2.7758  -2.7612  -2.7611  -2.7611  -2.7610  -2.7263
    -2.7262  -2.7175  -2.7175  -2.7028  -2.7027  -2.7010  -2.7009  -2.7008
    -2.7008  -2.6121  -2.6119  -2.6119  -2.6119  -2.5572  -2.4828  -2.4416
    -2.4415  -2.3679  -2.3677  -2.2681  -2.2681  -2.2681  -2.2679  -2.1962
    -2.1960  -2.1600  -2.0957  -2.0765  -2.0609  -2.0609  -2.0608  -2.0604
    -2.0134  -2.0133  -2.0133  -2.0128  -2.0062  -2.0061  -2.0057  -1.9944
    -1.9942  -1.9538  -1.9538  -1.9537  -1.9533  -1.9483  -1.9480  -1.9180
    -1.9178  -1.8920  -1.8917  -1.8709  -1.8708  -1.8708  -1.8705  -1.7602
    -1.7601  -1.6296  -1.6296  -1.6295  -1.6295  -1.5897  -1.5895  -1.5191
    -1.4437  -1.4437  -1.4437  -1.4436  -1.4242  -1.4241  -1.4184  -1.4183
    -1.4154  -1.4088  -1.4088  -1.3812  -1.3745  -1.3745  -1.3744  -1.3744
    -1.3635  -1.3634  -1.3634  -1.3634  -1.3624  -1.3624  -1.3483  -1.3483
    -1.3470  -1.3470  -1.3470  -1.3469  -1.3403  -1.3402  -1.3374  -1.3332
    -1.2995  -1.2995  -1.2969  -1.2813  -1.2812  -1.2812  -1.2812  -1.2535
    -1.2534  -1.2416  -1.2416  -1.2416  -1.2415  -1.2337  -1.2299  -1.2299
    -1.2200  -1.2200  -1.2098  -1.2098  -1.2090  -1.2090  -1.2090  -1.2090
    -1.1525  -1.1525  -1.1525  -1.1525  -1.1477  -1.1477  -1.0927  -1.0681
    -1.0405  -0.9019  -0.9019  -0.9018  -0.9018  -0.9012  -0.9012  -0.8036
    -0.8035  -0.8018  -0.7826  -0.7826  -0.7825  -0.7825  -0.7795  -0.7795
    -0.7694  -0.7625  -0.7625  -0.7285  -0.7285  -0.7284  -0.7284  -0.7178
    -0.7178  -0.7143  -0.7123  -0.7123  -0.7123  -0.7122  -0.6636  -0.6636
    -0.6293  -0.6293  -0.5995  -0.5995  -0.5995  -0.5995  -0.5722  -0.5721
    -0.4878  -0.4241  -0.4240  -0.4240  -0.4239  -0.4157  -0.4157  -0.4004
    -0.3838  -0.3837  -0.3633  -0.3633  -0.3632  -0.3632  -0.3471  -0.3407
    -0.3407  -0.3361  -0.3361  -0.3360  -0.3360  -0.3312  -0.3312  -0.3287
    -0.3287  -0.3267  -0.2969  -0.2969  -0.2846  -0.2845  -0.2845  -0.2845
    -0.2801  -0.2800  -0.2760  -0.2760  -0.2760  -0.2759  -0.2727  -0.2432
    -0.2431  -0.2431  -0.2431  -0.2400  -0.2399  -0.2399  -0.2215  -0.2214
    -0.2209  -0.2209  -0.2209  -0.2208  -0.2185  -0.2081  -0.2080  -0.2077
    -0.2036  -0.2036  -0.1909  -0.1908  -0.1907  -0.1907  -0.1907  -0.1906
     0.3864   0.4185   0.4185   0.4185   0.4185   0.4350   0.4350   0.4859
     0.4860   0.4867   0.4947   0.4948   0.4948   0.4949   0.5126   0.5127
     0.5145   0.5145   0.5240   0.5272   0.5272   0.5272   0.5273   0.5737
     0.5738   0.5762   0.5763   0.6099   0.6101   0.6101   0.6101   0.6262
     1.0983   1.0983   1.1046   1.1046   1.1159   1.1159   1.1160   1.1160
     1.1374   1.1374   1.1374   1.1375   1.1547   1.1618   1.1618   1.1636
     1.1636   1.1645   1.1736   1.1737   1.1737   1.1737   1.1846   1.1846
     1.2169   1.2205   1.2420   1.2421   1.2421   1.2421   1.2426   1.2427

     occupation numbers 
     1.0000   1.0000   1.0000   1.0000   1.0000   1.0000   1.0000   1.0000
     1.0000   1.0000   1.0000   1.0000   1.0000   1.0000   1.0000   1.0000
     1.0000   1.0000   1.0000   1.0000   1.0000   1.0000   1.0000   1.0000
     1.0000   1.0000   1.0000   1.0000   1.0000   1.0000   1.0000   1.0000
     1.0000   1.0000   1.0000   1.0000   1.0000   1.0000   1.0000   1.0000
     1.0000   1.0000   1.0000   1.0000   1.0000   1.0000   1.0000   1.0000
     1.0000   1.0000   1.0000   1.0000   1.0000   1.0000   1.0000   1.0000
     1.0000   1.0000   1.0000   1.0000   1.0000   1.0000   1.0000   1.0000
     1.0000   1.0000   1.0000   1.0000   1.0000   1.0000   1.0000   1.0000
     1.0000   1.0000   1.0000   1.0000   1.0000   1.0000   1.0000   1.0000
     1.0000   1.0000   1.0000   1.0000   1.0000   1.0000   1.0000   1.0000
     1.0000   1.0000   1.0000   1.0000   1.0000   1.0000   1.0000   1.0000
     1.0000   1.0000   1.0000   1.0000   1.0000   1.0000   1.0000   1.0000
     1.0000   1.0000   1.0000   1.0000   1.0000   1.0000   1.0000   1.0000
     1.0000   1.0000   1.0000   1.0000   1.0000   1.0000   1.0000   1.0000
     1.0000   1.0000   1.0000   1.0000   1.0000   1.0000   1.0000   1.0000
     1.0000   1.0000   1.0000   1.0000   1.0000   1.0000   1.0000   1.0000
     1.0000   1.0000   1.0000   1.0000   1.0000   1.0000   1.0000   1.0000
     1.0000   1.0000   1.0000   1.0000   1.0000   1.0000   1.0000   1.0000
     1.0000   1.0000   1.0000   1.0000   1.0000   1.0000   1.0000   1.0000
     1.0000   1.0000   1.0000   1.0000   1.0000   1.0000   1.0000   1.0000
     1.0000   1.0000   1.0000   1.0000   1.0000   1.0000   1.0000   1.0000
     1.0000   1.0000   1.0000   1.0000   1.0000   1.0000   1.0000   1.0000
     1.0000   1.0000   1.0000   1.0000   1.0000   1.0000   1.0000   1.0000
     1.0000   1.0000   1.0000   1.0000   1.0000   1.0000   1.0000   1.0000
     1.0000   1.0000   1.0000   1.0000   1.0000   1.0000   1.0000   1.0000
     1.0000   1.0000   1.0000   1.0000   1.0000   1.0000   1.0000   1.0000
     1.0000   1.0000   1.0000   1.0000   1.0000   1.0000   1.0000   1.0000
     1.0000   1.0000   1.0000   1.0000   1.0000   1.0000   1.0000   1.0000
     1.0000   1.0000   1.0000   1.0000   1.0000   1.0000   1.0000   1.0000
     1.0000   1.0000   1.0000   1.0000   1.0000   1.0000   1.0000   1.0000
     1.0000   1.0000   1.0000   1.0000   1.0000   1.0000   1.0000   1.0000
     1.0000   1.0000   1.0000   1.0000   1.0000   1.0000   1.0000   1.0000
     1.0000   1.0000   1.0000   1.0000   1.0000   1.0000   1.0000   1.0000
     1.0000   1.0000   1.0000   1.0000   1.0000   1.0000   1.0000   1.0000
     1.0000   1.0000   1.0000   1.0000   1.0000   1.0000   1.0000   1.0000
     1.0000   1.0000   1.0000   1.0000   1.0000   1.0000   1.0000   1.0000
     1.0000   1.0000   1.0000   1.0000   1.0000   1.0000   1.0000   1.0000
     1.0000   1.0000   1.0000   1.0000   1.0000   1.0000   1.0000   1.0000
     1.0000   1.0000   1.0000   1.0000   1.0000   1.0000   1.0000   1.0000
     1.0000   1.0000   1.0000   1.0000   1.0000   1.0000   1.0000   1.0000
     1.0000   1.0000   1.0000   1.0000   1.0000   1.0000   1.0000   1.0000
     1.0000   1.0000   1.0000   1.0000   1.0000   1.0000   1.0000   1.0000
     1.0000   1.0000   1.0000   1.0000   1.0000   1.0000   1.0000   1.0000
     1.0000   1.0000   1.0000   1.0000   1.0000   1.0000   1.0000   1.0000
     1.0000   1.0000   1.0000   1.0000   1.0000   1.0000   1.0000   1.0000
     1.0000   1.0000   1.0000   1.0000   1.0000   1.0000   1.0000   1.0000
     1.0000   1.0000   1.0000   1.0000   1.0000   1.0000   1.0000   1.0000
     1.0000   1.0000   1.0000   1.0000   1.0000   1.0000   1.0000   1.0000
     1.0000   1.0000   1.0000   1.0000   1.0000   1.0000   1.0000   1.0000
     1.0000   1.0000   1.0000   1.0000   1.0000   1.0000   1.0000   1.0000
     1.0000   1.0000   1.0000   1.0000   1.0000   1.0000   1.0000   1.0000
     1.0000   1.0000   1.0000   1.0000   1.0000   1.0000   1.0000   1.0000
     1.0000   1.0000   1.0000   1.0000   1.0000   1.0000   1.0000   1.0000
     1.0000   1.0000   1.0000   1.0000   1.0000   1.0000   1.0000   1.0000
     1.0000   1.0000   1.0000   1.0000   1.0000   1.0000   1.0000   1.0000
     1.0000   1.0000   1.0000   1.0000   1.0000   1.0000   1.0000   1.0000
     1.0000   1.0000   1.0000   1.0000   1.0000   1.0000   1.0000   1.0000
     1.0000   1.0000   1.0000   1.0000   1.0000   1.0000   1.0000   1.0000
     1.0000   1.0000   1.0000   1.0000   1.0000   1.0000   1.0000   1.0000
     1.0000   1.0000   1.0000   1.0000   1.0000   1.0000   1.0000   1.0000
     1.0000   1.0000   1.0000   1.0000   1.0000   1.0000   1.0000   1.0000
     1.0000   1.0000   1.0000   1.0000   1.0000   1.0000   1.0000   1.0000
     1.0000   1.0000   1.0000   1.0000   1.0000   1.0000   1.0000   1.0000
     1.0000   1.0000   1.0000   1.0000   1.0000   1.0000   1.0000   1.0000
     1.0000   1.0000   1.0000   1.0000   1.0000   1.0000   1.0000   1.0000
     1.0000   1.0000   1.0000   1.0000   1.0000   1.0000   1.0000   1.0000
     1.0000   1.0000   1.0000   1.0000   1.0000   1.0000   1.0000   1.0000
     1.0000   1.0000   1.0000   1.0000   1.0000   1.0000   1.0000   1.0000
     1.0000   1.0000   1.0000   1.0000   1.0000   1.0000   1.0000   1.0000
     1.0000   1.0000   1.0000   1.0000   1.0000   1.0000   1.0000   1.0000
     1.0000   1.0000   1.0000   1.0000   1.0000   1.0000   1.0000   1.0000
     1.0000   1.0000   1.0000   1.0000   1.0000   1.0000   1.0000   1.0000
     1.0000   1.0000   1.0000   1.0000   1.0000   1.0000   1.0000   1.0000
     1.0000   1.0000   1.0000   1.0000   1.0000   1.0000   1.0000   1.0000
     1.0000   1.0000   1.0000   1.0000   1.0000   1.0000   1.0000   1.0000
     1.0000   1.0000   1.0000   1.0000   1.0000   1.0000   1.0000   1.0000
     1.0000   1.0000   1.0000   1.0000   1.0000   1.0000   1.0000   1.0000
     1.0000   1.0000   1.0000   1.0000   1.0000   1.0000   1.0000   1.0000
     1.0000   1.0000   1.0000   1.0000   1.0000   1.0000   1.0000   1.0000
     1.0000   1.0000   1.0000   1.0000   1.0000   1.0000   1.0000   1.0000
     1.0000   1.0000   1.0000   1.0000   1.0000   1.0000   1.0000   1.0000
     1.0000   1.0000   1.0000   1.0000   1.0000   1.0000   1.0000   1.0000
     1.0000   1.0000   1.0000   1.0000   1.0000   1.0000   1.0000   1.0000
     1.0000   1.0000   1.0000   1.0000   1.0000   1.0000   1.0000   1.0000
     1.0000   1.0000   1.0000   1.0000   1.0000   1.0000   1.0000   1.0000
     1.0000   1.0000   1.0000   1.0000   1.0000   1.0000   1.0000   1.0000
     1.0000   1.0000   1.0000   1.0000   1.0000   1.0000   1.0000   1.0000
     1.0000   1.0000   1.0000   1.0000   1.0000   1.0000   1.0000   1.0000
     1.0000   1.0000   1.0000   1.0000   1.0000   1.0000   1.0000   1.0000
     1.0000   1.0000   1.0000   1.0000   1.0000   1.0000   1.0000   1.0000
     1.0000   1.0000   1.0000   1.0000   1.0000   1.0000   1.0000   1.0000
     1.0000   1.0000   1.0000   1.0000   1.0000   1.0000   1.0000   1.0000
     1.0000   1.0000   1.0000   1.0000   1.0000   1.0000   1.0000   1.0000
     1.0000   1.0000   1.0000   1.0000   1.0000   1.0000   1.0000   1.0000
     1.0000   1.0000   1.0000   1.0000   1.0000   1.0000   1.0000   1.0000
     1.0000   1.0000   1.0000   1.0000   1.0000   1.0000   1.0000   1.0000
     1.0000   1.0000   1.0000   1.0000   1.0000   1.0000   1.0000   1.0000
     1.0000   1.0000   1.0000   1.0000   1.0000   1.0000   1.0000   1.0000
     1.0000   1.0000   1.0000   1.0000   1.0000   1.0000   1.0000   1.0000
     1.0000   1.0000   1.0000   1.0000   1.0000   1.0000   1.0000   1.0000
     1.0000   1.0000   1.0000   1.0000   1.0000   1.0000   1.0000   1.0000
     1.0000   1.0000   1.0000   1.0000   1.0000   1.0000   1.0000   1.0000
     1.0000   1.0000   1.0000   1.0000   1.0000   1.0000   1.0000   1.0000
     1.0000   1.0000   1.0000   1.0000   1.0000   1.0000   1.0000   1.0000
     1.0000   1.0000   1.0000   1.0000   1.0000   1.0000   1.0000   1.0000
     1.0000   1.0000   1.0000   1.0000   1.0000   1.0000   1.0000   1.0000
     1.0000   1.0000   1.0000   1.0000   1.0000   1.0000   1.0000   1.0000
     1.0000   1.0000   1.0000   1.0000   1.0000   1.0000   1.0000   1.0000
     1.0000   1.0000   1.0000   1.0000   1.0000   1.0000   1.0000   1.0000
     1.0000   1.0000   1.0000   1.0000   1.0000   1.0000   1.0000   1.0000
     1.0000   1.0000   1.0000   1.0000   1.0000   1.0000   1.0000   1.0000
     1.0000   1.0000   1.0000   1.0000   1.0000   1.0000   1.0000   1.0000
     1.0000   1.0000   1.0000   1.0000   1.0000   1.0000   1.0000   1.0000
     1.0000   1.0000   1.0000   1.0000   1.0000   1.0000   1.0000   1.0000
     1.0000   1.0000   1.0000   1.0000   1.0000   1.0000   1.0000   1.0000
     1.0000   1.0000   1.0000   1.0000   1.0000   1.0000   1.0000   1.0000
     1.0000   1.0000   1.0000   1.0000   1.0000   1.0000   1.0000   1.0000
     1.0000   1.0000   1.0000   1.0000   1.0000   1.0000   1.0000   1.0000
     1.0000   1.0000   1.0000   1.0000   1.0000   1.0000   1.0000   1.0000
     1.0000   1.0000   1.0000   1.0000   1.0000   1.0000   1.0000   1.0000
     1.0000   1.0000   1.0000   1.0000   1.0000   1.0000   1.0000   1.0000
     1.0000   1.0000   1.0000   1.0000   1.0000   1.0000   1.0000   1.0000
     1.0000   1.0000   1.0000   1.0000   1.0000   1.0000   1.0000   1.0000
     1.0000   1.0000   1.0000   1.0000   1.0000   1.0000   1.0000   1.0000
     1.0000   1.0000   1.0000   1.0000   1.0000   1.0000   1.0000   1.0000

     highest occupied level (ev):     1.2427

!    total energy              =  -14225.28747707 Ry
     estimated scf accuracy    <          8.8E-09 Ry

     The total energy is the sum of the following terms:
     one-electron contribution =  -15719.90484310 Ry
     hartree contribution      =    8487.40728740 Ry
     xc contribution           =   -2486.47762164 Ry
     ewald contribution        =   -3375.11309191 Ry
     one-center paw contrib.   =   -1131.19920783 Ry
      -> PAW hartree energy AE =       0.00000000 Ry
      -> PAW hartree energy PS =       0.00000000 Ry
      -> PAW xc energy AE      =       0.00000000 Ry
      -> PAW xc energy PS      =       0.00000000 Ry
      -> total E_H with PAW    =    8487.40728740 Ry
      -> total E_XC with PAW   =   -2486.47762164 Ry

     convergence has been achieved in  19 iterations

     Forces acting on atoms (cartesian axes, Ry/au):

     atom    1 type  1   force =    -0.00000407   -0.00022610   -0.00013609
     atom    2 type  1   force =    -0.00000533   -0.00023573   -0.00013429
     atom    3 type  1   force =    -0.00000449   -0.00023600   -0.00013313
     atom    4 type  1   force =    -0.00000408   -0.00023641   -0.00013428
     atom    5 type  1   force =    -0.00000563   -0.00023607   -0.00013422
     atom    6 type  1   force =    -0.00000453   -0.00023654   -0.00013444
     atom    7 type  1   force =    -0.00000468   -0.00023631   -0.00013447
     atom    8 type  1   force =    -0.00000511   -0.00023575   -0.00013409
     atom    9 type  1   force =    -0.00019968   -0.00013133   -0.00017431
     atom   10 type  1   force =    -0.00022572   -0.00013302   -0.00016897
     atom   11 type  1   force =    -0.00019942   -0.00013172   -0.00017453
     atom   12 type  1   force =    -0.00019924   -0.00013182   -0.00017362
     atom   13 type  1   force =    -0.00019985   -0.00013224   -0.00017474
     atom   14 type  1   force =    -0.00019973   -0.00013113   -0.00017414
     atom   15 type  1   force =    -0.00019913   -0.00013100   -0.00017418
     atom   16 type  1   force =    -0.00019902   -0.00013198   -0.00017457
     atom   17 type  2   force =    -0.00001660    0.00000160    0.00001168
     atom   18 type  2   force =     0.00055861    0.00053944    0.00009430
     atom   19 type  2   force =    -0.00001668    0.00000115    0.00001158
     atom   20 type  2   force =    -0.00001670    0.00000154    0.00001161
     atom   21 type  2   force =    -0.00001646    0.00000107    0.00001158
     atom   22 type  2   force =    -0.00001696    0.00000128    0.00001165
     atom   23 type  2   force =    -0.00001660    0.00000160    0.00001165
     atom   24 type  2   force =    -0.00001613    0.00000146    0.00001150
     atom   25 type  2   force =     0.00019900   -0.00004533    0.00002719
     atom   26 type  2   force =     0.00022556   -0.00003897   -0.00003054
     atom   27 type  2   force =     0.00019840   -0.00004596    0.00002673
     atom   28 type  2   force =     0.00019682   -0.00004556    0.00002650
     atom   29 type  2   force =     0.00019892   -0.00004565    0.00002708
     atom   30 type  2   force =     0.00019921   -0.00004527    0.00002730
     atom   31 type  2   force =     0.00019800   -0.00004547    0.00002693
     atom   32 type  2   force =     0.00019747   -0.00004605    0.00002652
     atom   33 type  2   force =    -0.00008394    0.00015396    0.00008202
     atom   34 type  2   force =    -0.00008307    0.00015361    0.00008237
     atom   35 type  2   force =    -0.00008360    0.00015387    0.00008239
     atom   36 type  2   force =    -0.00008399    0.00015391    0.00008219
     atom   37 type  2   force =    -0.00008344    0.00015395    0.00008234
     atom   38 type  2   force =    -0.00018064    0.00031231    0.00021188
     atom   39 type  2   force =    -0.00008376    0.00015375    0.00008217
     atom   40 type  2   force =    -0.00008342    0.00015357    0.00008233
     atom   41 type  3   force =     0.00002347    0.00004678   -0.00005404
     atom   42 type  3   force =     0.00002330    0.00004661   -0.00005437
     atom   43 type  3   force =     0.00002324    0.00004675   -0.00005460
     atom   44 type  3   force =     0.00002339    0.00004654   -0.00005440
     atom   45 type  3   force =     0.00002335    0.00004666   -0.00005445
     atom   46 type  3   force =     0.00005728    0.00007233   -0.00005617
     atom   47 type  3   force =     0.00002325    0.00004652   -0.00005437
     atom   48 type  3   force =     0.00002317    0.00004663   -0.00005445
     atom   49 type  2   force =     0.00014274   -0.00000615   -0.00000096
     atom   50 type  2   force =     0.00014316   -0.00000634   -0.00000083
     atom   51 type  2   force =     0.00014265   -0.00000623   -0.00000094
     atom   52 type  2   force =     0.00014169   -0.00000602   -0.00000098
     atom   53 type  2   force =     0.00014276   -0.00000618   -0.00000086
     atom   54 type  2   force =    -0.00000113   -0.00000689    0.00026913
     atom   55 type  2   force =     0.00014301   -0.00000639   -0.00000094
     atom   56 type  2   force =     0.00014284   -0.00000591   -0.00000105
     atom   57 type  3   force =     0.00003562   -0.00007009   -0.00004828
     atom   58 type  3   force =     0.00003577   -0.00006997   -0.00004865
     atom   59 type  3   force =     0.00003592   -0.00007024   -0.00004837
     atom   60 type  3   force =     0.00003530   -0.00007037   -0.00004814
     atom   61 type  3   force =     0.00003591   -0.00007029   -0.00004834
     atom   62 type  3   force =     0.00002423   -0.00009192   -0.00003126
     atom   63 type  3   force =     0.00003565   -0.00007006   -0.00004829
     atom   64 type  3   force =     0.00003586   -0.00007002   -0.00004828
     atom   65 type  1   force =     0.00005106    0.00020314    0.00017695
     atom   66 type  1   force =     0.00005646    0.00018738    0.00017722
     atom   67 type  1   force =     0.00005186    0.00020134    0.00017564
     atom   68 type  1   force =     0.00005251    0.00020362    0.00017697
     atom   69 type  1   force =     0.00005128    0.00020137    0.00017535
     atom   70 type  1   force =     0.00005104    0.00020279    0.00017636
     atom   71 type  1   force =     0.00005182    0.00020283    0.00017689
     atom   72 type  1   force =     0.00005111    0.00020187    0.00017586
     atom   73 type  1   force =    -0.00015803    0.00025059    0.00011221
     atom   74 type  1   force =    -0.00014912    0.00023749    0.00010124
     atom   75 type  1   force =    -0.00015769    0.00025000    0.00011202
     atom   76 type  1   force =    -0.00015779    0.00024965    0.00011220
     atom   77 type  1   force =    -0.00015728    0.00025016    0.00011181
     atom   78 type  1   force =    -0.00015821    0.00025102    0.00011224
     atom   79 type  1   force =    -0.00015808    0.00025077    0.00011244
     atom   80 type  1   force =    -0.00015700    0.00025041    0.00011226
     atom   81 type  2   force =    -0.00009733   -0.00007752   -0.00003174
     atom   82 type  2   force =     0.00021876    0.00283459   -0.00138830
     atom   83 type  2   force =    -0.00009760   -0.00007732   -0.00003168
     atom   84 type  2   force =    -0.00009737   -0.00007704   -0.00003156
     atom   85 type  2   force =    -0.00009766   -0.00007725   -0.00003177
     atom   86 type  2   force =    -0.00009727   -0.00007727   -0.00003186
     atom   87 type  2   force =    -0.00009738   -0.00007769   -0.00003163
     atom   88 type  2   force =    -0.00009773   -0.00007778   -0.00003159
     atom   89 type  3   force =     0.00003053   -0.00288845    0.00105522
     atom   90 type  3   force =    -0.00000409   -0.00002014    0.00001404
     atom   91 type  3   force =    -0.00000422   -0.00001999    0.00001374
     atom   92 type  3   force =    -0.00000401   -0.00001992    0.00001392
     atom   93 type  3   force =    -0.00000417   -0.00002006    0.00001399
     atom   94 type  3   force =    -0.00000402   -0.00002000    0.00001399
     atom   95 type  3   force =    -0.00000393   -0.00002005    0.00001389
     atom   96 type  3   force =    -0.00000406   -0.00002014    0.00001391
     atom   97 type  1   force =    -0.00051656   -0.00092286    0.00003906
     atom   98 type  1   force =     0.00013351   -0.00020457    0.00002191
     atom   99 type  1   force =     0.00013410   -0.00020498    0.00002236
     atom  100 type  1   force =     0.00013385   -0.00020464    0.00002199
     atom  101 type  1   force =     0.00013331   -0.00020475    0.00002227
     atom  102 type  1   force =     0.00013372   -0.00020493    0.00002190
     atom  103 type  1   force =     0.00013461   -0.00020442    0.00002179
     atom  104 type  1   force =     0.00013395   -0.00020451    0.00002202
     atom  105 type  2   force =    -0.00006338   -0.00004074    0.00007323
     atom  106 type  2   force =    -0.00006828   -0.00004056    0.00007340
     atom  107 type  2   force =    -0.00006833   -0.00004115    0.00007343
     atom  108 type  2   force =    -0.00006804   -0.00004103    0.00007315
     atom  109 type  2   force =    -0.00006822   -0.00004088    0.00007326
     atom  110 type  2   force =    -0.00006787   -0.00004111    0.00007340
     atom  111 type  2   force =    -0.00006734   -0.00004019    0.00007317
     atom  112 type  2   force =    -0.00006811   -0.00004104    0.00007315
     atom  113 type  3   force =    -0.00006651   -0.00002208   -0.00002915
     atom  114 type  3   force =    -0.00006645   -0.00002265   -0.00002968
     atom  115 type  3   force =    -0.00006647   -0.00002228   -0.00002950
     atom  116 type  3   force =    -0.00006658   -0.00002192   -0.00002932
     atom  117 type  3   force =    -0.00006656   -0.00002232   -0.00002934
     atom  118 type  3   force =    -0.00006368   -0.00003066   -0.00007513
     atom  119 type  3   force =    -0.00006631   -0.00002227   -0.00002932
     atom  120 type  3   force =    -0.00006647   -0.00002241   -0.00002931
     atom  121 type  1   force =     0.00002422    0.00024629   -0.00012476
     atom  122 type  1   force =     0.00000534    0.00023632   -0.00013457
     atom  123 type  1   force =     0.00000585    0.00023533   -0.00013372
     atom  124 type  1   force =     0.00000452    0.00023597   -0.00013406
     atom  125 type  1   force =     0.00000507    0.00023570   -0.00013397
     atom  126 type  1   force =     0.00000229    0.00023647   -0.00013453
     atom  127 type  1   force =     0.00000485    0.00023658   -0.00013464
     atom  128 type  1   force =     0.00000534    0.00023632   -0.00013436
     atom  129 type  1   force =     0.00022337    0.00011118   -0.00018266
     atom  130 type  1   force =     0.00019973    0.00013113   -0.00017448
     atom  131 type  1   force =     0.00019907    0.00013149   -0.00017414
     atom  132 type  1   force =     0.00019941    0.00013180   -0.00017444
     atom  133 type  1   force =     0.00019908    0.00013103   -0.00017424
     atom  134 type  1   force =     0.00019869    0.00013040   -0.00017320
     atom  135 type  1   force =     0.00020037    0.00013187   -0.00017433
     atom  136 type  1   force =     0.00019971    0.00013146   -0.00017435
     atom  137 type  2   force =     0.00001988    0.00000028    0.00001253
     atom  138 type  2   force =     0.00001662   -0.00000152    0.00001168
     atom  139 type  2   force =     0.00001636   -0.00000166    0.00001160
     atom  140 type  2   force =     0.00001679   -0.00000130    0.00001155
     atom  141 type  2   force =     0.00001673   -0.00000172    0.00001165
     atom  142 type  2   force =     0.00001705   -0.00000158    0.00001139
     atom  143 type  2   force =     0.00001760   -0.00000035    0.00001171
     atom  144 type  2   force =     0.00001623   -0.00000135    0.00001174
     atom  145 type  2   force =    -0.00021453    0.00003187    0.00005030
     atom  146 type  2   force =    -0.00019858    0.00004498    0.00002741
     atom  147 type  2   force =    -0.00019877    0.00004596    0.00002666
     atom  148 type  2   force =    -0.00019890    0.00004612    0.00002670
     atom  149 type  2   force =    -0.00019796    0.00004566    0.00002678
     atom  150 type  2   force =    -0.00019882    0.00004724    0.00002593
     atom  151 type  2   force =    -0.00020090    0.00004611    0.00002699
     atom  152 type  2   force =    -0.00019860    0.00004494    0.00002725
     atom  153 type  2   force =     0.00008348   -0.00015380    0.00008238
     atom  154 type  2   force =     0.00008347   -0.00015304    0.00008240
     atom  155 type  2   force =     0.00008266   -0.00015490    0.00008213
     atom  156 type  2   force =     0.00008372   -0.00015427    0.00008244
     atom  157 type  2   force =     0.00008254   -0.00015391    0.00008222
     atom  158 type  2   force =     0.00008343   -0.00015381    0.00008229
     atom  159 type  2   force =     0.00008347   -0.00015375    0.00008241
     atom  160 type  2   force =     0.00008374   -0.00015363    0.00008225
     atom  161 type  3   force =    -0.00002324   -0.00004676   -0.00005462
     atom  162 type  3   force =    -0.00002356   -0.00004552   -0.00005453
     atom  163 type  3   force =    -0.00002297   -0.00004639   -0.00005444
     atom  164 type  3   force =    -0.00002344   -0.00004665   -0.00005493
     atom  165 type  3   force =    -0.00002304   -0.00004630   -0.00005429
     atom  166 type  3   force =    -0.00002330   -0.00004667   -0.00005437
     atom  167 type  3   force =    -0.00002333   -0.00004663   -0.00005450
     atom  168 type  3   force =    -0.00002327   -0.00004635   -0.00005443
     atom  169 type  2   force =    -0.00015278    0.00000547   -0.00000189
     atom  170 type  2   force =    -0.00014246    0.00000576   -0.00000097
     atom  171 type  2   force =    -0.00014268    0.00000620   -0.00000092
     atom  172 type  2   force =    -0.00014293    0.00000668   -0.00000090
     atom  173 type  2   force =    -0.00014232    0.00000625   -0.00000100
     atom  174 type  2   force =    -0.00014311    0.00000651   -0.00000090
     atom  175 type  2   force =    -0.00014374    0.00000674   -0.00000074
     atom  176 type  2   force =    -0.00014285    0.00000608   -0.00000091
     atom  177 type  3   force =    -0.00003757    0.00007157   -0.00004703
     atom  178 type  3   force =    -0.00003582    0.00007015   -0.00004825
     atom  179 type  3   force =    -0.00003601    0.00007034   -0.00004850
     atom  180 type  3   force =    -0.00003568    0.00007013   -0.00004832
     atom  181 type  3   force =    -0.00003584    0.00007024   -0.00004838
     atom  182 type  3   force =    -0.00003564    0.00007013   -0.00004829
     atom  183 type  3   force =    -0.00003553    0.00007025   -0.00004825
     atom  184 type  3   force =    -0.00003587    0.00007010   -0.00004833
     atom  185 type  1   force =    -0.00007058   -0.00018793    0.00017051
     atom  186 type  1   force =    -0.00005107   -0.00020245    0.00017624
     atom  187 type  1   force =    -0.00005120   -0.00020360    0.00017737
     atom  188 type  1   force =    -0.00005177   -0.00020192    0.00017592
     atom  189 type  1   force =    -0.00005194   -0.00020310    0.00017703
     atom  190 type  1   force =    -0.00005190   -0.00020317    0.00017542
     atom  191 type  1   force =    -0.00005117   -0.00020165    0.00017581
     atom  192 type  1   force =    -0.00005114   -0.00020234    0.00017655
     atom  193 type  1   force =     0.00016428   -0.00022303    0.00008782
     atom  194 type  1   force =     0.00015782   -0.00025090    0.00011229
     atom  195 type  1   force =     0.00015851   -0.00025113    0.00011260
     atom  196 type  1   force =     0.00015785   -0.00025027    0.00011195
     atom  197 type  1   force =     0.00015815   -0.00025070    0.00011228
     atom  198 type  1   force =     0.00015965   -0.00024779    0.00011266
     atom  199 type  1   force =     0.00015823   -0.00025007    0.00011160
     atom  200 type  1   force =     0.00015757   -0.00025068    0.00011236
     atom  201 type  2   force =     0.00009325    0.00007290   -0.00003280
     atom  202 type  2   force =     0.00009736    0.00007732   -0.00003174
     atom  203 type  2   force =     0.00009714    0.00007786   -0.00003171
     atom  204 type  2   force =     0.00009755    0.00007745   -0.00003171
     atom  205 type  2   force =     0.00009728    0.00007775   -0.00003168
     atom  206 type  2   force =     0.00009739    0.00007760   -0.00003164
     atom  207 type  2   force =     0.00009856    0.00007693   -0.00003167
     atom  208 type  2   force =     0.00009733    0.00007734   -0.00003178
     atom  209 type  3   force =     0.00000277    0.00002044    0.00001512
     atom  210 type  3   force =     0.00000416    0.00002011    0.00001396
     atom  211 type  3   force =     0.00000401    0.00002023    0.00001376
     atom  212 type  3   force =     0.00000401    0.00002000    0.00001397
     atom  213 type  3   force =     0.00000409    0.00002018    0.00001395
     atom  214 type  3   force =     0.00000400    0.00001991    0.00001390
     atom  215 type  3   force =     0.00000450    0.00001969    0.00001424
     atom  216 type  3   force =     0.00000409    0.00002010    0.00001398
     atom  217 type  1   force =    -0.00013123    0.00020619    0.00002171
     atom  218 type  1   force =    -0.00013368    0.00020481    0.00002209
     atom  219 type  1   force =    -0.00013398    0.00020429    0.00002246
     atom  220 type  1   force =    -0.00013373    0.00020440    0.00002183
     atom  221 type  1   force =    -0.00013369    0.00020433    0.00002216
     atom  222 type  1   force =    -0.00013400    0.00020421    0.00002190
     atom  223 type  1   force =    -0.00013083    0.00020762    0.00002251
     atom  224 type  1   force =    -0.00013375    0.00020508    0.00002204
     atom  225 type  2   force =     0.00006810    0.00004043    0.00007298
     atom  226 type  2   force =     0.00006797    0.00004148    0.00007340
     atom  227 type  2   force =     0.00006823    0.00004094    0.00007338
     atom  228 type  2   force =     0.00006846    0.00004014    0.00007319
     atom  229 type  2   force =     0.00006800    0.00004121    0.00007322
     atom  230 type  2   force =     0.00004044    0.00002857    0.00004426
     atom  231 type  2   force =     0.00006800    0.00004038    0.00007317
     atom  232 type  2   force =     0.00006844    0.00004071    0.00007316
     atom  233 type  3   force =     0.00006610    0.00002271   -0.00002890
     atom  234 type  3   force =     0.00006673    0.00002230   -0.00002945
     atom  235 type  3   force =     0.00006649    0.00002237   -0.00002953
     atom  236 type  3   force =     0.00006619    0.00002228   -0.00002934
     atom  237 type  3   force =     0.00006651    0.00002234   -0.00002937
     atom  238 type  3   force =     0.00006594    0.00002256   -0.00002968
     atom  239 type  3   force =     0.00006637    0.00002235   -0.00002929
     atom  240 type  3   force =     0.00006654    0.00002239   -0.00002932
     atom  241 type  1   force =    -0.00023946    0.00000434    0.00014147
     atom  242 type  1   force =    -0.00023596    0.00000435    0.00013401
     atom  243 type  1   force =    -0.00023497    0.00000470    0.00013438
     atom  244 type  1   force =    -0.00023625    0.00000528    0.00013447
     atom  245 type  1   force =    -0.00023688    0.00000417    0.00013494
     atom  246 type  1   force =    -0.00023615    0.00000509    0.00013427
     atom  247 type  1   force =    -0.00023596    0.00000524    0.00013413
     atom  248 type  1   force =    -0.00023605    0.00000484    0.00013430
     atom  249 type  1   force =    -0.00012852    0.00020983    0.00017624
     atom  250 type  1   force =    -0.00013101    0.00019888    0.00017427
     atom  251 type  1   force =    -0.00013122    0.00019883    0.00017510
     atom  252 type  1   force =    -0.00013147    0.00019965    0.00017452
     atom  253 type  1   force =    -0.00013189    0.00019944    0.00017447
     atom  254 type  1   force =    -0.00013135    0.00019945    0.00017427
     atom  255 type  1   force =    -0.00013108    0.00019945    0.00017432
     atom  256 type  1   force =    -0.00013167    0.00019945    0.00017463
     atom  257 type  2   force =     0.00000101    0.00001661   -0.00001156
     atom  258 type  2   force =     0.00000102    0.00001710   -0.00001160
     atom  259 type  2   force =     0.00000167    0.00001640   -0.00001148
     atom  260 type  2   force =     0.00000164    0.00001666   -0.00001162
     atom  261 type  2   force =     0.00000121    0.00001632   -0.00001146
     atom  262 type  2   force =     0.00000134    0.00001635   -0.00001168
     atom  263 type  2   force =     0.00000173    0.00001687   -0.00001161
     atom  264 type  2   force =     0.00000134    0.00001712   -0.00001121
     atom  265 type  2   force =    -0.00003815   -0.00020839   -0.00003021
     atom  266 type  2   force =    -0.00004652   -0.00019808   -0.00002605
     atom  267 type  2   force =    -0.00004610   -0.00019770   -0.00002664
     atom  268 type  2   force =    -0.00004489   -0.00019819   -0.00002736
     atom  269 type  2   force =    -0.00004536   -0.00019796   -0.00002682
     atom  270 type  2   force =    -0.00004513   -0.00019806   -0.00002719
     atom  271 type  2   force =    -0.00004535   -0.00019876   -0.00002715
     atom  272 type  2   force =    -0.00004588   -0.00019900   -0.00002661
     atom  273 type  2   force =     0.00015478    0.00008305   -0.00008252
     atom  274 type  2   force =     0.00015387    0.00008388   -0.00008258
     atom  275 type  2   force =     0.00015371    0.00008387   -0.00008210
     atom  276 type  2   force =     0.00015376    0.00008342   -0.00008218
     atom  277 type  2   force =     0.00015392    0.00008384   -0.00008207
     atom  278 type  2   force =     0.00015373    0.00008332   -0.00008232
     atom  279 type  2   force =     0.00015360    0.00008334   -0.00008230
     atom  280 type  2   force =     0.00015403    0.00008345   -0.00008217
     atom  281 type  3   force =     0.00004660   -0.00002335    0.00005488
     atom  282 type  3   force =     0.00004709   -0.00002342    0.00005514
     atom  283 type  3   force =     0.00004640   -0.00002332    0.00005437
     atom  284 type  3   force =     0.00004666   -0.00002319    0.00005434
     atom  285 type  3   force =     0.00004672   -0.00002323    0.00005436
     atom  286 type  3   force =     0.00004665   -0.00002331    0.00005446
     atom  287 type  3   force =     0.00004642   -0.00002336    0.00005445
     atom  288 type  3   force =     0.00004643   -0.00002327    0.00005443
     atom  289 type  2   force =    -0.00000649   -0.00014241    0.00000078
     atom  290 type  2   force =    -0.00000699   -0.00014282    0.00000094
     atom  291 type  2   force =    -0.00000628   -0.00014277    0.00000098
     atom  292 type  2   force =    -0.00000597   -0.00014267    0.00000091
     atom  293 type  2   force =    -0.00000608   -0.00014281    0.00000103
     atom  294 type  2   force =    -0.00000593   -0.00014197    0.00000095
     atom  295 type  2   force =    -0.00000627   -0.00014272    0.00000092
     atom  296 type  2   force =    -0.00000642   -0.00014395    0.00000121
     atom  297 type  3   force =    -0.00007035   -0.00003594    0.00004851
     atom  298 type  3   force =    -0.00007015   -0.00003576    0.00004847
     atom  299 type  3   force =    -0.00007013   -0.00003569    0.00004831
     atom  300 type  3   force =    -0.00007016   -0.00003598    0.00004829
     atom  301 type  3   force =    -0.00007014   -0.00003563    0.00004833
     atom  302 type  3   force =    -0.00006983   -0.00003548    0.00004836
     atom  303 type  3   force =    -0.00007019   -0.00003592    0.00004835
     atom  304 type  3   force =    -0.00007141   -0.00003599    0.00004818
     atom  305 type  1   force =     0.00019547   -0.00005141   -0.00017387
     atom  306 type  1   force =     0.00020150   -0.00005265   -0.00017662
     atom  307 type  1   force =     0.00020256   -0.00005208   -0.00017647
     atom  308 type  1   force =     0.00020294   -0.00005117   -0.00017619
     atom  309 type  1   force =     0.00020095   -0.00005111   -0.00017576
     atom  310 type  1   force =     0.00020300   -0.00005154   -0.00017655
     atom  311 type  1   force =     0.00020341   -0.00005166   -0.00017626
     atom  312 type  1   force =     0.00020205   -0.00005145   -0.00017603
     atom  313 type  1   force =     0.00024713    0.00015731   -0.00011030
     atom  314 type  1   force =     0.00025031    0.00015839   -0.00011225
     atom  315 type  1   force =     0.00025043    0.00015776   -0.00011186
     atom  316 type  1   force =     0.00025080    0.00015747   -0.00011212
     atom  317 type  1   force =     0.00024948    0.00015738   -0.00011267
     atom  318 type  1   force =     0.00025078    0.00015771   -0.00011232
     atom  319 type  1   force =     0.00025116    0.00015806   -0.00011191
     atom  320 type  1   force =     0.00025035    0.00015782   -0.00011186
     atom  321 type  2   force =    -0.00007685    0.00009650    0.00003259
     atom  322 type  2   force =    -0.00007790    0.00009743    0.00003171
     atom  323 type  2   force =    -0.00007780    0.00009806    0.00003157
     atom  324 type  2   force =    -0.00007730    0.00009749    0.00003173
     atom  325 type  2   force =    -0.00007727    0.00009760    0.00003171
     atom  326 type  2   force =    -0.00007748    0.00009766    0.00003178
     atom  327 type  2   force =    -0.00007747    0.00009721    0.00003180
     atom  328 type  2   force =    -0.00007699    0.00009695    0.00003204
     atom  329 type  3   force =    -0.00002069    0.00000409   -0.00001458
     atom  330 type  3   force =    -0.00002006    0.00000402   -0.00001382
     atom  331 type  3   force =    -0.00002009    0.00000404   -0.00001376
     atom  332 type  3   force =    -0.00002014    0.00000413   -0.00001400
     atom  333 type  3   force =    -0.00001999    0.00000401   -0.00001390
     atom  334 type  3   force =    -0.00002007    0.00000405   -0.00001394
     atom  335 type  3   force =    -0.00002013    0.00000415   -0.00001393
     atom  336 type  3   force =    -0.00002028    0.00000421   -0.00001381
     atom  337 type  1   force =    -0.00020474   -0.00013217   -0.00002223
     atom  338 type  1   force =    -0.00020472   -0.00013382   -0.00002213
     atom  339 type  1   force =    -0.00020433   -0.00013443   -0.00002179
     atom  340 type  1   force =    -0.00020448   -0.00013360   -0.00002177
     atom  341 type  1   force =    -0.00020480   -0.00013413   -0.00002184
     atom  342 type  1   force =    -0.00020476   -0.00013436   -0.00002178
     atom  343 type  1   force =    -0.00020444   -0.00013349   -0.00002205
     atom  344 type  1   force =    -0.00020362   -0.00013262   -0.00002398
     atom  345 type  2   force =    -0.00004114    0.00006815   -0.00007329
     atom  346 type  2   force =    -0.00003441    0.00006226   -0.00006701
     atom  347 type  2   force =    -0.00004057    0.00006818   -0.00007304
     atom  348 type  2   force =    -0.00004150    0.00006767   -0.00007294
     atom  349 type  2   force =    -0.00004091    0.00006778   -0.00007309
     atom  350 type  2   force =    -0.00004153    0.00006834   -0.00007311
     atom  351 type  2   force =    -0.00004099    0.00006829   -0.00007309
     atom  352 type  2   force =    -0.00004039    0.00006833   -0.00007308
     atom  353 type  3   force =    -0.00002245    0.00006679    0.00002951
     atom  354 type  3   force =    -0.00002163    0.00006630    0.00002976
     atom  355 type  3   force =    -0.00002215    0.00006631    0.00002934
     atom  356 type  3   force =    -0.00002244    0.00006656    0.00002928
     atom  357 type  3   force =    -0.00002215    0.00006644    0.00002937
     atom  358 type  3   force =    -0.00002236    0.00006663    0.00002959
     atom  359 type  3   force =    -0.00002240    0.00006649    0.00002933
     atom  360 type  3   force =    -0.00002230    0.00006634    0.00002933
     atom  361 type  1   force =     0.00023803   -0.00000351    0.00013657
     atom  362 type  1   force =     0.00023640   -0.00000457    0.00013432
     atom  363 type  1   force =     0.00023656   -0.00000600    0.00013549
     atom  364 type  1   force =     0.00023622   -0.00000501    0.00013442
     atom  365 type  1   force =     0.00023610   -0.00000494    0.00013437
     atom  366 type  1   force =     0.00023648   -0.00000518    0.00013449
     atom  367 type  1   force =     0.00023583   -0.00000480    0.00013394
     atom  368 type  1   force =     0.00023523   -0.00000453    0.00013341
     atom  369 type  1   force =     0.00013136   -0.00020205    0.00017374
     atom  370 type  1   force =     0.00013123   -0.00019947    0.00017438
     atom  371 type  1   force =     0.00013092   -0.00020314    0.00017488
     atom  372 type  1   force =     0.00013202   -0.00019964    0.00017461
     atom  373 type  1   force =     0.00013102   -0.00019945    0.00017390
     atom  374 type  1   force =     0.00013087   -0.00020022    0.00017416
     atom  375 type  1   force =     0.00013165   -0.00019936    0.00017461
     atom  376 type  1   force =     0.00013157   -0.00019933    0.00017458
     atom  377 type  2   force =     0.00000362   -0.00001802   -0.00001269
     atom  378 type  2   force =    -0.00000147   -0.00001668   -0.00001163
     atom  379 type  2   force =    -0.00000105   -0.00001727   -0.00001172
     atom  380 type  2   force =    -0.00000116   -0.00001663   -0.00001153
     atom  381 type  2   force =    -0.00000167   -0.00001705   -0.00001165
     atom  382 type  2   force =    -0.00000135   -0.00001677   -0.00001159
     atom  383 type  2   force =    -0.00000119   -0.00001639   -0.00001155
     atom  384 type  2   force =    -0.00000161   -0.00001646   -0.00001160
     atom  385 type  2   force =     0.00004742    0.00020739   -0.00002729
     atom  386 type  2   force =     0.00004524    0.00019828   -0.00002710
     atom  387 type  2   force =     0.00004277    0.00020067   -0.00002892
     atom  388 type  2   force =     0.00004586    0.00019867   -0.00002676
     atom  389 type  2   force =     0.00004542    0.00019830   -0.00002706
     atom  390 type  2   force =     0.00004549    0.00019955   -0.00002738
     atom  391 type  2   force =     0.00004555    0.00019833   -0.00002698
     atom  392 type  2   force =     0.00004501    0.00019774   -0.00002718
     atom  393 type  2   force =    -0.00015335   -0.00006993   -0.00008186
     atom  394 type  2   force =    -0.00015383   -0.00008349   -0.00008231
     atom  395 type  2   force =    -0.00015450   -0.00008300   -0.00008208
     atom  396 type  2   force =    -0.00015380   -0.00008354   -0.00008212
     atom  397 type  2   force =    -0.00015336   -0.00008322   -0.00008229
     atom  398 type  2   force =    -0.00015359   -0.00008359   -0.00008220
     atom  399 type  2   force =    -0.00015383   -0.00008371   -0.00008211
     atom  400 type  2   force =    -0.00015384   -0.00008356   -0.00008223
     atom  401 type  3   force =    -0.00004588    0.00002329    0.00005444
     atom  402 type  3   force =    -0.00004670    0.00002325    0.00005453
     atom  403 type  3   force =    -0.00004687    0.00002326    0.00005429
     atom  404 type  3   force =    -0.00004658    0.00002334    0.00005440
     atom  405 type  3   force =    -0.00004650    0.00002337    0.00005429
     atom  406 type  3   force =    -0.00004634    0.00002339    0.00005447
     atom  407 type  3   force =    -0.00004665    0.00002334    0.00005439
     atom  408 type  3   force =    -0.00004669    0.00002328    0.00005440
     atom  409 type  2   force =     0.00000616    0.00014267    0.00000090
     atom  410 type  2   force =    -0.00000334    0.00013592    0.00000071
     atom  411 type  2   force =     0.00000636    0.00014293    0.00000097
     atom  412 type  2   force =     0.00000642    0.00014351    0.00000054
     atom  413 type  2   force =     0.00000644    0.00014332    0.00000095
     atom  414 type  2   force =     0.00000638    0.00014277    0.00000081
     atom  415 type  2   force =     0.00000585    0.00014228    0.00000100
     atom  416 type  2   force =     0.00000612    0.00014269    0.00000105
     atom  417 type  3   force =     0.00007014    0.00003594    0.00004845
     atom  418 type  3   force =     0.00006803    0.00003378    0.00004936
     atom  419 type  3   force =     0.00007021    0.00003569    0.00004831
     atom  420 type  3   force =     0.00007045    0.00003601    0.00004829
     atom  421 type  3   force =     0.00007005    0.00003583    0.00004835
     atom  422 type  3   force =     0.00007019    0.00003595    0.00004832
     atom  423 type  3   force =     0.00007013    0.00003581    0.00004832
     atom  424 type  3   force =     0.00007002    0.00003565    0.00004838
     atom  425 type  1   force =    -0.00020270    0.00005065   -0.00017676
     atom  426 type  1   force =    -0.00020288    0.00005158   -0.00017647
     atom  427 type  1   force =    -0.00020025    0.00005229   -0.00017479
     atom  428 type  1   force =    -0.00020176    0.00005136   -0.00017577
     atom  429 type  1   force =    -0.00020391    0.00005192   -0.00017655
     atom  430 type  1   force =    -0.00020267    0.00005126   -0.00017609
     atom  431 type  1   force =    -0.00020149    0.00005125   -0.00017573
     atom  432 type  1   force =    -0.00020279    0.00005122   -0.00017614
     atom  433 type  1   force =    -0.00025023   -0.00016039   -0.00011079
     atom  434 type  1   force =    -0.00025079   -0.00015780   -0.00011214
     atom  435 type  1   force =    -0.00024744   -0.00015656   -0.00011054
     atom  436 type  1   force =    -0.00025003   -0.00015761   -0.00011195
     atom  437 type  1   force =    -0.00025051   -0.00015809   -0.00011204
     atom  438 type  1   force =    -0.00025071   -0.00015790   -0.00011172
     atom  439 type  1   force =    -0.00025059   -0.00015758   -0.00011223
     atom  440 type  1   force =    -0.00025096   -0.00015730   -0.00011225
     atom  441 type  2   force =     0.00007418   -0.00009870    0.00003188
     atom  442 type  2   force =     0.00007753   -0.00009741    0.00003177
     atom  443 type  2   force =     0.00007640   -0.00009672    0.00003205
     atom  444 type  2   force =     0.00007738   -0.00009724    0.00003179
     atom  445 type  2   force =     0.00007756   -0.00009715    0.00003168
     atom  446 type  2   force =     0.00007723   -0.00009750    0.00003175
     atom  447 type  2   force =     0.00007745   -0.00009768    0.00003171
     atom  448 type  2   force =     0.00007739   -0.00009761    0.00003172
     atom  449 type  3   force =     0.00002051   -0.00000421   -0.00001480
     atom  450 type  3   force =     0.00002000   -0.00000404   -0.00001393
     atom  451 type  3   force =     0.00001983   -0.00000458   -0.00001441
     atom  452 type  3   force =     0.00002011   -0.00000409   -0.00001397
     atom  453 type  3   force =     0.00002006   -0.00000402   -0.00001379
     atom  454 type  3   force =     0.00002013   -0.00000410   -0.00001391
     atom  455 type  3   force =     0.00002008   -0.00000412   -0.00001399
     atom  456 type  3   force =     0.00001992   -0.00000403   -0.00001391
     atom  457 type  1   force =     0.00020505    0.00013268   -0.00002118
     atom  458 type  1   force =     0.00020461    0.00013368   -0.00002191
     atom  459 type  1   force =     0.00020263    0.00013696   -0.00002111
     atom  460 type  1   force =     0.00020467    0.00013371   -0.00002195
     atom  461 type  1   force =     0.00020483    0.00013406   -0.00002214
     atom  462 type  1   force =     0.00020450    0.00013377   -0.00002197
     atom  463 type  1   force =     0.00020447    0.00013348   -0.00002177
     atom  464 type  1   force =     0.00020465    0.00013353   -0.00002184
     atom  465 type  2   force =     0.00004146   -0.00006707   -0.00007344
     atom  466 type  2   force =     0.00004163   -0.00006928   -0.00007367
     atom  467 type  2   force =     0.00004059   -0.00006807   -0.00007306
     atom  468 type  2   force =     0.00004103   -0.00006800   -0.00007305
     atom  469 type  2   force =     0.00004023   -0.00006817   -0.00007311
     atom  470 type  2   force =     0.00004079   -0.00006838   -0.00007336
     atom  471 type  2   force =     0.00004135   -0.00006803   -0.00007310
     atom  472 type  2   force =     0.00004089   -0.00006716   -0.00007288
     atom  473 type  3   force =     0.00002243   -0.00006652    0.00002951
     atom  474 type  3   force =     0.00002359   -0.00006723    0.00002609
     atom  475 type  3   force =     0.00002223   -0.00006640    0.00002931
     atom  476 type  3   force =     0.00002242   -0.00006664    0.00002923
     atom  477 type  3   force =     0.00002231   -0.00006628    0.00002935
     atom  478 type  3   force =     0.00002240   -0.00006652    0.00002940
     atom  479 type  3   force =     0.00002226   -0.00006662    0.00002934
     atom  480 type  3   force =     0.00002222   -0.00006646    0.00002938
     atom  481 type  4   force =    -0.00005800   -0.00002470   -0.00007946
     atom  482 type  4   force =    -0.00000004   -0.00000062    0.00000248
     atom  483 type  4   force =    -0.00000180    0.00000165   -0.00000311
     atom  484 type  4   force =     0.00000077   -0.00000067   -0.00000152
     atom  485 type  4   force =    -0.00000062    0.00000120    0.00000015
     atom  486 type  4   force =     0.00000007    0.00000096   -0.00000130
     atom  487 type  4   force =     0.00000034   -0.00000188   -0.00000095
     atom  488 type  4   force =    -0.00000207   -0.00000123    0.00000039
     atom  489 type  4   force =     0.00000361   -0.00000037   -0.00000307
     atom  490 type  4   force =     0.00000564    0.00000890    0.00000319
     atom  491 type  4   force =    -0.00000133    0.00000082   -0.00000090
     atom  492 type  4   force =    -0.00000099   -0.00000130   -0.00000176
     atom  493 type  4   force =     0.00000382    0.00000093    0.00000179
     atom  494 type  4   force =     0.00000032   -0.00000071    0.00000000
     atom  495 type  4   force =    -0.00000235    0.00000089   -0.00000286
     atom  496 type  4   force =    -0.00000031   -0.00000013    0.00000008
     The non-local contrib.  to forces
     atom    1 type  1   force =     0.42467633   -0.94551480   -0.55496289
     atom    2 type  1   force =     0.42450219   -0.94527133   -0.55499672
     atom    3 type  1   force =     0.42450744   -0.94527245   -0.55499036
     atom    4 type  1   force =     0.42450547   -0.94527481   -0.55499843
     atom    5 type  1   force =     0.42450182   -0.94527374   -0.55499683
     atom    6 type  1   force =     0.42450338   -0.94527662   -0.55499968
     atom    7 type  1   force =     0.42450133   -0.94526831   -0.55499685
     atom    8 type  1   force =     0.42450348   -0.94526922   -0.55499521
     atom    9 type  1   force =    -1.90170080   -0.92018353   -0.83651221
     atom   10 type  1   force =    -1.90163451   -0.92020006   -0.83649251
     atom   11 type  1   force =    -1.90170178   -0.92018608   -0.83651406
     atom   12 type  1   force =    -1.90169134   -0.92018082   -0.83650565
     atom   13 type  1   force =    -1.90170477   -0.92018748   -0.83651480
     atom   14 type  1   force =    -1.90170276   -0.92018488   -0.83651314
     atom   15 type  1   force =    -1.90169938   -0.92018298   -0.83651175
     atom   16 type  1   force =    -1.90170870   -0.92018882   -0.83651611
     atom   17 type  2   force =     0.20917070   -0.04486613    0.00802049
     atom   18 type  2   force =     0.20892445   -0.04308179    0.00889966
     atom   19 type  2   force =     0.20917361   -0.04486682    0.00802081
     atom   20 type  2   force =     0.20917717   -0.04486766    0.00802202
     atom   21 type  2   force =     0.20917081   -0.04486823    0.00801984
     atom   22 type  2   force =     0.20917031   -0.04486668    0.00802093
     atom   23 type  2   force =     0.20917351   -0.04486555    0.00802152
     atom   24 type  2   force =     0.20917365   -0.04486617    0.00802056
     atom   25 type  2   force =     0.18057692   -0.00954208    0.01138375
     atom   26 type  2   force =     0.18046856   -0.00955266    0.01130152
     atom   27 type  2   force =     0.18058112   -0.00954465    0.01138281
     atom   28 type  2   force =     0.18058443   -0.00954185    0.01138439
     atom   29 type  2   force =     0.18057794   -0.00954506    0.01138209
     atom   30 type  2   force =     0.18057698   -0.00954294    0.01138354
     atom   31 type  2   force =     0.18058050   -0.00954239    0.01138430
     atom   32 type  2   force =     0.18058034   -0.00954413    0.01138297
     atom   33 type  2   force =     0.03833981    0.04942876   -0.02159062
     atom   34 type  2   force =     0.03833686    0.04943461   -0.02158959
     atom   35 type  2   force =     0.03834038    0.04943352   -0.02158790
     atom   36 type  2   force =     0.03834215    0.04943171   -0.02158897
     atom   37 type  2   force =     0.03833860    0.04943304   -0.02158953
     atom   38 type  2   force =     0.03855323    0.04982049   -0.02155190
     atom   39 type  2   force =     0.03834022    0.04943301   -0.02158924
     atom   40 type  2   force =     0.03834180    0.04943363   -0.02158833
     atom   41 type  3   force =    -0.02448911    0.07095351   -0.00853857
     atom   42 type  3   force =    -0.02448915    0.07095370   -0.00853850
     atom   43 type  3   force =    -0.02448909    0.07095365   -0.00853842
     atom   44 type  3   force =    -0.02448906    0.07095360   -0.00853847
     atom   45 type  3   force =    -0.02448913    0.07095365   -0.00853847
     atom   46 type  3   force =    -0.02448580    0.07095636   -0.00853901
     atom   47 type  3   force =    -0.02448908    0.07095364   -0.00853849
     atom   48 type  3   force =    -0.02448906    0.07095367   -0.00853846
     atom   49 type  2   force =     0.19564724    0.10406545   -0.02183209
     atom   50 type  2   force =     0.19564188    0.10406733   -0.02183054
     atom   51 type  2   force =     0.19564657    0.10406851   -0.02183149
     atom   52 type  2   force =     0.19565450    0.10406600   -0.02183229
     atom   53 type  2   force =     0.19564481    0.10406791   -0.02183178
     atom   54 type  2   force =     0.19521728    0.10366430   -0.02167000
     atom   55 type  2   force =     0.19564608    0.10406724   -0.02183188
     atom   56 type  2   force =     0.19564775    0.10406678   -0.02183200
     atom   57 type  3   force =     0.07447324   -0.02094781   -0.00102133
     atom   58 type  3   force =     0.07447311   -0.02094781   -0.00102121
     atom   59 type  3   force =     0.07447322   -0.02094776   -0.00102129
     atom   60 type  3   force =     0.07447346   -0.02094776   -0.00102136
     atom   61 type  3   force =     0.07447318   -0.02094776   -0.00102132
     atom   62 type  3   force =     0.07447106   -0.02094944   -0.00102016
     atom   63 type  3   force =     0.07447321   -0.02094780   -0.00102132
     atom   64 type  3   force =     0.07447325   -0.02094782   -0.00102130
     atom   65 type  1   force =     0.46059253    0.90171043    0.60854347
     atom   66 type  1   force =     0.46055521    0.90163680    0.60851047
     atom   67 type  1   force =     0.46059446    0.90170306    0.60853736
     atom   68 type  1   force =     0.46059965    0.90171359    0.60854682
     atom   69 type  1   force =     0.46058941    0.90169877    0.60853272
     atom   70 type  1   force =     0.46059236    0.90170790    0.60853969
     atom   71 type  1   force =     0.46059618    0.90171005    0.60854413
     atom   72 type  1   force =     0.46059135    0.90170294    0.60853687
     atom   73 type  1   force =    -1.81427770    1.18902394    0.50399071
     atom   74 type  1   force =    -1.81425090    1.18897254    0.50399469
     atom   75 type  1   force =    -1.81427200    1.18901860    0.50398705
     atom   76 type  1   force =    -1.81427279    1.18902343    0.50399053
     atom   77 type  1   force =    -1.81427913    1.18902195    0.50398818
     atom   78 type  1   force =    -1.81427600    1.18902251    0.50398920
     atom   79 type  1   force =    -1.81427305    1.18902216    0.50398942
     atom   80 type  1   force =    -1.81427722    1.18902182    0.50398882
     atom   81 type  2   force =    -0.12228753    0.00072224    0.01060848
     atom   82 type  2   force =    -0.12177392    0.00295782    0.01029047
     atom   83 type  2   force =    -0.12228614    0.00072100    0.01060872
     atom   84 type  2   force =    -0.12228542    0.00071934    0.01060954
     atom   85 type  2   force =    -0.12228725    0.00071977    0.01060857
     atom   86 type  2   force =    -0.12228910    0.00072027    0.01060903
     atom   87 type  2   force =    -0.12228526    0.00072341    0.01060864
     atom   88 type  2   force =    -0.12228315    0.00072346    0.01060838
     atom   89 type  3   force =    -0.04312941   -0.06014746    0.01036389
     atom   90 type  3   force =    -0.04392401   -0.06010587    0.00989227
     atom   91 type  3   force =    -0.04392396   -0.06010595    0.00989238
     atom   92 type  3   force =    -0.04392399   -0.06010590    0.00989230
     atom   93 type  3   force =    -0.04392404   -0.06010593    0.00989231
     atom   94 type  3   force =    -0.04392403   -0.06010593    0.00989229
     atom   95 type  3   force =    -0.04392394   -0.06010582    0.00989229
     atom   96 type  3   force =    -0.04392397   -0.06010583    0.00989230
     atom   97 type  1   force =     0.66871803   -1.73758674    0.15697509
     atom   98 type  1   force =     0.67099684   -1.73657622    0.15449731
     atom   99 type  1   force =     0.67100138   -1.73658412    0.15449971
     atom  100 type  1   force =     0.67099901   -1.73657959    0.15449816
     atom  101 type  1   force =     0.67099605   -1.73658048    0.15449885
     atom  102 type  1   force =     0.67099890   -1.73658142    0.15449765
     atom  103 type  1   force =     0.67100274   -1.73657656    0.15449744
     atom  104 type  1   force =     0.67099893   -1.73657580    0.15449816
     atom  105 type  2   force =    -0.02520930    0.04108321   -0.00104657
     atom  106 type  2   force =    -0.02522038    0.04109468   -0.00104206
     atom  107 type  2   force =    -0.02521920    0.04109078   -0.00104134
     atom  108 type  2   force =    -0.02521805    0.04108959   -0.00104323
     atom  109 type  2   force =    -0.02522004    0.04109046   -0.00104236
     atom  110 type  2   force =    -0.02521836    0.04109112   -0.00104286
     atom  111 type  2   force =    -0.02521836    0.04109642   -0.00104376
     atom  112 type  2   force =    -0.02521849    0.04109333   -0.00104315
     atom  113 type  3   force =     0.05071361    0.05410614   -0.00605707
     atom  114 type  3   force =     0.05071350    0.05410622   -0.00605693
     atom  115 type  3   force =     0.05071364    0.05410627   -0.00605698
     atom  116 type  3   force =     0.05071374    0.05410622   -0.00605704
     atom  117 type  3   force =     0.05071360    0.05410621   -0.00605702
     atom  118 type  3   force =     0.05071419    0.05410465   -0.00606089
     atom  119 type  3   force =     0.05071363    0.05410627   -0.00605704
     atom  120 type  3   force =     0.05071365    0.05410626   -0.00605703
     atom  121 type  1   force =    -0.42456690    0.94561752   -0.55501653
     atom  122 type  1   force =    -0.42450372    0.94527525   -0.55499921
     atom  123 type  1   force =    -0.42449803    0.94526116   -0.55498891
     atom  124 type  1   force =    -0.42450309    0.94527166   -0.55499637
     atom  125 type  1   force =    -0.42450362    0.94526797   -0.55499405
     atom  126 type  1   force =    -0.42451038    0.94527322   -0.55499899
     atom  127 type  1   force =    -0.42450106    0.94528020   -0.55500063
     atom  128 type  1   force =    -0.42450249    0.94527579   -0.55499788
     atom  129 type  1   force =     1.90153902    0.92007857   -0.83655573
     atom  130 type  1   force =     1.90170256    0.92018582   -0.83651423
     atom  131 type  1   force =     1.90170274    0.92018178   -0.83651165
     atom  132 type  1   force =     1.90170210    0.92018449   -0.83651295
     atom  133 type  1   force =     1.90169790    0.92018210   -0.83651102
     atom  134 type  1   force =     1.90169982    0.92018716   -0.83651789
     atom  135 type  1   force =     1.90170736    0.92018823   -0.83651599
     atom  136 type  1   force =     1.90170399    0.92018636   -0.83651414
     atom  137 type  2   force =    -0.20917795    0.04487840    0.00802016
     atom  138 type  2   force =    -0.20917221    0.04486700    0.00802064
     atom  139 type  2   force =    -0.20917088    0.04486463    0.00802185
     atom  140 type  2   force =    -0.20917177    0.04486571    0.00802049
     atom  141 type  2   force =    -0.20917337    0.04486501    0.00802180
     atom  142 type  2   force =    -0.20917567    0.04486371    0.00802047
     atom  143 type  2   force =    -0.20916672    0.04486845    0.00801975
     atom  144 type  2   force =    -0.20917128    0.04486859    0.00802153
     atom  145 type  2   force =    -0.18058349    0.00957017    0.01136958
     atom  146 type  2   force =    -0.18057894    0.00954374    0.01138322
     atom  147 type  2   force =    -0.18057701    0.00954067    0.01138494
     atom  148 type  2   force =    -0.18057890    0.00954345    0.01138337
     atom  149 type  2   force =    -0.18058032    0.00954202    0.01138463
     atom  150 type  2   force =    -0.18058319    0.00954358    0.01138387
     atom  151 type  2   force =    -0.18057286    0.00954418    0.01138204
     atom  152 type  2   force =    -0.18057771    0.00954354    0.01138321
     atom  153 type  2   force =    -0.03833982   -0.04943477   -0.02158770
     atom  154 type  2   force =    -0.03833687   -0.04944430   -0.02159001
     atom  155 type  2   force =    -0.03833011   -0.04943662   -0.02159221
     atom  156 type  2   force =    -0.03834106   -0.04942711   -0.02158711
     atom  157 type  2   force =    -0.03834065   -0.04942600   -0.02158909
     atom  158 type  2   force =    -0.03833939   -0.04943237   -0.02158947
     atom  159 type  2   force =    -0.03833924   -0.04943508   -0.02158867
     atom  160 type  2   force =    -0.03833837   -0.04943498   -0.02158932
     atom  161 type  3   force =     0.02448910   -0.07095368   -0.00853842
     atom  162 type  3   force =     0.02448919   -0.07095395   -0.00853849
     atom  163 type  3   force =     0.02448922   -0.07095372   -0.00853852
     atom  164 type  3   force =     0.02448909   -0.07095351   -0.00853832
     atom  165 type  3   force =     0.02448904   -0.07095352   -0.00853851
     atom  166 type  3   force =     0.02448911   -0.07095363   -0.00853849
     atom  167 type  3   force =     0.02448912   -0.07095370   -0.00853846
     atom  168 type  3   force =     0.02448910   -0.07095369   -0.00853848
     atom  169 type  2   force =    -0.19558572   -0.10408199   -0.02183237
     atom  170 type  2   force =    -0.19564837   -0.10406552   -0.02183209
     atom  171 type  2   force =    -0.19564513   -0.10406932   -0.02183103
     atom  172 type  2   force =    -0.19564478   -0.10406950   -0.02183171
     atom  173 type  2   force =    -0.19564732   -0.10406853   -0.02183149
     atom  174 type  2   force =    -0.19564443   -0.10406812   -0.02183195
     atom  175 type  2   force =    -0.19563940   -0.10406233   -0.02183197
     atom  176 type  2   force =    -0.19564526   -0.10406706   -0.02183187
     atom  177 type  3   force =    -0.07447130    0.02094707   -0.00102171
     atom  178 type  3   force =    -0.07447326    0.02094781   -0.00102133
     atom  179 type  3   force =    -0.07447320    0.02094775   -0.00102125
     atom  180 type  3   force =    -0.07447320    0.02094776   -0.00102131
     atom  181 type  3   force =    -0.07447325    0.02094776   -0.00102129
     atom  182 type  3   force =    -0.07447318    0.02094778   -0.00102132
     atom  183 type  3   force =    -0.07447313    0.02094783   -0.00102133
     atom  184 type  3   force =    -0.07447319    0.02094780   -0.00102131
     atom  185 type  1   force =    -0.46063296   -0.90168535    0.60852860
     atom  186 type  1   force =    -0.46059237   -0.90170413    0.60853779
     atom  187 type  1   force =    -0.46059312   -0.90171383    0.60854661
     atom  188 type  1   force =    -0.46059373   -0.90170736    0.60853965
     atom  189 type  1   force =    -0.46059699   -0.90171261    0.60854583
     atom  190 type  1   force =    -0.46060667   -0.90172350    0.60854558
     atom  191 type  1   force =    -0.46058970   -0.90170630    0.60853776
     atom  192 type  1   force =    -0.46059123   -0.90170372    0.60854025
     atom  193 type  1   force =     1.81424957   -1.18899151    0.50398672
     atom  194 type  1   force =     1.81427321   -1.18901981    0.50398821
     atom  195 type  1   force =     1.81428086   -1.18902753    0.50399272
     atom  196 type  1   force =     1.81427705   -1.18902311    0.50398911
     atom  197 type  1   force =     1.81427265   -1.18902258    0.50398958
     atom  198 type  1   force =     1.81424722   -1.18899992    0.50398258
     atom  199 type  1   force =     1.81427923   -1.18902217    0.50398888
     atom  200 type  1   force =     1.81427605   -1.18902148    0.50398907
     atom  201 type  2   force =     0.12230414   -0.00069272    0.01060924
     atom  202 type  2   force =     0.12228723   -0.00072066    0.01060887
     atom  203 type  2   force =     0.12228557   -0.00072398    0.01060954
     atom  204 type  2   force =     0.12228683   -0.00072234    0.01060841
     atom  205 type  2   force =     0.12228579   -0.00072383    0.01060875
     atom  206 type  2   force =     0.12228511   -0.00072407    0.01060824
     atom  207 type  2   force =     0.12229736   -0.00071685    0.01060870
     atom  208 type  2   force =     0.12228703   -0.00071943    0.01060911
     atom  209 type  3   force =     0.04392498    0.06010658    0.00989208
     atom  210 type  3   force =     0.04392400    0.06010591    0.00989231
     atom  211 type  3   force =     0.04392399    0.06010581    0.00989237
     atom  212 type  3   force =     0.04392401    0.06010587    0.00989229
     atom  213 type  3   force =     0.04392397    0.06010582    0.00989230
     atom  214 type  3   force =     0.04392397    0.06010583    0.00989229
     atom  215 type  3   force =     0.04392411    0.06010606    0.00989229
     atom  216 type  3   force =     0.04392402    0.06010593    0.00989230
     atom  217 type  1   force =    -0.67098740    1.73659135    0.15449797
     atom  218 type  1   force =    -0.67099843    1.73658053    0.15449837
     atom  219 type  1   force =    -0.67099902    1.73657459    0.15449970
     atom  220 type  1   force =    -0.67099705    1.73657592    0.15449769
     atom  221 type  1   force =    -0.67099770    1.73657359    0.15449848
     atom  222 type  1   force =    -0.67099823    1.73657483    0.15449779
     atom  223 type  1   force =    -0.67098739    1.73661206    0.15450292
     atom  224 type  1   force =    -0.67099982    1.73658222    0.15449816
     atom  225 type  2   force =     0.02521886   -0.04109539   -0.00104439
     atom  226 type  2   force =     0.02521546   -0.04109373   -0.00104126
     atom  227 type  2   force =     0.02522012   -0.04109088   -0.00104191
     atom  228 type  2   force =     0.02522281   -0.04109236   -0.00104341
     atom  229 type  2   force =     0.02521797   -0.04109260   -0.00104314
     atom  230 type  2   force =     0.02530324   -0.04117128   -0.00113973
     atom  231 type  2   force =     0.02522023   -0.04109175   -0.00104337
     atom  232 type  2   force =     0.02522150   -0.04109189   -0.00104289
     atom  233 type  3   force =    -0.05071351   -0.05410634   -0.00605713
     atom  234 type  3   force =    -0.05071366   -0.05410618   -0.00605698
     atom  235 type  3   force =    -0.05071362   -0.05410626   -0.00605697
     atom  236 type  3   force =    -0.05071359   -0.05410630   -0.00605703
     atom  237 type  3   force =    -0.05071365   -0.05410628   -0.00605702
     atom  238 type  3   force =    -0.05071349   -0.05410629   -0.00605696
     atom  239 type  3   force =    -0.05071355   -0.05410613   -0.00605703
     atom  240 type  3   force =    -0.05071359   -0.05410620   -0.00605703
     atom  241 type  1   force =    -0.94535043   -0.42452949    0.55509346
     atom  242 type  1   force =    -0.94526984   -0.42450458    0.55499505
     atom  243 type  1   force =    -0.94526419   -0.42450484    0.55499766
     atom  244 type  1   force =    -0.94527340   -0.42450333    0.55499785
     atom  245 type  1   force =    -0.94527829   -0.42450637    0.55500117
     atom  246 type  1   force =    -0.94527239   -0.42450314    0.55499614
     atom  247 type  1   force =    -0.94527077   -0.42450217    0.55499545
     atom  248 type  1   force =    -0.94527219   -0.42450280    0.55499664
     atom  249 type  1   force =    -0.92018807    1.90168810    0.83653552
     atom  250 type  1   force =    -0.92018289    1.90169871    0.83651193
     atom  251 type  1   force =    -0.92017947    1.90169573    0.83651099
     atom  252 type  1   force =    -0.92018556    1.90170196    0.83651331
     atom  253 type  1   force =    -0.92018940    1.90170405    0.83651667
     atom  254 type  1   force =    -0.92018461    1.90170122    0.83651247
     atom  255 type  1   force =    -0.92018412    1.90170166    0.83651246
     atom  256 type  1   force =    -0.92018501    1.90170214    0.83651360
     atom  257 type  2   force =    -0.04486858   -0.20915748   -0.00802121
     atom  258 type  2   force =    -0.04486613   -0.20917270   -0.00802359
     atom  259 type  2   force =    -0.04486498   -0.20917524   -0.00802021
     atom  260 type  2   force =    -0.04486603   -0.20917298   -0.00802001
     atom  261 type  2   force =    -0.04486790   -0.20917411   -0.00802064
     atom  262 type  2   force =    -0.04486698   -0.20917276   -0.00802104
     atom  263 type  2   force =    -0.04486513   -0.20917148   -0.00802068
     atom  264 type  2   force =    -0.04486596   -0.20917112   -0.00802111
     atom  265 type  2   force =    -0.00955605   -0.18055939   -0.01137408
     atom  266 type  2   force =    -0.00954305   -0.18058113   -0.01138417
     atom  267 type  2   force =    -0.00954262   -0.18058244   -0.01138474
     atom  268 type  2   force =    -0.00954333   -0.18057913   -0.01138333
     atom  269 type  2   force =    -0.00954524   -0.18058163   -0.01138191
     atom  270 type  2   force =    -0.00954274   -0.18057927   -0.01138366
     atom  271 type  2   force =    -0.00954248   -0.18057772   -0.01138423
     atom  272 type  2   force =    -0.00954366   -0.18057808   -0.01138352
     atom  273 type  2   force =     0.04942617   -0.03833565    0.02158759
     atom  274 type  2   force =     0.04943282   -0.03833721    0.02158397
     atom  275 type  2   force =     0.04943546   -0.03834071    0.02158954
     atom  276 type  2   force =     0.04943382   -0.03834056    0.02159019
     atom  277 type  2   force =     0.04942944   -0.03834171    0.02158901
     atom  278 type  2   force =     0.04943265   -0.03834022    0.02158884
     atom  279 type  2   force =     0.04943676   -0.03833783    0.02158982
     atom  280 type  2   force =     0.04943463   -0.03833733    0.02158927
     atom  281 type  3   force =     0.07095351    0.02448912    0.00853837
     atom  282 type  3   force =     0.07095360    0.02448916    0.00853828
     atom  283 type  3   force =     0.07095369    0.02448909    0.00853850
     atom  284 type  3   force =     0.07095366    0.02448908    0.00853852
     atom  285 type  3   force =     0.07095354    0.02448904    0.00853848
     atom  286 type  3   force =     0.07095364    0.02448909    0.00853847
     atom  287 type  3   force =     0.07095375    0.02448915    0.00853850
     atom  288 type  3   force =     0.07095367    0.02448913    0.00853847
     atom  289 type  2   force =     0.10406603   -0.19564116    0.02183030
     atom  290 type  2   force =     0.10406678   -0.19564264    0.02183041
     atom  291 type  2   force =     0.10406837   -0.19564822    0.02183219
     atom  292 type  2   force =     0.10406811   -0.19564732    0.02183226
     atom  293 type  2   force =     0.10406623   -0.19564826    0.02183196
     atom  294 type  2   force =     0.10406509   -0.19565150    0.02183109
     atom  295 type  2   force =     0.10406851   -0.19564447    0.02183180
     atom  296 type  2   force =     0.10407091   -0.19563555    0.02183215
     atom  297 type  3   force =    -0.02094777   -0.07447309    0.00102130
     atom  298 type  3   force =    -0.02094779   -0.07447313    0.00102127
     atom  299 type  3   force =    -0.02094778   -0.07447326    0.00102132
     atom  300 type  3   force =    -0.02094779   -0.07447324    0.00102134
     atom  301 type  3   force =    -0.02094780   -0.07447327    0.00102132
     atom  302 type  3   force =    -0.02094786   -0.07447335    0.00102130
     atom  303 type  3   force =    -0.02094777   -0.07447318    0.00102133
     atom  304 type  3   force =    -0.02094758   -0.07447304    0.00102131
     atom  305 type  1   force =     0.90167309   -0.46058349   -0.60852485
     atom  306 type  1   force =     0.90171125   -0.46059945   -0.60854816
     atom  307 type  1   force =     0.90171071   -0.46059669   -0.60854243
     atom  308 type  1   force =     0.90170505   -0.46059188   -0.60853697
     atom  309 type  1   force =     0.90169615   -0.46059254   -0.60853615
     atom  310 type  1   force =     0.90170677   -0.46059315   -0.60854012
     atom  311 type  1   force =     0.90171165   -0.46059413   -0.60854020
     atom  312 type  1   force =     0.90170736   -0.46059339   -0.60854036
     atom  313 type  1   force =     1.18899788    1.81425979   -0.50397876
     atom  314 type  1   force =     1.18902048    1.81426924   -0.50398805
     atom  315 type  1   force =     1.18902477    1.81427636   -0.50399075
     atom  316 type  1   force =     1.18902175    1.81427559   -0.50398892
     atom  317 type  1   force =     1.18901232    1.81426691   -0.50398639
     atom  318 type  1   force =     1.18902251    1.81427554   -0.50398952
     atom  319 type  1   force =     1.18902366    1.81427586   -0.50398927
     atom  320 type  1   force =     1.18902165    1.81427506   -0.50398869
     atom  321 type  2   force =     0.00071739    0.12229554   -0.01060979
     atom  322 type  2   force =     0.00072328    0.12228644   -0.01060940
     atom  323 type  2   force =     0.00072529    0.12228302   -0.01060800
     atom  324 type  2   force =     0.00072203    0.12228632   -0.01060834
     atom  325 type  2   force =     0.00072029    0.12228573   -0.01060857
     atom  326 type  2   force =     0.00072160    0.12228512   -0.01060882
     atom  327 type  2   force =     0.00072248    0.12228737   -0.01060884
     atom  328 type  2   force =     0.00072030    0.12229045   -0.01060875
     atom  329 type  3   force =    -0.06010595    0.04392427   -0.00989214
     atom  330 type  3   force =    -0.06010584    0.04392399   -0.00989233
     atom  331 type  3   force =    -0.06010577    0.04392390   -0.00989230
     atom  332 type  3   force =    -0.06010588    0.04392399   -0.00989227
     atom  333 type  3   force =    -0.06010591    0.04392399   -0.00989229
     atom  334 type  3   force =    -0.06010589    0.04392398   -0.00989229
     atom  335 type  3   force =    -0.06010587    0.04392401   -0.00989230
     atom  336 type  3   force =    -0.06010589    0.04392406   -0.00989243
     atom  337 type  1   force =    -1.73657672   -0.67099078   -0.15449984
     atom  338 type  1   force =    -1.73657528   -0.67099609   -0.15449930
     atom  339 type  1   force =    -1.73657626   -0.67100098   -0.15449749
     atom  340 type  1   force =    -1.73657827   -0.67099923   -0.15449707
     atom  341 type  1   force =    -1.73658061   -0.67100012   -0.15449769
     atom  342 type  1   force =    -1.73658294   -0.67100245   -0.15449801
     atom  343 type  1   force =    -1.73657636   -0.67099715   -0.15449812
     atom  344 type  1   force =    -1.73657103   -0.67099028   -0.15450136
     atom  345 type  2   force =     0.04109146    0.02521951    0.00104246
     atom  346 type  2   force =     0.04108209    0.02522021    0.00110257
     atom  347 type  2   force =     0.04109318    0.02521864    0.00104364
     atom  348 type  2   force =     0.04109618    0.02521425    0.00104525
     atom  349 type  2   force =     0.04109201    0.02521798    0.00104351
     atom  350 type  2   force =     0.04109176    0.02521694    0.00104360
     atom  351 type  2   force =     0.04109201    0.02522096    0.00104333
     atom  352 type  2   force =     0.04109382    0.02522010    0.00104310
     atom  353 type  3   force =     0.05410614   -0.05071354    0.00605698
     atom  354 type  3   force =     0.05410589   -0.05071338    0.00605689
     atom  355 type  3   force =     0.05410629   -0.05071366    0.00605705
     atom  356 type  3   force =     0.05410632   -0.05071367    0.00605706
     atom  357 type  3   force =     0.05410622   -0.05071365    0.00605703
     atom  358 type  3   force =     0.05410623   -0.05071365    0.00605697
     atom  359 type  3   force =     0.05410625   -0.05071359    0.00605704
     atom  360 type  3   force =     0.05410627   -0.05071358    0.00605703
     atom  361 type  1   force =     0.94532665    0.42452140    0.55503305
     atom  362 type  1   force =     0.94527520    0.42450406    0.55499787
     atom  363 type  1   force =     0.94528860    0.42449134    0.55500441
     atom  364 type  1   force =     0.94527272    0.42450311    0.55499707
     atom  365 type  1   force =     0.94527288    0.42450321    0.55499818
     atom  366 type  1   force =     0.94527209    0.42450267    0.55499683
     atom  367 type  1   force =     0.94527133    0.42450473    0.55499492
     atom  368 type  1   force =     0.94527450    0.42450614    0.55499744
     atom  369 type  1   force =     0.92019021   -1.90171580    0.83651905
     atom  370 type  1   force =     0.92018512   -1.90170186    0.83651314
     atom  371 type  1   force =     0.92019018   -1.90168810    0.83651280
     atom  372 type  1   force =     0.92018621   -1.90170218    0.83651376
     atom  373 type  1   force =     0.92018235   -1.90169697    0.83650977
     atom  374 type  1   force =     0.92018010   -1.90169485    0.83650857
     atom  375 type  1   force =     0.92018582   -1.90170352    0.83651432
     atom  376 type  1   force =     0.92018692   -1.90170398    0.83651444
     atom  377 type  2   force =     0.04487055    0.20914731   -0.00801494
     atom  378 type  2   force =     0.04486619    0.20917226   -0.00802088
     atom  379 type  2   force =     0.04487009    0.20916857   -0.00801719
     atom  380 type  2   force =     0.04486701    0.20917199   -0.00802053
     atom  381 type  2   force =     0.04486489    0.20917295   -0.00802006
     atom  382 type  2   force =     0.04486630    0.20917313   -0.00802011
     atom  383 type  2   force =     0.04486743    0.20917292   -0.00802074
     atom  384 type  2   force =     0.04486653    0.20917317   -0.00802074
     atom  385 type  2   force =     0.00954197    0.18055228   -0.01138088
     atom  386 type  2   force =     0.00954307    0.18057868   -0.01138369
     atom  387 type  2   force =     0.00955070    0.18057434   -0.01137811
     atom  388 type  2   force =     0.00954407    0.18057891   -0.01138275
     atom  389 type  2   force =     0.00954192    0.18057958   -0.01138440
     atom  390 type  2   force =     0.00954194    0.18057947   -0.01138385
     atom  391 type  2   force =     0.00954424    0.18058017   -0.01138291
     atom  392 type  2   force =     0.00954357    0.18057947   -0.01138342
     atom  393 type  2   force =    -0.04944884    0.03831682    0.02161257
     atom  394 type  2   force =    -0.04943350    0.03833952    0.02158900
     atom  395 type  2   force =    -0.04942709    0.03833747    0.02159163
     atom  396 type  2   force =    -0.04943246    0.03833932    0.02158959
     atom  397 type  2   force =    -0.04943869    0.03833726    0.02159066
     atom  398 type  2   force =    -0.04943535    0.03833846    0.02158971
     atom  399 type  2   force =    -0.04943085    0.03834073    0.02158912
     atom  400 type  2   force =    -0.04943250    0.03834085    0.02158932
     atom  401 type  3   force =    -0.07095418   -0.02448950    0.00853862
     atom  402 type  3   force =    -0.07095366   -0.02448910    0.00853846
     atom  403 type  3   force =    -0.07095352   -0.02448911    0.00853852
     atom  404 type  3   force =    -0.07095362   -0.02448910    0.00853849
     atom  405 type  3   force =    -0.07095378   -0.02448917    0.00853856
     atom  406 type  3   force =    -0.07095370   -0.02448914    0.00853848
     atom  407 type  3   force =    -0.07095358   -0.02448908    0.00853849
     atom  408 type  3   force =    -0.07095363   -0.02448908    0.00853849
     atom  409 type  2   force =    -0.10406775    0.19564639    0.02183153
     atom  410 type  2   force =    -0.10404217    0.19566329    0.02185977
     atom  411 type  2   force =    -0.10406719    0.19564496    0.02183193
     atom  412 type  2   force =    -0.10406696    0.19563826    0.02183238
     atom  413 type  2   force =    -0.10406801    0.19564320    0.02183189
     atom  414 type  2   force =    -0.10406871    0.19564398    0.02183195
     atom  415 type  2   force =    -0.10406682    0.19564988    0.02183195
     atom  416 type  2   force =    -0.10406616    0.19564790    0.02183185
     atom  417 type  3   force =     0.02094779    0.07447322    0.00102129
     atom  418 type  3   force =     0.02094836    0.07447367    0.00102151
     atom  419 type  3   force =     0.02094778    0.07447320    0.00102133
     atom  420 type  3   force =     0.02094776    0.07447304    0.00102137
     atom  421 type  3   force =     0.02094779    0.07447313    0.00102132
     atom  422 type  3   force =     0.02094777    0.07447317    0.00102133
     atom  423 type  3   force =     0.02094780    0.07447331    0.00102132
     atom  424 type  3   force =     0.02094782    0.07447325    0.00102130
     atom  425 type  1   force =    -0.90172339    0.46058458   -0.60854789
     atom  426 type  1   force =    -0.90170752    0.46059339   -0.60854022
     atom  427 type  1   force =    -0.90168826    0.46059079   -0.60852651
     atom  428 type  1   force =    -0.90170402    0.46059264   -0.60853821
     atom  429 type  1   force =    -0.90171588    0.46059729   -0.60854401
     atom  430 type  1   force =    -0.90171904    0.46059800   -0.60854306
     atom  431 type  1   force =    -0.90170113    0.46059188   -0.60853638
     atom  432 type  1   force =    -0.90170324    0.46059140   -0.60853653
     atom  433 type  1   force =    -1.18902780   -1.81428845   -0.50399240
     atom  434 type  1   force =    -1.18902197   -1.81427494   -0.50398908
     atom  435 type  1   force =    -1.18900779   -1.81426434   -0.50398302
     atom  436 type  1   force =    -1.18902029   -1.81427449   -0.50398815
     atom  437 type  1   force =    -1.18902268   -1.81427357   -0.50399016
     atom  438 type  1   force =    -1.18902364   -1.81427384   -0.50398853
     atom  439 type  1   force =    -1.18902086   -1.81427536   -0.50398816
     atom  440 type  1   force =    -1.18902132   -1.81427520   -0.50398860
     atom  441 type  2   force =    -0.00070607   -0.12230363   -0.01060442
     atom  442 type  2   force =    -0.00072220   -0.12228645   -0.01060857
     atom  443 type  2   force =    -0.00071606   -0.12229450   -0.01060596
     atom  444 type  2   force =    -0.00072039   -0.12228745   -0.01060877
     atom  445 type  2   force =    -0.00072294   -0.12228699   -0.01060828
     atom  446 type  2   force =    -0.00072084   -0.12228735   -0.01060832
     atom  447 type  2   force =    -0.00072125   -0.12228538   -0.01060883
     atom  448 type  2   force =    -0.00072184   -0.12228567   -0.01060884
     atom  449 type  3   force =     0.06010602   -0.04392421   -0.00989202
     atom  450 type  3   force =     0.06010592   -0.04392403   -0.00989229
     atom  451 type  3   force =     0.06010637   -0.04392438   -0.00989229
     atom  452 type  3   force =     0.06010587   -0.04392399   -0.00989228
     atom  453 type  3   force =     0.06010588   -0.04392398   -0.00989233
     atom  454 type  3   force =     0.06010588   -0.04392398   -0.00989230
     atom  455 type  3   force =     0.06010587   -0.04392400   -0.00989227
     atom  456 type  3   force =     0.06010591   -0.04392401   -0.00989229
     atom  457 type  1   force =     1.73657561    0.67098941   -0.15449384
     atom  458 type  1   force =     1.73657801    0.67099734   -0.15449761
     atom  459 type  1   force =     1.73663204    0.67100581   -0.15447846
     atom  460 type  1   force =     1.73657823    0.67099867   -0.15449783
     atom  461 type  1   force =     1.73658146    0.67100055   -0.15449869
     atom  462 type  1   force =     1.73657937    0.67100065   -0.15449828
     atom  463 type  1   force =     1.73657584    0.67099698   -0.15449701
     atom  464 type  1   force =     1.73657878    0.67099711   -0.15449776
     atom  465 type  2   force =    -0.04109528   -0.02521494    0.00104128
     atom  466 type  2   force =    -0.04109972   -0.02521104    0.00103759
     atom  467 type  2   force =    -0.04109062   -0.02522096    0.00104374
     atom  468 type  2   force =    -0.04108982   -0.02522146    0.00104429
     atom  469 type  2   force =    -0.04109337   -0.02522087    0.00104337
     atom  470 type  2   force =    -0.04109320   -0.02522040    0.00104149
     atom  471 type  2   force =    -0.04109121   -0.02521800    0.00104335
     atom  472 type  2   force =    -0.04108981   -0.02521666    0.00104300
     atom  473 type  3   force =    -0.05410626    0.05071362    0.00605699
     atom  474 type  3   force =    -0.05410682    0.05071397    0.00605747
     atom  475 type  3   force =    -0.05410621    0.05071360    0.00605705
     atom  476 type  3   force =    -0.05410610    0.05071349    0.00605707
     atom  477 type  3   force =    -0.05410625    0.05071358    0.00605704
     atom  478 type  3   force =    -0.05410622    0.05071357    0.00605702
     atom  479 type  3   force =    -0.05410624    0.05071367    0.00605704
     atom  480 type  3   force =    -0.05410621    0.05071363    0.00605703
     atom  481 type  4   force =     0.00022224    0.00017918    0.00037700
     atom  482 type  4   force =     0.00000542    0.00000397   -0.00000200
     atom  483 type  4   force =     0.00003124   -0.00001751    0.00002837
     atom  484 type  4   force =     0.00000039   -0.00000466   -0.00000049
     atom  485 type  4   force =    -0.00000717   -0.00000670    0.00000774
     atom  486 type  4   force =    -0.00000024   -0.00000273   -0.00000659
     atom  487 type  4   force =     0.00000151    0.00001329   -0.00000783
     atom  488 type  4   force =     0.00000226    0.00000751    0.00000211
     atom  489 type  4   force =    -0.00004056    0.00000565    0.00002500
     atom  490 type  4   force =    -0.00004280   -0.00009273   -0.00005833
     atom  491 type  4   force =     0.00001273   -0.00000496   -0.00000233
     atom  492 type  4   force =     0.00000438    0.00001089    0.00001379
     atom  493 type  4   force =    -0.00003036   -0.00000050   -0.00002590
     atom  494 type  4   force =    -0.00000064    0.00000429   -0.00000292
     atom  495 type  4   force =     0.00002591   -0.00000794    0.00002456
     atom  496 type  4   force =     0.00000382   -0.00000661   -0.00000184
     The ionic contribution  to forces
     atom    1 type  1   force =    -0.12266610   -1.14931454   -2.54641072
     atom    2 type  1   force =    -0.12034980   -1.15064311   -2.54595457
     atom    3 type  1   force =    -0.12042972   -1.15054216   -2.54609482
     atom    4 type  1   force =    -0.12037621   -1.15060956   -2.54597272
     atom    5 type  1   force =    -0.12033490   -1.15060314   -2.54598479
     atom    6 type  1   force =    -0.12034796   -1.15058514   -2.54594654
     atom    7 type  1   force =    -0.12040939   -1.15065026   -2.54593452
     atom    8 type  1   force =    -0.12037920   -1.15066085   -2.54597752
     atom    9 type  1   force =    14.27347472    1.63971424    2.01256925
     atom   10 type  1   force =    14.27268843    1.64007562    2.01263237
     atom   11 type  1   force =    14.27344086    1.63976965    2.01257841
     atom   12 type  1   force =    14.27342315    1.63982741    2.01241556
     atom   13 type  1   force =    14.27347244    1.63976923    2.01259317
     atom   14 type  1   force =    14.27346851    1.63977053    2.01255438
     atom   15 type  1   force =    14.27344777    1.63972009    2.01257419
     atom   16 type  1   force =    14.27341936    1.63969627    2.01262997
     atom   17 type  2   force =    -2.68734772   -1.12166463   -0.87817182
     atom   18 type  2   force =    -2.68596235   -1.11895238   -0.87708801
     atom   19 type  2   force =    -2.68737242   -1.12164918   -0.87819892
     atom   20 type  2   force =    -2.68741648   -1.12161703   -0.87825731
     atom   21 type  2   force =    -2.68734446   -1.12159631   -0.87816367
     atom   22 type  2   force =    -2.68731952   -1.12164235   -0.87820770
     atom   23 type  2   force =    -2.68738740   -1.12168921   -0.87821975
     atom   24 type  2   force =    -2.68740354   -1.12166171   -0.87817930
     atom   25 type  2   force =    -5.25568667   -0.26033836   -0.96585077
     atom   26 type  2   force =    -5.25652590   -0.25842746   -0.96540659
     atom   27 type  2   force =    -5.25572103   -0.26031129   -0.96586763
     atom   28 type  2   force =    -5.25576204   -0.26028091   -0.96595129
     atom   29 type  2   force =    -5.25568189   -0.26027704   -0.96583501
     atom   30 type  2   force =    -5.25567705   -0.26030798   -0.96587270
     atom   31 type  2   force =    -5.25572939   -0.26034743   -0.96588107
     atom   32 type  2   force =    -5.25574152   -0.26033671   -0.96584672
     atom   33 type  2   force =    -3.27857909   -5.22861514    2.50211793
     atom   34 type  2   force =    -3.27854041   -5.22869683    2.50204949
     atom   35 type  2   force =    -3.27862233   -5.22873163    2.50202586
     atom   36 type  2   force =    -3.27863630   -5.22869764    2.50208108
     atom   37 type  2   force =    -3.27857893   -5.22870498    2.50208715
     atom   38 type  2   force =    -3.27807533   -5.22829938    2.50239995
     atom   39 type  2   force =    -3.27860349   -5.22869982    2.50206857
     atom   40 type  2   force =    -3.27864439   -5.22867721    2.50201861
     atom   41 type  3   force =    -0.74072189   -2.14437514    1.26072273
     atom   42 type  3   force =    -0.74071796   -2.14440677    1.26069929
     atom   43 type  3   force =    -0.74073876   -2.14440918    1.26068875
     atom   44 type  3   force =    -0.74073825   -2.14440386    1.26070278
     atom   45 type  3   force =    -0.74072498   -2.14440566    1.26070373
     atom   46 type  3   force =    -0.74067836   -2.14433162    1.26073774
     atom   47 type  3   force =    -0.74073395   -2.14440550    1.26070186
     atom   48 type  3   force =    -0.74074372   -2.14440331    1.26068778
     atom   49 type  2   force =    -6.17632491   -1.54840886    0.63334155
     atom   50 type  2   force =    -6.17627406   -1.54843007    0.63327101
     atom   51 type  2   force =    -6.17633297   -1.54850497    0.63329291
     atom   52 type  2   force =    -6.17640663   -1.54846051    0.63335169
     atom   53 type  2   force =    -6.17631609   -1.54846840    0.63334316
     atom   54 type  2   force =    -6.17620892   -1.54893187    0.63381330
     atom   55 type  2   force =    -6.17632568   -1.54845327    0.63332019
     atom   56 type  2   force =    -6.17635442   -1.54841945    0.63327879
     atom   57 type  3   force =    -1.97453169    0.04602678    0.18331501
     atom   58 type  3   force =    -1.97452110    0.04602700    0.18329454
     atom   59 type  3   force =    -1.97453040    0.04600564    0.18330622
     atom   60 type  3   force =    -1.97456267    0.04601585    0.18332367
     atom   61 type  3   force =    -1.97452905    0.04601317    0.18331573
     atom   62 type  3   force =    -1.97455232    0.04595329    0.18337374
     atom   63 type  3   force =    -1.97453033    0.04601915    0.18331189
     atom   64 type  3   force =    -1.97453487    0.04602667    0.18330153
     atom   65 type  1   force =    -0.87355057    0.57393140    1.98645194
     atom   66 type  1   force =    -0.87390091    0.57458890    1.98683649
     atom   67 type  1   force =    -0.87362682    0.57398911    1.98645453
     atom   68 type  1   force =    -0.87364950    0.57399515    1.98633821
     atom   69 type  1   force =    -0.87354307    0.57402349    1.98650029
     atom   70 type  1   force =    -0.87357270    0.57398534    1.98644904
     atom   71 type  1   force =    -0.87363213    0.57394755    1.98643284
     atom   72 type  1   force =    -0.87363096    0.57394149    1.98647669
     atom   73 type  1   force =    14.19228621   -5.31474597    0.05312116
     atom   74 type  1   force =    14.19185847   -5.31437146    0.05332870
     atom   75 type  1   force =    14.19221657   -5.31466911    0.05315259
     atom   76 type  1   force =    14.19221823   -5.31466335    0.05299551
     atom   77 type  1   force =    14.19228216   -5.31467854    0.05317788
     atom   78 type  1   force =    14.19225780   -5.31467789    0.05313362
     atom   79 type  1   force =    14.19222706   -5.31471546    0.05313860
     atom   80 type  1   force =    14.19221948   -5.31474783    0.05318706
     atom   81 type  2   force =    -0.21536928    2.77181402   -3.53159660
     atom   82 type  2   force =    -0.20042326    2.77035373   -3.52047007
     atom   83 type  2   force =    -0.21538726    2.77183093   -3.53163115
     atom   84 type  2   force =    -0.21542879    2.77187115   -3.53168236
     atom   85 type  2   force =    -0.21536899    2.77187293   -3.53160392
     atom   86 type  2   force =    -0.21533702    2.77184364   -3.53164261
     atom   87 type  2   force =    -0.21540005    2.77178311   -3.53164314
     atom   88 type  2   force =    -0.21542827    2.77181410   -3.53160557
     atom   89 type  3   force =     0.26446940    1.64979339   -1.79043828
     atom   90 type  3   force =     0.26883615    1.65182533   -1.78766159
     atom   91 type  3   force =     0.26882102    1.65184046   -1.78768384
     atom   92 type  3   force =     0.26883155    1.65182994   -1.78767064
     atom   93 type  3   force =     0.26884359    1.65183302   -1.78767272
     atom   94 type  3   force =     0.26883638    1.65183962   -1.78766405
     atom   95 type  3   force =     0.26882186    1.65182510   -1.78766405
     atom   96 type  3   force =     0.26882846    1.65181789   -1.78767272
     atom   97 type  1   force =    -5.25801412    6.86015987   -1.77696366
     atom   98 type  1   force =    -5.25693020    6.86271942   -1.77949431
     atom   99 type  1   force =    -5.25699218    6.86279471   -1.77959545
     atom  100 type  1   force =    -5.25695023    6.86274537   -1.77953269
     atom  101 type  1   force =    -5.25689041    6.86276785   -1.77956207
     atom  102 type  1   force =    -5.25693453    6.86279083   -1.77950437
     atom  103 type  1   force =    -5.25702075    6.86271875   -1.77949425
     atom  104 type  1   force =    -5.25696116    6.86268207   -1.77954797
     atom  105 type  2   force =     5.12440131    4.86174211    1.83983939
     atom  106 type  2   force =     5.12460733    4.86156655    1.83967251
     atom  107 type  2   force =     5.12456394    4.86163732    1.83962175
     atom  108 type  2   force =     5.12453164    4.86166186    1.83972972
     atom  109 type  2   force =     5.12456810    4.86164504    1.83971092
     atom  110 type  2   force =     5.12459461    4.86163339    1.83974499
     atom  111 type  2   force =     5.12454825    4.86156932    1.83976196
     atom  112 type  2   force =     5.12454984    4.86161483    1.83971972
     atom  113 type  3   force =    -1.67846043   -1.91357485    0.71621952
     atom  114 type  3   force =    -1.67843741   -1.91359642    0.71618947
     atom  115 type  3   force =    -1.67845743   -1.91360529    0.71619118
     atom  116 type  3   force =    -1.67847200   -1.91358949    0.71621250
     atom  117 type  3   force =    -1.67845299   -1.91359574    0.71621095
     atom  118 type  3   force =    -1.67841816   -1.91360448    0.71623945
     atom  119 type  3   force =    -1.67845473   -1.91359804    0.71620977
     atom  120 type  3   force =    -1.67846195   -1.91359184    0.71620152
     atom  121 type  1   force =     0.12066847    1.14907020   -2.54517254
     atom  122 type  1   force =     0.12037204    1.15061207   -2.54593696
     atom  123 type  1   force =     0.12031707    1.15068239   -2.54602975
     atom  124 type  1   force =     0.12035995    1.15063303   -2.54597779
     atom  125 type  1   force =     0.12040914    1.15064417   -2.54599852
     atom  126 type  1   force =     0.12036825    1.15070713   -2.54595232
     atom  127 type  1   force =     0.12030608    1.15061669   -2.54593964
     atom  128 type  1   force =     0.12033105    1.15054667   -2.54601631
     atom  129 type  1   force =   -14.27243153   -1.63969660    2.01421267
     atom  130 type  1   force =   -14.27343649   -1.63976251    2.01260863
     atom  131 type  1   force =   -14.27350989   -1.63969877    2.01250687
     atom  132 type  1   force =   -14.27346844   -1.63973469    2.01256372
     atom  133 type  1   force =   -14.27341168   -1.63972669    2.01255594
     atom  134 type  1   force =   -14.27343455   -1.63965272    2.01259872
     atom  135 type  1   force =   -14.27350530   -1.63975550    2.01259301
     atom  136 type  1   force =   -14.27350138   -1.63980275    2.01253052
     atom  137 type  2   force =     2.68737676    1.12146442   -0.87803432
     atom  138 type  2   force =     2.68736123    1.12164843   -0.87818030
     atom  139 type  2   force =     2.68734306    1.12169013   -0.87822424
     atom  140 type  2   force =     2.68736686    1.12165971   -0.87818889
     atom  141 type  2   force =     2.68739916    1.12167605   -0.87826207
     atom  142 type  2   force =     2.68734282    1.12171592   -0.87817700
     atom  143 type  2   force =     2.68726487    1.12167431   -0.87814586
     atom  144 type  2   force =     2.68736255    1.12159331   -0.87824816
     atom  145 type  2   force =     5.25595278    0.26006397   -0.96551775
     atom  146 type  2   force =     5.25571250    0.26031600   -0.96584527
     atom  147 type  2   force =     5.25567379    0.26035588   -0.96590319
     atom  148 type  2   force =     5.25570458    0.26032498   -0.96586517
     atom  149 type  2   force =     5.25575168    0.26033450   -0.96590433
     atom  150 type  2   force =     5.25569923    0.26040168   -0.96584037
     atom  151 type  2   force =     5.25564786    0.26032764   -0.96583903
     atom  152 type  2   force =     5.25568429    0.26026540   -0.96592160
     atom  153 type  2   force =     3.27861967    5.22870746    2.50198335
     atom  154 type  2   force =     3.27855241    5.22876694    2.50208779
     atom  155 type  2   force =     3.27849395    5.22875350    2.50212696
     atom  156 type  2   force =     3.27861220    5.22863967    2.50198444
     atom  157 type  2   force =     3.27860757    5.22862512    2.50213898
     atom  158 type  2   force =     3.27858538    5.22869890    2.50207509
     atom  159 type  2   force =     3.27858250    5.22872508    2.50205377
     atom  160 type  2   force =     3.27860849    5.22870069    2.50208566
     atom  161 type  3   force =     0.74073781    2.14440220    1.26068346
     atom  162 type  3   force =     0.74071265    2.14442971    1.26070845
     atom  163 type  3   force =     0.74071430    2.14441620    1.26071039
     atom  164 type  3   force =     0.74073227    2.14439391    1.26066923
     atom  165 type  3   force =     0.74073834    2.14439502    1.26071510
     atom  166 type  3   force =     0.74072847    2.14440619    1.26070195
     atom  167 type  3   force =     0.74072667    2.14440905    1.26069851
     atom  168 type  3   force =     0.74073343    2.14440251    1.26070659
     atom  169 type  2   force =     6.17595723    1.54859769    0.63356058
     atom  170 type  2   force =     6.17635201    1.54841463    0.63331416
     atom  171 type  2   force =     6.17630928    1.54849824    0.63323213
     atom  172 type  2   force =     6.17630393    1.54848641    0.63332366
     atom  173 type  2   force =     6.17633441    1.54849022    0.63330235
     atom  174 type  2   force =     6.17634122    1.54848197    0.63333795
     atom  175 type  2   force =     6.17627208    1.54840298    0.63336636
     atom  176 type  2   force =     6.17630978    1.54844096    0.63332087
     atom  177 type  3   force =     1.97434041   -0.04591573    0.18345969
     atom  178 type  3   force =     1.97453702   -0.04602470    0.18331420
     atom  179 type  3   force =     1.97452233   -0.04600614    0.18329105
     atom  180 type  3   force =     1.97452635   -0.04601205    0.18331087
     atom  181 type  3   force =     1.97453596   -0.04600999    0.18330749
     atom  182 type  3   force =     1.97453540   -0.04600823    0.18331627
     atom  183 type  3   force =     1.97451826   -0.04602505    0.18331880
     atom  184 type  3   force =     1.97452580   -0.04602294    0.18330967
     atom  185 type  1   force =     0.87397362   -0.57380602    1.98674557
     atom  186 type  1   force =     0.87361372   -0.57396994    1.98647341
     atom  187 type  1   force =     0.87354315   -0.57394394    1.98640240
     atom  188 type  1   force =     0.87358592   -0.57396875    1.98645594
     atom  189 type  1   force =     0.87366418   -0.57396754    1.98642060
     atom  190 type  1   force =     0.87360074   -0.57382843    1.98652189
     atom  191 type  1   force =     0.87354171   -0.57395669    1.98646949
     atom  192 type  1   force =     0.87355686   -0.57400777    1.98637897
     atom  193 type  1   force =   -14.19182757    5.31526484    0.05368415
     atom  194 type  1   force =   -14.19222027    5.31468877    0.05316649
     atom  195 type  1   force =   -14.19230639    5.31472886    0.05307440
     atom  196 type  1   force =   -14.19226391    5.31470819    0.05314230
     atom  197 type  1   force =   -14.19219866    5.31470900    0.05313195
     atom  198 type  1   force =   -14.19221050    5.31482672    0.05320141
     atom  199 type  1   force =   -14.19228997    5.31469845    0.05315952
     atom  200 type  1   force =   -14.19229516    5.31466398    0.05308957
     atom  201 type  2   force =     0.21523284   -2.77203463   -3.53145465
     atom  202 type  2   force =     0.21538083   -2.77183977   -3.53161137
     atom  203 type  2   force =     0.21536864   -2.77177941   -3.53166489
     atom  204 type  2   force =     0.21538232   -2.77181124   -3.53162051
     atom  205 type  2   force =     0.21540360   -2.77178578   -3.53168899
     atom  206 type  2   force =     0.21537082   -2.77178528   -3.53161444
     atom  207 type  2   force =     0.21523813   -2.77183068   -3.53155041
     atom  208 type  2   force =     0.21538550   -2.77187387   -3.53164288
     atom  209 type  3   force =    -0.26893575   -1.65190955   -1.78758445
     atom  210 type  3   force =    -0.26883157   -1.65183288   -1.78766468
     atom  211 type  3   force =    -0.26883830   -1.65181556   -1.78768237
     atom  212 type  3   force =    -0.26883433   -1.65182454   -1.78766881
     atom  213 type  3   force =    -0.26882656   -1.65181861   -1.78768025
     atom  214 type  3   force =    -0.26883348   -1.65181911   -1.78766591
     atom  215 type  3   force =    -0.26885953   -1.65183471   -1.78765544
     atom  216 type  3   force =    -0.26883429   -1.65183839   -1.78767141
     atom  217 type  1   force =     5.25680877   -6.86284594   -1.77942558
     atom  218 type  1   force =     5.25693815   -6.86276388   -1.77952073
     atom  219 type  1   force =     5.25695153   -6.86268311   -1.77957118
     atom  220 type  1   force =     5.25695066   -6.86270883   -1.77951523
     atom  221 type  1   force =     5.25694291   -6.86267687   -1.77961732
     atom  222 type  1   force =     5.25692980   -6.86270105   -1.77952157
     atom  223 type  1   force =     5.25658732   -6.86275805   -1.77931986
     atom  224 type  1   force =     5.25696137   -6.86278560   -1.77952871
     atom  225 type  2   force =    -5.12457209   -4.86154626    1.83975787
     atom  226 type  2   force =    -5.12450436   -4.86161030    1.83967161
     atom  227 type  2   force =    -5.12458427   -4.86166241    1.83967122
     atom  228 type  2   force =    -5.12463072   -4.86160992    1.83974001
     atom  229 type  2   force =    -5.12455820   -4.86162386    1.83973948
     atom  230 type  2   force =    -5.12424007   -4.86168831    1.83999625
     atom  231 type  2   force =    -5.12457011   -4.86162205    1.83972249
     atom  232 type  2   force =    -5.12460371   -4.86159451    1.83968453
     atom  233 type  3   force =     1.67842570    1.91363513    0.71623753
     atom  234 type  3   force =     1.67846862    1.91358534    0.71619489
     atom  235 type  3   force =     1.67845049    1.91359657    0.71618387
     atom  236 type  3   force =     1.67844379    1.91360503    0.71620983
     atom  237 type  3   force =     1.67845583    1.91360034    0.71620748
     atom  238 type  3   force =     1.67846747    1.91360077    0.71621791
     atom  239 type  3   force =     1.67845113    1.91358889    0.71621372
     atom  240 type  3   force =     1.67844814    1.91359566    0.71620527
     atom  241 type  1   force =    -1.15027773    0.11998621    2.54463565
     atom  242 type  1   force =    -1.15063304    0.12037334    2.54600844
     atom  243 type  1   force =    -1.15071380    0.12045560    2.54589507
     atom  244 type  1   force =    -1.15062693    0.12036799    2.54592716
     atom  245 type  1   force =    -1.15056874    0.12038274    2.54595581
     atom  246 type  1   force =    -1.15061664    0.12040608    2.54596292
     atom  247 type  1   force =    -1.15066476    0.12035709    2.54596359
     atom  248 type  1   force =    -1.15064218    0.12030781    2.54595606
     atom  249 type  1   force =     1.64018016  -14.27321588   -2.01351383
     atom  250 type  1   force =     1.63974196  -14.27343980   -2.01254630
     atom  251 type  1   force =     1.63962269  -14.27337657   -2.01265360
     atom  252 type  1   force =     1.63973940  -14.27346084   -2.01261185
     atom  253 type  1   force =     1.63982994  -14.27344694   -2.01257691
     atom  254 type  1   force =     1.63975575  -14.27342709   -2.01256676
     atom  255 type  1   force =     1.63970121  -14.27345480   -2.01258989
     atom  256 type  1   force =     1.63973272  -14.27348768   -2.01259114
     atom  257 type  2   force =    -1.12150674    2.68713405    0.87815580
     atom  258 type  2   force =    -1.12167384    2.68735712    0.87828994
     atom  259 type  2   force =    -1.12169052    2.68740556    0.87815800
     atom  260 type  2   force =    -1.12166259    2.68737632    0.87814549
     atom  261 type  2   force =    -1.12162453    2.68738561    0.87818315
     atom  262 type  2   force =    -1.12164116    2.68741546    0.87817008
     atom  263 type  2   force =    -1.12168359    2.68734803    0.87818542
     atom  264 type  2   force =    -1.12171158    2.68729108    0.87817965
     atom  265 type  2   force =    -0.26004390    5.25542953    0.96557896
     atom  266 type  2   force =    -0.26033645    5.25572175    0.96593016
     atom  267 type  2   force =    -0.26037611    5.25576135    0.96582439
     atom  268 type  2   force =    -0.26032749    5.25571273    0.96581820
     atom  269 type  2   force =    -0.26027287    5.25573213    0.96585635
     atom  270 type  2   force =    -0.26031290    5.25574263    0.96585293
     atom  271 type  2   force =    -0.26035740    5.25569817    0.96585290
     atom  272 type  2   force =    -0.26034683    5.25565821    0.96585634
     atom  273 type  2   force =    -5.22861327    3.27849737   -2.50198859
     atom  274 type  2   force =    -5.22866430    3.27853525   -2.50191119
     atom  275 type  2   force =    -5.22872576    3.27861922   -2.50210728
     atom  276 type  2   force =    -5.22872100    3.27861559   -2.50211737
     atom  277 type  2   force =    -5.22867481    3.27862436   -2.50207977
     atom  278 type  2   force =    -5.22866896    3.27865060   -2.50209557
     atom  279 type  2   force =    -5.22873108    3.27857023   -2.50208269
     atom  280 type  2   force =    -5.22876476    3.27854753   -2.50208757
     atom  281 type  3   force =    -2.14438852    0.74071325   -1.26067582
     atom  282 type  3   force =    -2.14438200    0.74070673   -1.26065789
     atom  283 type  3   force =    -2.14441083    0.74073556   -1.26071127
     atom  284 type  3   force =    -2.14441171    0.74073644   -1.26071297
     atom  285 type  3   force =    -2.14439776    0.74074110   -1.26070446
     atom  286 type  3   force =    -2.14439724    0.74074027   -1.26070562
     atom  287 type  3   force =    -2.14441556    0.74072196   -1.26070562
     atom  288 type  3   force =    -2.14441635    0.74072250   -1.26070445
     atom  289 type  2   force =    -1.54841938    6.17627188   -0.63328070
     atom  290 type  2   force =    -1.54844138    6.17627147   -0.63323777
     atom  291 type  2   force =    -1.54847438    6.17634194   -0.63334937
     atom  292 type  2   force =    -1.54847162    6.17634178   -0.63335896
     atom  293 type  2   force =    -1.54844782    6.17634015   -0.63333122
     atom  294 type  2   force =    -1.54842583    6.17644954   -0.63340394
     atom  295 type  2   force =    -1.54847326    6.17630760   -0.63333202
     atom  296 type  2   force =    -1.54863785    6.17626206   -0.63339237
     atom  297 type  3   force =     0.04602269    1.97452497   -0.18330439
     atom  298 type  3   force =     0.04602511    1.97451908   -0.18329726
     atom  299 type  3   force =     0.04601425    1.97453269   -0.18331704
     atom  300 type  3   force =     0.04601316    1.97453422   -0.18331896
     atom  301 type  3   force =     0.04601822    1.97453423   -0.18331302
     atom  302 type  3   force =     0.04602678    1.97457463   -0.18334873
     atom  303 type  3   force =     0.04601444    1.97452689   -0.18331508
     atom  304 type  3   force =     0.04596236    1.97452821   -0.18333638
     atom  305 type  1   force =     0.57424806    0.87346781   -1.98665050
     atom  306 type  1   force =     0.57395308    0.87364488   -1.98636232
     atom  307 type  1   force =     0.57389484    0.87365021   -1.98649289
     atom  308 type  1   force =     0.57395422    0.87359704   -1.98651947
     atom  309 type  1   force =     0.57407572    0.87365266   -1.98645473
     atom  310 type  1   force =     0.57397950    0.87362708   -1.98646213
     atom  311 type  1   force =     0.57391016    0.87359203   -1.98648500
     atom  312 type  1   force =     0.57394606    0.87356164   -1.98646424
     atom  313 type  1   force =    -5.31434989  -14.19222237   -0.05348581
     atom  314 type  1   force =    -5.31470603  -14.19221270   -0.05310154
     atom  315 type  1   force =    -5.31480484  -14.19219225   -0.05319275
     atom  316 type  1   force =    -5.31471122  -14.19225695   -0.05319451
     atom  317 type  1   force =    -5.31455275  -14.19221446   -0.05314254
     atom  318 type  1   force =    -5.31469134  -14.19222312   -0.05314005
     atom  319 type  1   force =    -5.31475861  -14.19223975   -0.05317693
     atom  320 type  1   force =    -5.31471488  -14.19227142   -0.05316251
     atom  321 type  2   force =     2.77188230    0.21517008    3.53156302
     atom  322 type  2   force =     2.77179380    0.21537156    3.53168509
     atom  323 type  2   force =     2.77179524    0.21543074    3.53159326
     atom  324 type  2   force =     2.77182658    0.21539341    3.53158036
     atom  325 type  2   force =     2.77184290    0.21539427    3.53160949
     atom  326 type  2   force =     2.77182505    0.21544704    3.53158709
     atom  327 type  2   force =     2.77180446    0.21536896    3.53162316
     atom  328 type  2   force =     2.77172774    0.21523977    3.53159531
     atom  329 type  3   force =     1.65182484   -0.26888941    1.78762958
     atom  330 type  3   force =     1.65181990   -0.26883354    1.78767759
     atom  331 type  3   force =     1.65181998   -0.26881493    1.78766096
     atom  332 type  3   force =     1.65183076   -0.26883098    1.78765853
     atom  333 type  3   force =     1.65183182   -0.26883089    1.78766461
     atom  334 type  3   force =     1.65182563   -0.26882022    1.78766024
     atom  335 type  3   force =     1.65182404   -0.26883568    1.78767002
     atom  336 type  3   force =     1.65181568   -0.26887677    1.78766791
     atom  337 type  1   force =     6.86278193    5.25680362    1.77953642
     atom  338 type  1   force =     6.86270802    5.25691310    1.77959765
     atom  339 type  1   force =     6.86271347    5.25698660    1.77949421
     atom  340 type  1   force =     6.86273685    5.25696243    1.77947921
     atom  341 type  1   force =     6.86275020    5.25695933    1.77950642
     atom  342 type  1   force =     6.86273282    5.25706885    1.77944805
     atom  343 type  1   force =     6.86271653    5.25692888    1.77952408
     atom  344 type  1   force =     6.86246583    5.25674023    1.77940158
     atom  345 type  2   force =     4.86161973   -5.12455774   -1.83970286
     atom  346 type  2   force =     4.86191776   -5.12429690   -1.84091214
     atom  347 type  2   force =     4.86161760   -5.12456619   -1.83975054
     atom  348 type  2   force =     4.86152868   -5.12449402   -1.83979608
     atom  349 type  2   force =     4.86162984   -5.12453889   -1.83971854
     atom  350 type  2   force =     4.86167465   -5.12455709   -1.83972995
     atom  351 type  2   force =     4.86161122   -5.12459558   -1.83973624
     atom  352 type  2   force =     4.86158866   -5.12456780   -1.83972984
     atom  353 type  3   force =    -1.91359107    1.67845330   -0.71619349
     atom  354 type  3   force =    -1.91353283    1.67841786   -0.71618765
     atom  355 type  3   force =    -1.91359978    1.67845599   -0.71621676
     atom  356 type  3   force =    -1.91360601    1.67846175   -0.71621849
     atom  357 type  3   force =    -1.91359329    1.67846089   -0.71620855
     atom  358 type  3   force =    -1.91357557    1.67847414   -0.71621968
     atom  359 type  3   force =    -1.91360081    1.67844807   -0.71621215
     atom  360 type  3   force =    -1.91361677    1.67845021   -0.71621455
     atom  361 type  1   force =     1.15028474   -0.12056804    2.54570038
     atom  362 type  1   force =     1.15060615   -0.12037329    2.54597292
     atom  363 type  1   force =     1.15059915   -0.12020266    2.54587637
     atom  364 type  1   force =     1.15063752   -0.12035239    2.54594652
     atom  365 type  1   force =     1.15062934   -0.12034960    2.54593626
     atom  366 type  1   force =     1.15060801   -0.12032667    2.54594097
     atom  367 type  1   force =     1.15060977   -0.12038932    2.54601318
     atom  368 type  1   force =     1.15065958   -0.12047620    2.54599536
     atom  369 type  1   force =    -1.63974875   14.27356896   -2.01262499
     atom  370 type  1   force =    -1.63972371   14.27347213   -2.01259645
     atom  371 type  1   force =    -1.63990776   14.27326196   -2.01267791
     atom  372 type  1   force =    -1.63977055   14.27344496   -2.01256889
     atom  373 type  1   force =    -1.63976385   14.27343730   -2.01251749
     atom  374 type  1   force =    -1.63968076   14.27320900   -2.01257218
     atom  375 type  1   force =    -1.63974235   14.27347204   -2.01261482
     atom  376 type  1   force =    -1.63977414   14.27351113   -2.01261349
     atom  377 type  2   force =     1.12163706   -2.68697059    0.87790219
     atom  378 type  2   force =     1.12166232   -2.68735590    0.87818831
     atom  379 type  2   force =     1.12148213   -2.68731745    0.87804129
     atom  380 type  2   force =     1.12164589   -2.68736570    0.87818065
     atom  381 type  2   force =     1.12168809   -2.68737674    0.87820583
     atom  382 type  2   force =     1.12167733   -2.68735948    0.87822096
     atom  383 type  2   force =     1.12163947   -2.68735790    0.87818045
     atom  384 type  2   force =     1.12164522   -2.68736439    0.87817298
     atom  385 type  2   force =     0.26033389   -5.25549103    0.96576069
     atom  386 type  2   force =     0.26033471   -5.25569764    0.96585176
     atom  387 type  2   force =     0.26014045   -5.25574499    0.96572031
     atom  388 type  2   force =     0.26030661   -5.25571395    0.96585848
     atom  389 type  2   force =     0.26034436   -5.25573269    0.96589572
     atom  390 type  2   force =     0.26036458   -5.25573938    0.96591975
     atom  391 type  2   force =     0.26031159   -5.25569687    0.96584241
     atom  392 type  2   force =     0.26030646   -5.25569352    0.96583591
     atom  393 type  2   force =     5.22893394   -3.27816638   -2.50257219
     atom  394 type  2   force =     5.22870444   -3.27858229   -2.50206186
     atom  395 type  2   force =     5.22858011   -3.27854361   -2.50215359
     atom  396 type  2   force =     5.22869375   -3.27859876   -2.50209235
     atom  397 type  2   force =     5.22877059   -3.27860036   -2.50206675
     atom  398 type  2   force =     5.22871491   -3.27857383   -2.50205073
     atom  399 type  2   force =     5.22866947   -3.27858735   -2.50208538
     atom  400 type  2   force =     5.22869030   -3.27860700   -2.50209125
     atom  401 type  3   force =     2.14447591   -0.74067198   -1.26075875
     atom  402 type  3   force =     2.14440662   -0.74072606   -1.26069874
     atom  403 type  3   force =     2.14438049   -0.74072331   -1.26071543
     atom  404 type  3   force =     2.14440287   -0.74073250   -1.26070703
     atom  405 type  3   force =     2.14443676   -0.74073217   -1.26070264
     atom  406 type  3   force =     2.14440845   -0.74072474   -1.26069469
     atom  407 type  3   force =     2.14439447   -0.74072673   -1.26070715
     atom  408 type  3   force =     2.14440221   -0.74073273   -1.26070803
     atom  409 type  2   force =     1.54845429   -6.17632143   -0.63331115
     atom  410 type  2   force =     1.54801429   -6.17626737   -0.63447487
     atom  411 type  2   force =     1.54845949   -6.17631928   -0.63334697
     atom  412 type  2   force =     1.54837382   -6.17621631   -0.63341760
     atom  413 type  2   force =     1.54846264   -6.17629591   -0.63332705
     atom  414 type  2   force =     1.54848667   -6.17631512   -0.63333507
     atom  415 type  2   force =     1.54845578   -6.17636367   -0.63332877
     atom  416 type  2   force =     1.54843610   -6.17633099   -0.63331816
     atom  417 type  3   force =    -0.04601904   -1.97453064   -0.18330754
     atom  418 type  3   force =    -0.04611691   -1.97464140   -0.18351777
     atom  419 type  3   force =    -0.04601591   -1.97452870   -0.18331836
     atom  420 type  3   force =    -0.04603072   -1.97450613   -0.18332952
     atom  421 type  3   force =    -0.04601705   -1.97452093   -0.18331480
     atom  422 type  3   force =    -0.04601092   -1.97452739   -0.18331646
     atom  423 type  3   force =    -0.04601834   -1.97454773   -0.18331367
     atom  424 type  3   force =    -0.04602302   -1.97453286   -0.18330906
     atom  425 type  1   force =    -0.57390120   -0.87339517   -1.98650498
     atom  426 type  1   force =    -0.57394385   -0.87358141   -1.98647019
     atom  427 type  1   force =    -0.57409747   -0.87364816   -1.98655096
     atom  428 type  1   force =    -0.57399372   -0.87361118   -1.98646216
     atom  429 type  1   force =    -0.57391192   -0.87364108   -1.98641235
     atom  430 type  1   force =    -0.57387578   -0.87362027   -1.98629455
     atom  431 type  1   force =    -0.57399005   -0.87358045   -1.98648594
     atom  432 type  1   force =    -0.57399644   -0.87357864   -1.98650784
     atom  433 type  1   force =     5.31472768   14.19236771   -0.05317911
     atom  434 type  1   force =     5.31473069   14.19226732   -0.05316621
     atom  435 type  1   force =     5.31459184   14.19215193   -0.05321818
     atom  436 type  1   force =     5.31466882   14.19223176   -0.05314784
     atom  437 type  1   force =     5.31471829   14.19221414   -0.05308082
     atom  438 type  1   force =     5.31486986   14.19201538   -0.05297573
     atom  439 type  1   force =     5.31468986   14.19226376   -0.05318466
     atom  440 type  1   force =     5.31466633   14.19228758   -0.05319882
     atom  441 type  2   force =    -2.77206361   -0.21503258    3.53131603
     atom  442 type  2   force =    -2.77181900   -0.21538075    3.53161280
     atom  443 type  2   force =    -2.77198667   -0.21526729    3.53138394
     atom  444 type  2   force =    -2.77183084   -0.21537609    3.53161449
     atom  445 type  2   force =    -2.77181247   -0.21538260    3.53162186
     atom  446 type  2   force =    -2.77181061   -0.21537908    3.53163401
     atom  447 type  2   force =    -2.77182869   -0.21538516    3.53162306
     atom  448 type  2   force =    -2.77182705   -0.21538459    3.53161325
     atom  449 type  3   force =    -1.65186382    0.26885625    1.78757676
     atom  450 type  3   force =    -1.65183083    0.26883567    1.78766885
     atom  451 type  3   force =    -1.65187438    0.26888945    1.78763388
     atom  452 type  3   force =    -1.65182618    0.26883241    1.78766296
     atom  453 type  3   force =    -1.65182565    0.26883175    1.78766917
     atom  454 type  3   force =    -1.65182864    0.26883496    1.78766611
     atom  455 type  3   force =    -1.65182858    0.26883317    1.78766759
     atom  456 type  3   force =    -1.65182477    0.26882974    1.78767122
     atom  457 type  1   force =    -6.86285775   -5.25675840    1.77931567
     atom  458 type  1   force =    -6.86273596   -5.25693527    1.77950655
     atom  459 type  1   force =    -6.86332416   -5.25665316    1.77888232
     atom  460 type  1   force =    -6.86273645   -5.25694673    1.77952113
     atom  461 type  1   force =    -6.86274738   -5.25695863    1.77953890
     atom  462 type  1   force =    -6.86273063   -5.25697200    1.77952359
     atom  463 type  1   force =    -6.86271934   -5.25693601    1.77950958
     atom  464 type  1   force =    -6.86273003   -5.25692459    1.77952131
     atom  465 type  2   force =    -4.86157729    5.12452792   -1.83965425
     atom  466 type  2   force =    -4.86153533    5.12446898   -1.83958323
     atom  467 type  2   force =    -4.86163931    5.12458202   -1.83975600
     atom  468 type  2   force =    -4.86164619    5.12459066   -1.83976463
     atom  469 type  2   force =    -4.86160580    5.12459038   -1.83972840
     atom  470 type  2   force =    -4.86156740    5.12465350   -1.83976961
     atom  471 type  2   force =    -4.86164147    5.12454410   -1.83973500
     atom  472 type  2   force =    -4.86172002    5.12452732   -1.83975242
     atom  473 type  3   force =     1.91359604   -1.67845207   -0.71619912
     atom  474 type  3   force =     1.91375698   -1.67850227   -0.71640883
     atom  475 type  3   force =     1.91359483   -1.67845377   -0.71621664
     atom  476 type  3   force =     1.91357918   -1.67844020   -0.71622176
     atom  477 type  3   force =     1.91359858   -1.67844631   -0.71620823
     atom  478 type  3   force =     1.91361203   -1.67844844   -0.71621167
     atom  479 type  3   force =     1.91359233   -1.67846301   -0.71621187
     atom  480 type  3   force =     1.91358581   -1.67845545   -0.71621073
     atom  481 type  4   force =    -0.00589463   -0.00382782   -0.00640077
     atom  482 type  4   force =    -0.00000877   -0.00003294    0.00009103
     atom  483 type  4   force =    -0.00024984    0.00041179   -0.00036917
     atom  484 type  4   force =    -0.00000258    0.00003911   -0.00007686
     atom  485 type  4   force =     0.00012796    0.00007403   -0.00009472
     atom  486 type  4   force =     0.00000815    0.00019696   -0.00000065
     atom  487 type  4   force =    -0.00017074   -0.00006538    0.00010754
     atom  488 type  4   force =    -0.00004592   -0.00029565   -0.00005757
     atom  489 type  4   force =     0.00040160   -0.00018531   -0.00009974
     atom  490 type  4   force =     0.00000076    0.00062039    0.00074434
     atom  491 type  4   force =    -0.00018305    0.00010104   -0.00004967
     atom  492 type  4   force =    -0.00013237   -0.00000053   -0.00031436
     atom  493 type  4   force =     0.00055129    0.00054194    0.00016384
     atom  494 type  4   force =     0.00008022    0.00006148   -0.00001129
     atom  495 type  4   force =    -0.00026177   -0.00003990   -0.00019282
     atom  496 type  4   force =    -0.00009381   -0.00007530    0.00000477
     The local contribution  to forces
     atom    1 type  1   force =    -0.29890568    2.09022268    3.09863042
     atom    2 type  1   force =    -0.30105127    2.09130149    3.09820932
     atom    3 type  1   force =    -0.30097566    2.09120043    3.09834411
     atom    4 type  1   force =    -0.30102508    2.09126931    3.09822948
     atom    5 type  1   force =    -0.30106554    2.09126470    3.09824051
     atom    6 type  1   force =    -0.30105116    2.09124615    3.09820447
     atom    7 type  1   force =    -0.30098957    2.09130330    3.09818915
     atom    8 type  1   force =    -0.30102180    2.09131797    3.09823179
     atom    9 type  1   force =   -12.38538763   -0.72447412   -1.18112791
     atom   10 type  1   force =   -12.38469286   -0.72482469   -1.18120653
     atom   11 type  1   force =   -12.38535163   -0.72453123   -1.18113676
     atom   12 type  1   force =   -12.38534320   -0.72459336   -1.18098152
     atom   13 type  1   force =   -12.38538018   -0.72453046   -1.18115109
     atom   14 type  1   force =   -12.38538106   -0.72452602   -1.18111039
     atom   15 type  1   force =   -12.38536202   -0.72447897   -1.18113233
     atom   16 type  1   force =   -12.38532272   -0.72445650   -1.18118711
     atom   17 type  2   force =     2.48459232    1.16472996    0.87009404
     atom   18 type  2   force =     2.48402043    1.16080495    0.86823170
     atom   19 type  2   force =     2.48461376    1.16471288    0.87012024
     atom   20 type  2   force =     2.48465428    1.16468326    0.87017785
     atom   21 type  2   force =     2.48458877    1.16466130    0.87008575
     atom   22 type  2   force =     2.48456406    1.16470818    0.87012958
     atom   23 type  2   force =     2.48462896    1.16475427    0.87014105
     atom   24 type  2   force =     2.48464596    1.16472514    0.87010057
     atom   25 type  2   force =     5.07229013    0.27002831    0.95421874
     atom   26 type  2   force =     5.07326339    0.26813213    0.95379623
     atom   27 type  2   force =     5.07232108    0.26999957    0.95423460
     atom   28 type  2   force =     5.07235532    0.26996934    0.95431727
     atom   29 type  2   force =     5.07228558    0.26996560    0.95420275
     atom   30 type  2   force =     5.07228135    0.26999980    0.95424157
     atom   31 type  2   force =     5.07232896    0.27003827    0.95424879
     atom   32 type  2   force =     5.07234084    0.27002411    0.95421286
     atom   33 type  2   force =     3.24249878    5.17655784   -2.48077634
     atom   34 type  2   force =     3.24246377    5.17663494   -2.48070800
     atom   35 type  2   force =     3.24254161    5.17667082   -2.48068590
     atom   36 type  2   force =     3.24255429    5.17663769   -2.48074102
     atom   37 type  2   force =     3.24250034    5.17664486   -2.48074572
     atom   38 type  2   force =     3.24168946    5.17601556   -2.48096727
     atom   39 type  2   force =     3.24252274    5.17663832   -2.48072810
     atom   40 type  2   force =     3.24256295    5.17661585   -2.48067844
     atom   41 type  3   force =     0.76523521    2.07346907   -1.25223945
     atom   42 type  3   force =     0.76523082    2.07350086   -1.25221620
     atom   43 type  3   force =     0.76525151    2.07350332   -1.25220594
     atom   44 type  3   force =     0.76525147    2.07349756   -1.25221995
     atom   45 type  3   force =     0.76523793    2.07349973   -1.25222074
     atom   46 type  3   force =     0.76522211    2.07344824   -1.25225609
     atom   47 type  3   force =     0.76524693    2.07349917   -1.25221897
     atom   48 type  3   force =     0.76525639    2.07349741   -1.25220485
     atom   49 type  2   force =     5.97994313    1.44590274   -0.61189310
     atom   50 type  2   force =     5.97989747    1.44592305   -0.61182379
     atom   51 type  2   force =     5.97995128    1.44599725   -0.61184471
     atom   52 type  2   force =     5.98001674    1.44595382   -0.61190300
     atom   53 type  2   force =     5.97993636    1.44596110   -0.61189469
     atom   54 type  2   force =     5.98010406    1.44681637   -0.61225559
     atom   55 type  2   force =     5.97994496    1.44594494   -0.61187195
     atom   56 type  2   force =     5.97997177    1.44591339   -0.61183022
     atom   57 type  3   force =     1.90009262   -0.02514986   -0.18234130
     atom   58 type  3   force =     1.90008255   -0.02514987   -0.18232127
     atom   59 type  3   force =     1.90009191   -0.02512876   -0.18233256
     atom   60 type  3   force =     1.90012305   -0.02513931   -0.18234977
     atom   61 type  3   force =     1.90009062   -0.02513636   -0.18234203
     atom   62 type  3   force =     1.90010402   -0.02509660   -0.18238419
     atom   63 type  3   force =     1.90009122   -0.02514225   -0.18233819
     atom   64 type  3   force =     1.90009629   -0.02514953   -0.18232776
     atom   65 type  1   force =     0.41626325   -1.47132169   -2.59185081
     atom   66 type  1   force =     0.41665802   -1.47192549   -2.59220350
     atom   67 type  1   force =     0.41634058   -1.47137744   -2.59184978
     atom   68 type  1   force =     0.41635861   -1.47138835   -2.59174039
     atom   69 type  1   force =     0.41626157   -1.47140782   -2.59189157
     atom   70 type  1   force =     0.41628390   -1.47137336   -2.59184506
     atom   71 type  1   force =     0.41634207   -1.47133776   -2.59183232
     atom   72 type  1   force =     0.41634734   -1.47132897   -2.59187159
     atom   73 type  1   force =   -12.39102192    4.13262461   -0.55445042
     atom   74 type  1   force =   -12.39061429    4.13228468   -0.55467426
     atom   75 type  1   force =   -12.39095957    4.13254998   -0.55447930
     atom   76 type  1   force =   -12.39095757    4.13254043   -0.55432536
     atom   77 type  1   force =   -12.39101749    4.13255621   -0.55450607
     atom   78 type  1   force =   -12.39099616    4.13255967   -0.55446065
     atom   79 type  1   force =   -12.39096707    4.13259700   -0.55446560
     atom   80 type  1   force =   -12.39095660    4.13262488   -0.55451636
     atom   81 type  2   force =     0.33928997   -2.77029556    3.52073457
     atom   82 type  2   force =     0.32423904   -2.76811039    3.50860988
     atom   83 type  2   force =     0.33930618   -2.77031141    3.52076888
     atom   84 type  2   force =     0.33934761   -2.77034969    3.52081946
     atom   85 type  2   force =     0.33928859   -2.77035229    3.52074154
     atom   86 type  2   force =     0.33925968   -2.77032292    3.52078006
     atom   87 type  2   force =     0.33931844   -2.77026553    3.52078121
     atom   88 type  2   force =     0.33934460   -2.77029798    3.52074362
     atom   89 type  3   force =    -0.22130764   -1.59253460    1.78113006
     atom   90 type  3   force =    -0.22491445   -1.59174006    1.77778393
     atom   91 type  3   force =    -0.22489961   -1.59175499    1.77780577
     atom   92 type  3   force =    -0.22490973   -1.59174415    1.77779276
     atom   93 type  3   force =    -0.22492188   -1.59174763    1.77779501
     atom   94 type  3   force =    -0.22491461   -1.59175401    1.77778619
     atom   95 type  3   force =    -0.22490001   -1.59173972    1.77778614
     atom   96 type  3   force =    -0.22490679   -1.59173260    1.77779496
     atom   97 type  1   force =     4.59280145   -5.13433670    1.62103332
     atom   98 type  1   force =     4.59011305   -5.13718036    1.62599976
     atom   99 type  1   force =     4.59017133   -5.13724830    1.62609908
     atom  100 type  1   force =     4.59013151   -5.13720211    1.62603718
     atom  101 type  1   force =     4.59007403   -5.13722456    1.62606647
     atom  102 type  1   force =     4.59011592   -5.13724623    1.62600907
     atom  103 type  1   force =     4.59019987   -5.13717866    1.62599919
     atom  104 type  1   force =     4.59014248   -5.13714285    1.62605283
     atom  105 type  2   force =    -5.09697109   -4.89905744   -1.83871797
     atom  106 type  2   force =    -5.09717153   -4.89889455   -1.83855544
     atom  107 type  2   force =    -5.09712980   -4.89896215   -1.83850530
     atom  108 type  2   force =    -5.09709769   -4.89898375   -1.83861183
     atom  109 type  2   force =    -5.09713243   -4.89896911   -1.83859348
     atom  110 type  2   force =    -5.09716022   -4.89895666   -1.83862724
     atom  111 type  2   force =    -5.09711369   -4.89889671   -1.83864357
     atom  112 type  2   force =    -5.09711538   -4.89894229   -1.83860174
     atom  113 type  3   force =     1.62768067    1.85944556   -0.71019164
     atom  114 type  3   force =     1.62765757    1.85946654   -0.71016222
     atom  115 type  3   force =     1.62767746    1.85947572   -0.71016367
     atom  116 type  3   force =     1.62769201    1.85946022   -0.71018484
     atom  117 type  3   force =     1.62767303    1.85946621   -0.71018326
     atom  118 type  3   force =     1.62764060    1.85946815   -0.71025376
     atom  119 type  3   force =     1.62767509    1.85946845   -0.71018214
     atom  120 type  3   force =     1.62768205    1.85946206   -0.71017378
     atom  121 type  1   force =     0.30081433   -2.09005943    3.09745661
     atom  122 type  1   force =     0.30103035   -2.09127454    3.09819416
     atom  123 type  1   force =     0.30107947   -2.09133078    3.09827754
     atom  124 type  1   force =     0.30103875   -2.09129008    3.09823313
     atom  125 type  1   force =     0.30099384   -2.09129942    3.09825118
     atom  126 type  1   force =     0.30103676   -2.09136503    3.09820905
     atom  127 type  1   force =     0.30109207   -2.09128166    3.09819845
     atom  128 type  1   force =     0.30107030   -2.09120933    3.09827278
     atom  129 type  1   force =    12.38452729    0.72454599   -1.18273838
     atom  130 type  1   force =    12.38534895    0.72451776   -1.18116454
     atom  131 type  1   force =    12.38542010    0.72446064   -1.18106575
     atom  132 type  1   force =    12.38537914    0.72449775   -1.18112277
     atom  133 type  1   force =    12.38532718    0.72448773   -1.18111565
     atom  134 type  1   force =    12.38534654    0.72441225   -1.18115240
     atom  135 type  1   force =    12.38541231    0.72451471   -1.18114905
     atom  136 type  1   force =    12.38541171    0.72455952   -1.18108692
     atom  137 type  2   force =    -2.48461095   -1.16453774    0.86995714
     atom  138 type  2   force =    -2.48460419   -1.16471513    0.87010242
     atom  139 type  2   force =    -2.48458741   -1.16475395    0.87014501
     atom  140 type  2   force =    -2.48460996   -1.16472269    0.87011040
     atom  141 type  2   force =    -2.48464126   -1.16474068    0.87018311
     atom  142 type  2   force =    -2.48458225   -1.16477724    0.87009824
     atom  143 type  2   force =    -2.48451247   -1.16473896    0.87006848
     atom  144 type  2   force =    -2.48460712   -1.16466103    0.87016966
     atom  145 type  2   force =    -5.07256609   -0.26979077    0.95392076
     atom  146 type  2   force =    -5.07231402   -0.27000886    0.95421442
     atom  147 type  2   force =    -5.07227706   -0.27004372    0.95426952
     atom  148 type  2   force =    -5.07230764   -0.27001223    0.95423174
     atom  149 type  2   force =    -5.07235036   -0.27002414    0.95427106
     atom  150 type  2   force =    -5.07229737   -0.27008758    0.95420514
     atom  151 type  2   force =    -5.07225879   -0.27001553    0.95420720
     atom  152 type  2   force =    -5.07228696   -0.26995766    0.95429065
     atom  153 type  2   force =    -3.24254063   -5.17664563   -2.48064361
     atom  154 type  2   force =    -3.24247567   -5.17669384   -2.48074644
     atom  155 type  2   force =    -3.24242421   -5.17668961   -2.48078346
     atom  156 type  2   force =    -3.24253111   -5.17658533   -2.48064524
     atom  157 type  2   force =    -3.24252805   -5.17657054   -2.48079869
     atom  158 type  2   force =    -3.24250596   -5.17663947   -2.48073375
     atom  159 type  2   force =    -3.24250321   -5.17666250   -2.48071306
     atom  160 type  2   force =    -3.24252967   -5.17663696   -2.48074512
     atom  161 type  3   force =    -0.76525067   -2.07349644   -1.25220070
     atom  162 type  3   force =    -0.76522614   -2.07352204   -1.25222572
     atom  163 type  3   force =    -0.76522719   -2.07350956   -1.25222748
     atom  164 type  3   force =    -0.76524531   -2.07348798   -1.25218691
     atom  165 type  3   force =    -0.76525114   -2.07348855   -1.25223213
     atom  166 type  3   force =    -0.76524129   -2.07350037   -1.25221886
     atom  167 type  3   force =    -0.76523953   -2.07350305   -1.25221557
     atom  168 type  3   force =    -0.76524650   -2.07349581   -1.25222379
     atom  169 type  2   force =    -5.97964571   -1.44607617   -0.61211271
     atom  170 type  2   force =    -5.97996867   -1.44591041   -0.61186555
     atom  171 type  2   force =    -5.97992936   -1.44598964   -0.61178444
     atom  172 type  2   force =    -5.97992460   -1.44597597   -0.61187549
     atom  173 type  2   force =    -5.97995170   -1.44598238   -0.61185426
     atom  174 type  2   force =    -5.97996261   -1.44597301   -0.61188964
     atom  175 type  2   force =    -5.97989885   -1.44589880   -0.61191776
     atom  176 type  2   force =    -5.97992956   -1.44593477   -0.61187234
     atom  177 type  3   force =    -1.89990523    0.02504105   -0.18248434
     atom  178 type  3   force =    -1.90009842    0.02514762   -0.18234040
     atom  179 type  3   force =    -1.90008396    0.02512939   -0.18231758
     atom  180 type  3   force =    -1.90008729    0.02513522   -0.18233718
     atom  181 type  3   force =    -1.90009732    0.02513310   -0.18233383
     atom  182 type  3   force =    -1.90009638    0.02513137   -0.18234259
     atom  183 type  3   force =    -1.90007914    0.02514833   -0.18234504
     atom  184 type  3   force =    -1.90008729    0.02514587   -0.18233595
     atom  185 type  1   force =    -0.41666888    1.47119040   -2.59213739
     atom  186 type  1   force =    -0.41632542    1.47135461   -2.59186762
     atom  187 type  1   force =    -0.41625572    1.47133724   -2.59180392
     atom  188 type  1   force =    -0.41630062    1.47136083   -2.59185345
     atom  189 type  1   force =    -0.41637305    1.47135982   -2.59182164
     atom  190 type  1   force =    -0.41630240    1.47123491   -2.59192577
     atom  191 type  1   force =    -0.41625923    1.47134781   -2.59186506
     atom  192 type  1   force =    -0.41627103    1.47139228   -2.59177504
     atom  193 type  1   force =    12.39059923   -4.13314426   -0.55503546
     atom  194 type  1   force =    12.39096070   -4.13257266   -0.55449284
     atom  195 type  1   force =    12.39103916   -4.13260486   -0.55440487
     atom  196 type  1   force =    12.39100179   -4.13258527   -0.55447097
     atom  197 type  1   force =    12.39093982   -4.13258890   -0.55446020
     atom  198 type  1   force =    12.39098007   -4.13272351   -0.55452367
     atom  199 type  1   force =    12.39102673   -4.13257559   -0.55448879
     atom  200 type  1   force =    12.39103194   -4.13254537   -0.55441688
     atom  201 type  2   force =    -0.33917410    2.77048357    3.52059065
     atom  202 type  2   force =    -0.33930133    2.77031930    3.52074896
     atom  203 type  2   force =    -0.33928733    2.77026298    3.52080169
     atom  204 type  2   force =    -0.33930159    2.77029315    3.52075840
     atom  205 type  2   force =    -0.33932352    2.77026925    3.52082707
     atom  206 type  2   force =    -0.33928886    2.77026914    3.52075251
     atom  207 type  2   force =    -0.33916660    2.77030663    3.52068814
     atom  208 type  2   force =    -0.33930590    2.77035210    3.52078058
     atom  209 type  3   force =     0.22501168    1.59182376    1.77770793
     atom  210 type  3   force =     0.22491001    1.59174759    1.77778691
     atom  211 type  3   force =     0.22491670    1.59173048    1.77780426
     atom  212 type  3   force =     0.22491255    1.59173897    1.77779096
     atom  213 type  3   force =     0.22490488    1.59173352    1.77780259
     atom  214 type  3   force =     0.22491174    1.59173345    1.77778795
     atom  215 type  3   force =     0.22493812    1.59174861    1.77777782
     atom  216 type  3   force =     0.22491258    1.59175298    1.77779380
     atom  217 type  1   force =    -4.58999928    5.13729297    1.62592989
     atom  218 type  1   force =    -4.59011992    5.13722046    1.62602537
     atom  219 type  1   force =    -4.59013287    5.13714489    1.62607474
     atom  220 type  1   force =    -4.59013400    5.13716894    1.62601977
     atom  221 type  1   force =    -4.59012624    5.13714005    1.62612209
     atom  222 type  1   force =    -4.59011229    5.13716188    1.62602619
     atom  223 type  1   force =    -4.58977695    5.13718549    1.62582002
     atom  224 type  1   force =    -4.59014193    5.13724052    1.62603362
     atom  225 type  2   force =     5.09713755    4.89887319   -1.83863898
     atom  226 type  2   force =     5.09707286    4.89893843   -1.83855530
     atom  227 type  2   force =     5.09714841    4.89898720   -1.83855413
     atom  228 type  2   force =     5.09719297    4.89893355   -1.83862188
     atom  229 type  2   force =     5.09712433    4.89895072   -1.83862143
     atom  230 type  2   force =     5.09669435    4.89907796   -1.83881272
     atom  231 type  2   force =     5.09713402    4.89894526   -1.83860453
     atom  232 type  2   force =     5.09716743    4.89891984   -1.83856673
     atom  233 type  3   force =    -1.62764637   -1.85950505   -0.71020933
     atom  234 type  3   force =    -1.62768846   -1.85945577   -0.71016735
     atom  235 type  3   force =    -1.62767054   -1.85946681   -0.71015641
     atom  236 type  3   force =    -1.62766427   -1.85947541   -0.71018220
     atom  237 type  3   force =    -1.62767580   -1.85947062   -0.71017980
     atom  238 type  3   force =    -1.62768836   -1.85947082   -0.71019070
     atom  239 type  3   force =    -1.62767157   -1.85945929   -0.71018607
     atom  240 type  3   force =    -1.62766810   -1.85946604   -0.71017755
     atom  241 type  1   force =     2.09101048    0.30144038   -3.09697915
     atom  242 type  1   force =     2.09128852    0.30102801   -3.09826221
     atom  243 type  1   force =     2.09136476    0.30094695   -3.09815078
     atom  244 type  1   force =     2.09128657    0.30103485   -3.09818278
     atom  245 type  1   force =     2.09123244    0.30102117   -3.09821454
     atom  246 type  1   force =     2.09127554    0.30099458   -3.09821727
     atom  247 type  1   force =     2.09132243    0.30104310   -3.09821745
     atom  248 type  1   force =     2.09130044    0.30109372   -3.09821086
     atom  249 type  1   force =    -0.72493334   12.38515096    1.18205159
     atom  250 type  1   force =    -0.72450496   12.38535387    1.18110601
     atom  251 type  1   force =    -0.72438860   12.38529419    1.18121485
     atom  252 type  1   force =    -0.72449729   12.38537273    1.18116945
     atom  253 type  1   force =    -0.72458651   12.38535746    1.18113199
     atom  254 type  1   force =    -0.72451439   12.38533883    1.18112479
     atom  255 type  1   force =    -0.72446005   12.38536624    1.18114797
     atom  256 type  1   force =    -0.72449428   12.38539958    1.18114991
     atom  257 type  2   force =     1.16457364   -2.48439103   -0.87007721
     atom  258 type  2   force =     1.16473720   -2.48459999   -0.87020859
     atom  259 type  2   force =     1.16475387   -2.48464653   -0.87007970
     atom  260 type  2   force =     1.16472778   -2.48461834   -0.87006816
     atom  261 type  2   force =     1.16469016   -2.48462792   -0.87010434
     atom  262 type  2   force =     1.16470682   -2.48465778   -0.87009209
     atom  263 type  2   force =     1.16474840   -2.48459101   -0.87010743
     atom  264 type  2   force =     1.16477544   -2.48453549   -0.87010019
     atom  265 type  2   force =     0.26975484   -5.07205928   -0.95395959
     atom  266 type  2   force =     0.27002345   -5.07232124   -0.95429539
     atom  267 type  2   force =     0.27006358   -5.07235911   -0.95418976
     atom  268 type  2   force =     0.27001925   -5.07231261   -0.95418686
     atom  269 type  2   force =     0.26996367   -5.07233100   -0.95422455
     atom  270 type  2   force =     0.27000408   -5.07234287   -0.95422151
     atom  271 type  2   force =     0.27004822   -5.07230049   -0.95422068
     atom  272 type  2   force =     0.27003519   -5.07226113   -0.95422259
     atom  273 type  2   force =     5.17656044   -3.24242161    2.48064880
     atom  274 type  2   force =     5.17660359   -3.24245811    2.48057549
     atom  275 type  2   force =     5.17666243   -3.24253849    2.48076669
     atom  276 type  2   force =     5.17665998   -3.24253548    2.48077544
     atom  277 type  2   force =     5.17661733   -3.24254294    2.48073982
     atom  278 type  2   force =     5.17660858   -3.24256995    2.48075462
     atom  279 type  2   force =     5.17666685   -3.24249219    2.48074097
     atom  280 type  2   force =     5.17670254   -3.24247101    2.48074718
     atom  281 type  3   force =     2.07348269   -0.76522606    1.25219333
     atom  282 type  3   force =     2.07347639   -0.76522006    1.25217589
     atom  283 type  3   force =     2.07350436   -0.76524872    1.25222831
     atom  284 type  3   force =     2.07350592   -0.76524915    1.25222982
     atom  285 type  3   force =     2.07349170   -0.76525418    1.25222155
     atom  286 type  3   force =     2.07349129   -0.76525300    1.25222258
     atom  287 type  3   force =     2.07350930   -0.76523483    1.25222258
     atom  288 type  3   force =     2.07350992   -0.76523574    1.25222161
     atom  289 type  2   force =     1.44591316   -5.97989511    0.61183345
     atom  290 type  2   force =     1.44593334   -5.97989422    0.61179078
     atom  291 type  2   force =     1.44596585   -5.97995932    0.61190090
     atom  292 type  2   force =     1.44596408   -5.97995945    0.61190986
     atom  293 type  2   force =     1.44594154   -5.97995766    0.61188294
     atom  294 type  2   force =     1.44592083   -5.98006214    0.61195615
     atom  295 type  2   force =     1.44596511   -5.97992807    0.61188360
     atom  296 type  2   force =     1.44612644   -5.97989322    0.61194399
     atom  297 type  3   force =    -0.02514601   -1.90008675    0.18233081
     atom  298 type  3   force =    -0.02514825   -1.90008021    0.18232371
     atom  299 type  3   force =    -0.02513731   -1.90009365    0.18234331
     atom  300 type  3   force =    -0.02513627   -1.90009593    0.18234511
     atom  301 type  3   force =    -0.02514130   -1.90009514    0.18233929
     atom  302 type  3   force =    -0.02514955   -1.90013561    0.18237503
     atom  303 type  3   force =    -0.02513757   -1.90008855    0.18234135
     atom  304 type  3   force =    -0.02508694   -1.90008975    0.18236250
     atom  305 type  1   force =    -1.47160911   -0.41619061    2.59203398
     atom  306 type  1   force =    -1.47134844   -0.41635364    2.59176731
     atom  307 type  1   force =    -1.47128852   -0.41636030    2.59189248
     atom  308 type  1   force =    -1.47133940   -0.41630966    2.59191283
     atom  309 type  1   force =    -1.47145657   -0.41636591    2.59184897
     atom  310 type  1   force =    -1.47136632   -0.41634008    2.59185776
     atom  311 type  1   force =    -1.47130138   -0.41630408    2.59188127
     atom  312 type  1   force =    -1.47133703   -0.41627466    2.59186219
     atom  313 type  1   force =     4.13225083   12.39097377    0.55480505
     atom  314 type  1   force =     4.13258581   12.39095911    0.55442890
     atom  315 type  1   force =     4.13268057   12.39093126    0.55452319
     atom  316 type  1   force =     4.13259205   12.39099394    0.55452209
     atom  317 type  1   force =     4.13243944   12.39096291    0.55446836
     atom  318 type  1   force =     4.13257231   12.39095939    0.55446722
     atom  319 type  1   force =     4.13263878   12.39097639    0.55450448
     atom  320 type  1   force =     4.13259271   12.39101218    0.55449160
     atom  321 type  2   force =    -2.77035866   -0.33909943   -3.52069886
     atom  322 type  2   force =    -2.77027724   -0.33929148   -3.52082220
     atom  323 type  2   force =    -2.77028051   -0.33934625   -3.52073167
     atom  324 type  2   force =    -2.77030815   -0.33931328   -3.52071864
     atom  325 type  2   force =    -2.77032246   -0.33931321   -3.52074729
     atom  326 type  2   force =    -2.77030610   -0.33936505   -3.52072485
     atom  327 type  2   force =    -2.77028612   -0.33928967   -3.52076070
     atom  328 type  2   force =    -2.77020739   -0.33916435   -3.52073267
     atom  329 type  3   force =    -1.59174006    0.22496754   -1.77775261
     atom  330 type  3   force =    -1.59173445    0.22491164   -1.77779963
     atom  331 type  3   force =    -1.59173472    0.22489324   -1.77778288
     atom  332 type  3   force =    -1.59174564    0.22490946   -1.77778090
     atom  333 type  3   force =    -1.59174623    0.22490897   -1.77778682
     atom  334 type  3   force =    -1.59174026    0.22489854   -1.77778249
     atom  335 type  3   force =    -1.59173879    0.22491417   -1.77779226
     atom  336 type  3   force =    -1.59173045    0.22495496   -1.77778990
     atom  337 type  1   force =    -5.13724305   -4.58999061   -1.62603994
     atom  338 type  1   force =    -5.13716911   -4.59009780   -1.62610118
     atom  339 type  1   force =    -5.13717309   -4.59016708   -1.62599887
     atom  340 type  1   force =    -5.13719631   -4.59014329   -1.62598512
     atom  341 type  1   force =    -5.13720602   -4.59014071   -1.62601112
     atom  342 type  1   force =    -5.13718753   -4.59024674   -1.62595292
     atom  343 type  1   force =    -5.13717719   -4.59011164   -1.62602894
     atom  344 type  1   force =    -5.13693030   -4.58993008   -1.62590493
     atom  345 type  2   force =    -4.89894530    5.09712244    1.83858529
     atom  346 type  2   force =    -4.89922602    5.09685560    1.83974186
     atom  347 type  2   force =    -4.89894270    5.09713249    1.83863227
     atom  348 type  2   force =    -4.89885922    5.09706349    1.83867617
     atom  349 type  2   force =    -4.89895437    5.09710487    1.83860033
     atom  350 type  2   force =    -4.89900061    5.09712484    1.83861146
     atom  351 type  2   force =    -4.89893737    5.09715932    1.83861802
     atom  352 type  2   force =    -4.89891419    5.09713261    1.83861211
     atom  353 type  3   force =     1.85946146   -1.62767316    0.71016594
     atom  354 type  3   force =     1.85940424   -1.62763846    0.71016050
     atom  355 type  3   force =     1.85947028   -1.62767627    0.71018905
     atom  356 type  3   force =     1.85947620   -1.62768170    0.71019061
     atom  357 type  3   force =     1.85946385   -1.62768109    0.71018087
     atom  358 type  3   force =     1.85944593   -1.62769404    0.71019225
     atom  359 type  3   force =     1.85947109   -1.62766813    0.71018439
     atom  360 type  3   force =     1.85948715   -1.62767062    0.71018683
     atom  361 type  1   force =    -2.09099559   -0.30084940   -3.09798882
     atom  362 type  1   force =    -2.09126627   -0.30102877   -3.09822887
     atom  363 type  1   force =    -2.09127218   -0.30118833   -3.09813693
     atom  364 type  1   force =    -2.09129672   -0.30104789   -3.09820164
     atom  365 type  1   force =    -2.09128871   -0.30105090   -3.09819333
     atom  366 type  1   force =    -2.09126577   -0.30107510   -3.09819540
     atom  367 type  1   force =    -2.09126764   -0.30101272   -3.09826629
     atom  368 type  1   force =    -2.09132144   -0.30092759   -3.09825250
     atom  369 type  1   force =     0.72450617  -12.38546889    1.18117826
     atom  370 type  1   force =     0.72448226  -12.38538260    1.18115435
     atom  371 type  1   force =     0.72466070  -12.38519009    1.18123648
     atom  372 type  1   force =     0.72453214  -12.38535644    1.18112766
     atom  373 type  1   force =     0.72452508  -12.38535279    1.18107840
     atom  374 type  1   force =     0.72444311  -12.38513040    1.18113348
     atom  375 type  1   force =     0.72450053  -12.38538321    1.18117116
     atom  376 type  1   force =     0.72453138  -12.38542014    1.18117027
     atom  377 type  2   force =    -1.16469996    2.48423746   -0.86982989
     atom  378 type  2   force =    -1.16472727    2.48459796   -0.87011039
     atom  379 type  2   force =    -1.16455065    2.48456289   -0.86996685
     atom  380 type  2   force =    -1.16470996    2.48460961   -0.87010204
     atom  381 type  2   force =    -1.16475181    2.48461808   -0.87012845
     atom  382 type  2   force =    -1.16474167    2.48460243   -0.87014319
     atom  383 type  2   force =    -1.16470455    2.48460106   -0.87010201
     atom  384 type  2   force =    -1.16471083    2.48460647   -0.87009498
     atom  385 type  2   force =    -0.27001827    5.07212737   -0.95412954
     atom  386 type  2   force =    -0.27002572    5.07229863   -0.95421998
     atom  387 type  2   force =    -0.26984157    5.07235242   -0.95409568
     atom  388 type  2   force =    -0.26999474    5.07231566   -0.95422541
     atom  389 type  2   force =    -0.27003405    5.07233244   -0.95426300
     atom  390 type  2   force =    -0.27005285    5.07234199   -0.95428740
     atom  391 type  2   force =    -0.27000176    5.07229785   -0.95421043
     atom  392 type  2   force =    -0.26999799    5.07229253   -0.95420413
     atom  393 type  2   force =    -5.17685710    3.24212362    2.48120923
     atom  394 type  2   force =    -5.17664341    3.24250206    2.48072074
     atom  395 type  2   force =    -5.17652613    3.24246617    2.48081033
     atom  396 type  2   force =    -5.17663327    3.24252025    2.48075168
     atom  397 type  2   force =    -5.17670398    3.24252308    2.48072422
     atom  398 type  2   force =    -5.17665151    3.24249580    2.48070975
     atom  399 type  2   force =    -5.17661058    3.24250702    2.48074513
     atom  400 type  2   force =    -5.17663065    3.24252620    2.48075003
     atom  401 type  3   force =    -2.07356849    0.76518559    1.25227577
     atom  402 type  3   force =    -2.07350077    0.76523869    1.25221577
     atom  403 type  3   force =    -2.07347496    0.76523603    1.25223221
     atom  404 type  3   force =    -2.07349672    0.76524574    1.25222414
     atom  405 type  3   force =    -2.07353062    0.76524503    1.25221940
     atom  406 type  3   force =    -2.07350188    0.76523804    1.25221184
     atom  407 type  3   force =    -2.07348844    0.76523988    1.25222423
     atom  408 type  3   force =    -2.07349646    0.76524551    1.25222495
     atom  409 type  2   force =    -1.44594669    5.97993964    0.61186288
     atom  410 type  2   force =    -1.44554098    5.97986314    0.61299844
     atom  411 type  2   force =    -1.44595173    5.97993991    0.61189853
     atom  412 type  2   force =    -1.44586669    5.97984346    0.61196804
     atom  413 type  2   force =    -1.44595421    5.97991885    0.61187874
     atom  414 type  2   force =    -1.44597780    5.97993589    0.61188618
     atom  415 type  2   force =    -1.44594957    5.97997841    0.61188011
     atom  416 type  2   force =    -1.44592946    5.97994850    0.61186995
     atom  417 type  3   force =     0.02514215    1.90009227    0.18233394
     atom  418 type  3   force =     0.02523726    1.90020003    0.18254485
     atom  419 type  3   force =     0.02513904    1.90008966    0.18234457
     atom  420 type  3   force =     0.02515417    1.90006800    0.18235565
     atom  421 type  3   force =     0.02514005    1.90008220    0.18234112
     atom  422 type  3   force =     0.02513409    1.90008902    0.18234266
     atom  423 type  3   force =     0.02514140    1.90010916    0.18233988
     atom  424 type  3   force =     0.02514602    1.90009377    0.18233541
     atom  425 type  1   force =     1.47130748    0.41611679    2.59190990
     atom  426 type  1   force =     1.47133172    0.41629478    2.59186615
     atom  427 type  1   force =     1.47146876    0.41636416    2.59193520
     atom  428 type  1   force =     1.47138188    0.41632533    2.59185824
     atom  429 type  1   force =     1.47130682    0.41635049    2.59181211
     atom  430 type  1   force =     1.47127734    0.41632635    2.59169506
     atom  431 type  1   force =     1.47137517    0.41629358    2.59188034
     atom  432 type  1   force =     1.47137997    0.41629230    2.59190067
     atom  433 type  1   force =    -4.13259884  -12.39109741    0.55451332
     atom  434 type  1   force =    -4.13261206  -12.39100410    0.55449333
     atom  435 type  1   force =    -4.13248380  -12.39089826    0.55454104
     atom  436 type  1   force =    -4.13254739  -12.39097269    0.55447644
     atom  437 type  1   force =    -4.13259857  -12.39095268    0.55440925
     atom  438 type  1   force =    -4.13274801  -12.39075786    0.55430355
     atom  439 type  1   force =    -4.13257085  -12.39100401    0.55451153
     atom  440 type  1   force =    -4.13254768  -12.39102466    0.55452599
     atom  441 type  2   force =     2.77052687    0.33896819   -3.52045746
     atom  442 type  2   force =     2.77030062    0.33930016   -3.52075080
     atom  443 type  2   force =     2.77046120    0.33919556   -3.52052413
     atom  444 type  2   force =     2.77031124    0.33929733   -3.52075198
     atom  445 type  2   force =     2.77029511    0.33930324   -3.52076011
     atom  446 type  2   force =     2.77029099    0.33929984   -3.52077222
     atom  447 type  2   force =     2.77030965    0.33930428   -3.52076092
     atom  448 type  2   force =     2.77030850    0.33930349   -3.52075098
     atom  449 type  3   force =     1.59177876   -0.22493454   -1.77770016
     atom  450 type  3   force =     1.59174531   -0.22491382   -1.77779102
     atom  451 type  3   force =     1.59178826   -0.22496780   -1.77775644
     atom  452 type  3   force =     1.59174085   -0.22491078   -1.77778525
     atom  453 type  3   force =     1.59174021   -0.22490978   -1.77779126
     atom  454 type  3   force =     1.59174345   -0.22491342   -1.77778834
     atom  455 type  3   force =     1.59174327   -0.22491157   -1.77778993
     atom  456 type  3   force =     1.59173920   -0.22490779   -1.77779343
     atom  457 type  1   force =     5.13732006    4.58994756   -1.62582409
     atom  458 type  1   force =     5.13719433    4.59011879   -1.62601147
     atom  459 type  1   force =     5.13772704    4.58983155   -1.62540535
     atom  460 type  1   force =     5.13719600    4.59012725   -1.62602639
     atom  461 type  1   force =     5.13720264    4.59013963   -1.62604315
     atom  462 type  1   force =     5.13718874    4.59015139   -1.62602841
     atom  463 type  1   force =     5.13718090    4.59011853   -1.62601548
     atom  464 type  1   force =     5.13718772    4.59010806   -1.62602595
     atom  465 type  2   force =     4.89890700   -5.09709608    1.83853769
     atom  466 type  2   force =     4.89886791   -5.09704332    1.83847028
     atom  467 type  2   force =     4.89896214   -5.09714520    1.83863768
     atom  468 type  2   force =     4.89897040   -5.09715390    1.83864547
     atom  469 type  2   force =     4.89893092   -5.09715400    1.83861039
     atom  470 type  2   force =     4.89889399   -5.09721742    1.83865293
     atom  471 type  2   force =     4.89896700   -5.09711020    1.83861685
     atom  472 type  2   force =     4.89904245   -5.09709434    1.83863495
     atom  473 type  3   force =    -1.85946631    1.62767209    0.71017158
     atom  474 type  3   force =    -1.85962550    1.62772141    0.71037740
     atom  475 type  3   force =    -1.85946531    1.62767411    0.71018889
     atom  476 type  3   force =    -1.85944963    1.62766023    0.71019385
     atom  477 type  3   force =    -1.85946896    1.62766674    0.71018053
     atom  478 type  3   force =    -1.85948232    1.62766854    0.71018399
     atom  479 type  3   force =    -1.85946280    1.62768291    0.71018410
     atom  480 type  3   force =    -1.85945627    1.62767563    0.71018309
     atom  481 type  4   force =     0.00561429    0.00362302    0.00594820
     atom  482 type  4   force =     0.00000240    0.00002927   -0.00009116
     atom  483 type  4   force =     0.00021386   -0.00039096    0.00033746
     atom  484 type  4   force =     0.00000124   -0.00003303    0.00007912
     atom  485 type  4   force =    -0.00011866   -0.00006744    0.00008544
     atom  486 type  4   force =    -0.00000785   -0.00019445    0.00001007
     atom  487 type  4   force =     0.00016812    0.00005139   -0.00009697
     atom  488 type  4   force =     0.00004510    0.00028787    0.00005454
     atom  489 type  4   force =    -0.00035756    0.00017860    0.00007393
     atom  490 type  4   force =     0.00004802   -0.00052066   -0.00068081
     atom  491 type  4   force =     0.00016901   -0.00009589    0.00005325
     atom  492 type  4   force =     0.00012791   -0.00001117    0.00029972
     atom  493 type  4   force =    -0.00051801   -0.00054025   -0.00013452
     atom  494 type  4   force =    -0.00007972   -0.00006579    0.00001525
     atom  495 type  4   force =     0.00023346    0.00004840    0.00016684
     atom  496 type  4   force =     0.00008953    0.00008305   -0.00000250
     The core correction contribution to forces
     atom    1 type  1   force =    -0.00311649    0.00438709    0.00260942
     atom    2 type  1   force =    -0.00311518    0.00438511    0.00260955
     atom    3 type  1   force =    -0.00311523    0.00438511    0.00260951
     atom    4 type  1   force =    -0.00311521    0.00438514    0.00260957
     atom    5 type  1   force =    -0.00311518    0.00438513    0.00260956
     atom    6 type  1   force =    -0.00311520    0.00438515    0.00260958
     atom    7 type  1   force =    -0.00311517    0.00438508    0.00260955
     atom    8 type  1   force =    -0.00311520    0.00438509    0.00260954
     atom    9 type  1   force =     0.01340074    0.00481509    0.00489607
     atom   10 type  1   force =     0.01340000    0.00481529    0.00489594
     atom   11 type  1   force =     0.01340075    0.00481511    0.00489610
     atom   12 type  1   force =     0.01340066    0.00481505    0.00489606
     atom   13 type  1   force =     0.01340077    0.00481513    0.00489610
     atom   14 type  1   force =     0.01340076    0.00481510    0.00489609
     atom   15 type  1   force =     0.01340073    0.00481508    0.00489607
     atom   16 type  1   force =     0.01340080    0.00481514    0.00489612
     atom   17 type  2   force =    -0.00643116    0.00179768    0.00006801
     atom   18 type  2   force =    -0.00642312    0.00176203    0.00004969
     atom   19 type  2   force =    -0.00643120    0.00179769    0.00006801
     atom   20 type  2   force =    -0.00643127    0.00179769    0.00006800
     atom   21 type  2   force =    -0.00643116    0.00179769    0.00006801
     atom   22 type  2   force =    -0.00643114    0.00179768    0.00006798
     atom   23 type  2   force =    -0.00643119    0.00179767    0.00006801
     atom   24 type  2   force =    -0.00643119    0.00179767    0.00006802
     atom   25 type  2   force =     0.00302126   -0.00019481    0.00027350
     atom   26 type  2   force =     0.00302351   -0.00019605    0.00027507
     atom   27 type  2   force =     0.00302118   -0.00019474    0.00027353
     atom   28 type  2   force =     0.00302114   -0.00019483    0.00027352
     atom   29 type  2   force =     0.00302124   -0.00019473    0.00027352
     atom   30 type  2   force =     0.00302124   -0.00019478    0.00027353
     atom   31 type  2   force =     0.00302121   -0.00019480    0.00027352
     atom   32 type  2   force =     0.00302120   -0.00019476    0.00027354
     atom   33 type  2   force =    -0.00233797    0.00277925    0.00032851
     atom   34 type  2   force =    -0.00233788    0.00277912    0.00032851
     atom   35 type  2   force =    -0.00233797    0.00277916    0.00032848
     atom   36 type  2   force =    -0.00233801    0.00277919    0.00032850
     atom   37 type  2   force =    -0.00233795    0.00277917    0.00032851
     atom   38 type  2   force =    -0.00234292    0.00277254    0.00032880
     atom   39 type  2   force =    -0.00233797    0.00277917    0.00032848
     atom   40 type  2   force =    -0.00233798    0.00277915    0.00032852
     atom   41 type  3   force =     0.00000000    0.00000000    0.00000000
     atom   42 type  3   force =     0.00000000    0.00000000    0.00000000
     atom   43 type  3   force =     0.00000000    0.00000000    0.00000000
     atom   44 type  3   force =     0.00000000    0.00000000    0.00000000
     atom   45 type  3   force =     0.00000000    0.00000000    0.00000000
     atom   46 type  3   force =     0.00000000    0.00000000    0.00000000
     atom   47 type  3   force =     0.00000000    0.00000000    0.00000000
     atom   48 type  3   force =     0.00000000    0.00000000    0.00000000
     atom   49 type  2   force =     0.00087744   -0.00157213    0.00038511
     atom   50 type  2   force =     0.00087754   -0.00157218    0.00038514
     atom   51 type  2   force =     0.00087746   -0.00157219    0.00038512
     atom   52 type  2   force =     0.00087731   -0.00157212    0.00038512
     atom   53 type  2   force =     0.00087749   -0.00157214    0.00038512
     atom   54 type  2   force =     0.00088638   -0.00156249    0.00038391
     atom   55 type  2   force =     0.00087749   -0.00157217    0.00038514
     atom   56 type  2   force =     0.00087745   -0.00157215    0.00038513
     atom   57 type  3   force =     0.00000000    0.00000000    0.00000000
     atom   58 type  3   force =     0.00000000    0.00000000    0.00000000
     atom   59 type  3   force =     0.00000000    0.00000000    0.00000000
     atom   60 type  3   force =     0.00000000    0.00000000    0.00000000
     atom   61 type  3   force =     0.00000000    0.00000000    0.00000000
     atom   62 type  3   force =     0.00000000    0.00000000    0.00000000
     atom   63 type  3   force =     0.00000000    0.00000000    0.00000000
     atom   64 type  3   force =     0.00000000    0.00000000    0.00000000
     atom   65 type  1   force =    -0.00325622   -0.00412430   -0.00297493
     atom   66 type  1   force =    -0.00325590   -0.00412371   -0.00297464
     atom   67 type  1   force =    -0.00325623   -0.00412423   -0.00297488
     atom   68 type  1   force =    -0.00325627   -0.00412433   -0.00297495
     atom   69 type  1   force =    -0.00325619   -0.00412420   -0.00297484
     atom   70 type  1   force =    -0.00325621   -0.00412428   -0.00297490
     atom   71 type  1   force =    -0.00325625   -0.00412430   -0.00297493
     atom   72 type  1   force =    -0.00325620   -0.00412423   -0.00297487
     atom   73 type  1   force =     0.01284251   -0.00666366   -0.00256028
     atom   74 type  1   force =     0.01284235   -0.00666323   -0.00256036
     atom   75 type  1   force =     0.01284246   -0.00666362   -0.00256026
     atom   76 type  1   force =     0.01284247   -0.00666367   -0.00256027
     atom   77 type  1   force =     0.01284253   -0.00666365   -0.00256027
     atom   78 type  1   force =     0.01284250   -0.00666365   -0.00256028
     atom   79 type  1   force =     0.01284247   -0.00666364   -0.00256027
     atom   80 type  1   force =     0.01284251   -0.00666365   -0.00256027
     atom   81 type  2   force =    -0.00172112   -0.00232289    0.00022361
     atom   82 type  2   force =    -0.00181434   -0.00237166    0.00018318
     atom   83 type  2   force =    -0.00172116   -0.00232286    0.00022362
     atom   84 type  2   force =    -0.00172116   -0.00232283    0.00022361
     atom   85 type  2   force =    -0.00172113   -0.00232282    0.00022360
     atom   86 type  2   force =    -0.00172111   -0.00232286    0.00022362
     atom   87 type  2   force =    -0.00172117   -0.00232290    0.00022362
     atom   88 type  2   force =    -0.00172121   -0.00232290    0.00022362
     atom   89 type  3   force =     0.00000000    0.00000000    0.00000000
     atom   90 type  3   force =     0.00000000    0.00000000    0.00000000
     atom   91 type  3   force =     0.00000000    0.00000000    0.00000000
     atom   92 type  3   force =     0.00000000    0.00000000    0.00000000
     atom   93 type  3   force =     0.00000000    0.00000000    0.00000000
     atom   94 type  3   force =     0.00000000    0.00000000    0.00000000
     atom   95 type  3   force =     0.00000000    0.00000000    0.00000000
     atom   96 type  3   force =     0.00000000    0.00000000    0.00000000
     atom   97 type  1   force =    -0.00401463    0.01084038   -0.00100267
     atom   98 type  1   force =    -0.00403857    0.01083132   -0.00097750
     atom   99 type  1   force =    -0.00403861    0.01083138   -0.00097752
     atom  100 type  1   force =    -0.00403858    0.01083134   -0.00097751
     atom  101 type  1   force =    -0.00403856    0.01083136   -0.00097751
     atom  102 type  1   force =    -0.00403858    0.01083136   -0.00097750
     atom  103 type  1   force =    -0.00403862    0.01083132   -0.00097750
     atom  104 type  1   force =    -0.00403859    0.01083132   -0.00097751
     atom  105 type  2   force =    -0.00229037   -0.00380037   -0.00000105
     atom  106 type  2   force =    -0.00229025   -0.00380056   -0.00000102
     atom  107 type  2   force =    -0.00229025   -0.00380053   -0.00000106
     atom  108 type  2   force =    -0.00229028   -0.00380052   -0.00000108
     atom  109 type  2   force =    -0.00229025   -0.00380050   -0.00000109
     atom  110 type  2   force =    -0.00229026   -0.00380054   -0.00000108
     atom  111 type  2   force =    -0.00229026   -0.00380058   -0.00000108
     atom  112 type  2   force =    -0.00229027   -0.00380056   -0.00000106
     atom  113 type  3   force =     0.00000000    0.00000000    0.00000000
     atom  114 type  3   force =     0.00000000    0.00000000    0.00000000
     atom  115 type  3   force =     0.00000000    0.00000000    0.00000000
     atom  116 type  3   force =     0.00000000    0.00000000    0.00000000
     atom  117 type  3   force =     0.00000000    0.00000000    0.00000000
     atom  118 type  3   force =     0.00000000    0.00000000    0.00000000
     atom  119 type  3   force =     0.00000000    0.00000000    0.00000000
     atom  120 type  3   force =     0.00000000    0.00000000    0.00000000
     atom  121 type  1   force =     0.00311592   -0.00438799    0.00260966
     atom  122 type  1   force =     0.00311520   -0.00438514    0.00260957
     atom  123 type  1   force =     0.00311515   -0.00438502    0.00260949
     atom  124 type  1   force =     0.00311519   -0.00438512    0.00260955
     atom  125 type  1   force =     0.00311520   -0.00438508    0.00260953
     atom  126 type  1   force =     0.00311526   -0.00438513    0.00260957
     atom  127 type  1   force =     0.00311518   -0.00438519    0.00260959
     atom  128 type  1   force =     0.00311519   -0.00438515    0.00260956
     atom  129 type  1   force =    -0.01339939   -0.00481427    0.00489608
     atom  130 type  1   force =    -0.01340076   -0.00481511    0.00489609
     atom  131 type  1   force =    -0.01340076   -0.00481507    0.00489608
     atom  132 type  1   force =    -0.01340075   -0.00481509    0.00489609
     atom  133 type  1   force =    -0.01340072   -0.00481508    0.00489607
     atom  134 type  1   force =    -0.01340074   -0.00481513    0.00489614
     atom  135 type  1   force =    -0.01340080   -0.00481513    0.00489611
     atom  136 type  1   force =    -0.01340077   -0.00481511    0.00489610
     atom  137 type  2   force =     0.00643130   -0.00179786    0.00006798
     atom  138 type  2   force =     0.00643117   -0.00179768    0.00006800
     atom  139 type  2   force =     0.00643115   -0.00179765    0.00006800
     atom  140 type  2   force =     0.00643118   -0.00179767    0.00006802
     atom  141 type  2   force =     0.00643119   -0.00179768    0.00006804
     atom  142 type  2   force =     0.00643124   -0.00179761    0.00006801
     atom  143 type  2   force =     0.00643114   -0.00179772    0.00006802
     atom  144 type  2   force =     0.00643120   -0.00179773    0.00006802
     atom  145 type  2   force =    -0.00302137    0.00019422    0.00027391
     atom  146 type  2   force =    -0.00302124    0.00019477    0.00027351
     atom  147 type  2   force =    -0.00302127    0.00019485    0.00027349
     atom  148 type  2   force =    -0.00302123    0.00019477    0.00027353
     atom  149 type  2   force =    -0.00302122    0.00019480    0.00027352
     atom  150 type  2   force =    -0.00302115    0.00019475    0.00027352
     atom  151 type  2   force =    -0.00302130    0.00019475    0.00027355
     atom  152 type  2   force =    -0.00302124    0.00019479    0.00027354
     atom  153 type  2   force =     0.00233798   -0.00277912    0.00032845
     atom  154 type  2   force =     0.00233793   -0.00277897    0.00032851
     atom  155 type  2   force =     0.00233779   -0.00277913    0.00032856
     atom  156 type  2   force =     0.00233798   -0.00277929    0.00032843
     atom  157 type  2   force =     0.00233797   -0.00277928    0.00032849
     atom  158 type  2   force =     0.00233797   -0.00277917    0.00032851
     atom  159 type  2   force =     0.00233796   -0.00277914    0.00032852
     atom  160 type  2   force =     0.00233794   -0.00277913    0.00032849
     atom  161 type  3   force =     0.00000000    0.00000000    0.00000000
     atom  162 type  3   force =     0.00000000    0.00000000    0.00000000
     atom  163 type  3   force =     0.00000000    0.00000000    0.00000000
     atom  164 type  3   force =     0.00000000    0.00000000    0.00000000
     atom  165 type  3   force =     0.00000000    0.00000000    0.00000000
     atom  166 type  3   force =     0.00000000    0.00000000    0.00000000
     atom  167 type  3   force =     0.00000000    0.00000000    0.00000000
     atom  168 type  3   force =     0.00000000    0.00000000    0.00000000
     atom  169 type  2   force =    -0.00087874    0.00157247    0.00038512
     atom  170 type  2   force =    -0.00087742    0.00157214    0.00038517
     atom  171 type  2   force =    -0.00087748    0.00157219    0.00038512
     atom  172 type  2   force =    -0.00087749    0.00157219    0.00038513
     atom  173 type  2   force =    -0.00087744    0.00157219    0.00038513
     atom  174 type  2   force =    -0.00087750    0.00157218    0.00038512
     atom  175 type  2   force =    -0.00087760    0.00157206    0.00038511
     atom  176 type  2   force =    -0.00087748    0.00157214    0.00038513
     atom  177 type  3   force =     0.00000000    0.00000000    0.00000000
     atom  178 type  3   force =     0.00000000    0.00000000    0.00000000
     atom  179 type  3   force =     0.00000000    0.00000000    0.00000000
     atom  180 type  3   force =     0.00000000    0.00000000    0.00000000
     atom  181 type  3   force =     0.00000000    0.00000000    0.00000000
     atom  182 type  3   force =     0.00000000    0.00000000    0.00000000
     atom  183 type  3   force =     0.00000000    0.00000000    0.00000000
     atom  184 type  3   force =     0.00000000    0.00000000    0.00000000
     atom  185 type  1   force =     0.00325656    0.00412407   -0.00297484
     atom  186 type  1   force =     0.00325621    0.00412424   -0.00297488
     atom  187 type  1   force =     0.00325623    0.00412433   -0.00297495
     atom  188 type  1   force =     0.00325623    0.00412427   -0.00297490
     atom  189 type  1   force =     0.00325626    0.00412432   -0.00297496
     atom  190 type  1   force =     0.00325634    0.00412441   -0.00297495
     atom  191 type  1   force =     0.00325619    0.00412426   -0.00297488
     atom  192 type  1   force =     0.00325620    0.00412425   -0.00297490
     atom  193 type  1   force =    -0.01284231    0.00666329   -0.00256038
     atom  194 type  1   force =    -0.01284247    0.00666362   -0.00256027
     atom  195 type  1   force =    -0.01284254    0.00666370   -0.00256030
     atom  196 type  1   force =    -0.01284251    0.00666366   -0.00256027
     atom  197 type  1   force =    -0.01284246    0.00666365   -0.00256028
     atom  198 type  1   force =    -0.01284224    0.00666347   -0.00256021
     atom  199 type  1   force =    -0.01284253    0.00666365   -0.00256027
     atom  200 type  1   force =    -0.01284250    0.00666364   -0.00256027
     atom  201 type  2   force =     0.00172082    0.00232230    0.00022357
     atom  202 type  2   force =     0.00172114    0.00232287    0.00022361
     atom  203 type  2   force =     0.00172117    0.00232291    0.00022363
     atom  204 type  2   force =     0.00172114    0.00232285    0.00022362
     atom  205 type  2   force =     0.00172117    0.00232291    0.00022361
     atom  206 type  2   force =     0.00172118    0.00232289    0.00022360
     atom  207 type  2   force =     0.00172096    0.00232280    0.00022360
     atom  208 type  2   force =     0.00172114    0.00232285    0.00022360
     atom  209 type  3   force =     0.00000000    0.00000000    0.00000000
     atom  210 type  3   force =     0.00000000    0.00000000    0.00000000
     atom  211 type  3   force =     0.00000000    0.00000000    0.00000000
     atom  212 type  3   force =     0.00000000    0.00000000    0.00000000
     atom  213 type  3   force =     0.00000000    0.00000000    0.00000000
     atom  214 type  3   force =     0.00000000    0.00000000    0.00000000
     atom  215 type  3   force =     0.00000000    0.00000000    0.00000000
     atom  216 type  3   force =     0.00000000    0.00000000    0.00000000
     atom  217 type  1   force =     0.00403849   -0.01083145   -0.00097751
     atom  218 type  1   force =     0.00403859   -0.01083136   -0.00097751
     atom  219 type  1   force =     0.00403859   -0.01083130   -0.00097751
     atom  220 type  1   force =     0.00403857   -0.01083132   -0.00097751
     atom  221 type  1   force =     0.00403858   -0.01083130   -0.00097750
     atom  222 type  1   force =     0.00403858   -0.01083130   -0.00097750
     atom  223 type  1   force =     0.00403850   -0.01083163   -0.00097755
     atom  224 type  1   force =     0.00403859   -0.01083137   -0.00097751
     atom  225 type  2   force =     0.00229026    0.00380059   -0.00000106
     atom  226 type  2   force =     0.00229032    0.00380056   -0.00000108
     atom  227 type  2   force =     0.00229024    0.00380052   -0.00000109
     atom  228 type  2   force =     0.00229020    0.00380055   -0.00000108
     atom  229 type  2   force =     0.00229027    0.00380057   -0.00000107
     atom  230 type  2   force =     0.00228883    0.00380184    0.00000096
     atom  231 type  2   force =     0.00229024    0.00380053   -0.00000106
     atom  232 type  2   force =     0.00229020    0.00380054   -0.00000108
     atom  233 type  3   force =     0.00000000    0.00000000    0.00000000
     atom  234 type  3   force =     0.00000000    0.00000000    0.00000000
     atom  235 type  3   force =     0.00000000    0.00000000    0.00000000
     atom  236 type  3   force =     0.00000000    0.00000000    0.00000000
     atom  237 type  3   force =     0.00000000    0.00000000    0.00000000
     atom  238 type  3   force =     0.00000000    0.00000000    0.00000000
     atom  239 type  3   force =     0.00000000    0.00000000    0.00000000
     atom  240 type  3   force =     0.00000000    0.00000000    0.00000000
     atom  241 type  1   force =     0.00438584    0.00311546   -0.00261024
     atom  242 type  1   force =     0.00438510    0.00311520   -0.00260955
     atom  243 type  1   force =     0.00438506    0.00311520   -0.00260956
     atom  244 type  1   force =     0.00438513    0.00311520   -0.00260956
     atom  245 type  1   force =     0.00438517    0.00311523   -0.00260960
     atom  246 type  1   force =     0.00438512    0.00311519   -0.00260955
     atom  247 type  1   force =     0.00438510    0.00311519   -0.00260954
     atom  248 type  1   force =     0.00438512    0.00311519   -0.00260955
     atom  249 type  1   force =     0.00481510   -0.01340065   -0.00489624
     atom  250 type  1   force =     0.00481508   -0.01340073   -0.00489608
     atom  251 type  1   force =     0.00481507   -0.01340070   -0.00489606
     atom  252 type  1   force =     0.00481511   -0.01340075   -0.00489609
     atom  253 type  1   force =     0.00481514   -0.01340076   -0.00489613
     atom  254 type  1   force =     0.00481510   -0.01340074   -0.00489608
     atom  255 type  1   force =     0.00481510   -0.01340075   -0.00489607
     atom  256 type  1   force =     0.00481510   -0.01340075   -0.00489609
     atom  257 type  2   force =     0.00179769    0.00643097   -0.00006800
     atom  258 type  2   force =     0.00179765    0.00643122   -0.00006800
     atom  259 type  2   force =     0.00179765    0.00643125   -0.00006801
     atom  260 type  2   force =     0.00179767    0.00643119   -0.00006800
     atom  261 type  2   force =     0.00179770    0.00643121   -0.00006799
     atom  262 type  2   force =     0.00179769    0.00643119   -0.00006800
     atom  263 type  2   force =     0.00179766    0.00643118   -0.00006801
     atom  264 type  2   force =     0.00179766    0.00643116   -0.00006801
     atom  265 type  2   force =    -0.00019452   -0.00302164   -0.00027369
     atom  266 type  2   force =    -0.00019476   -0.00302118   -0.00027355
     atom  267 type  2   force =    -0.00019477   -0.00302117   -0.00027348
     atom  268 type  2   force =    -0.00019478   -0.00302122   -0.00027350
     atom  269 type  2   force =    -0.00019475   -0.00302119   -0.00027354
     atom  270 type  2   force =    -0.00019480   -0.00302122   -0.00027352
     atom  271 type  2   force =    -0.00019478   -0.00302124   -0.00027350
     atom  272 type  2   force =    -0.00019477   -0.00302124   -0.00027352
     atom  273 type  2   force =     0.00277929    0.00233789   -0.00032850
     atom  274 type  2   force =     0.00277916    0.00233795   -0.00032844
     atom  275 type  2   force =     0.00277914    0.00233796   -0.00032850
     atom  276 type  2   force =     0.00277915    0.00233798   -0.00032852
     atom  277 type  2   force =     0.00277923    0.00233801   -0.00032850
     atom  278 type  2   force =     0.00277918    0.00233800   -0.00032852
     atom  279 type  2   force =     0.00277912    0.00233794   -0.00032852
     atom  280 type  2   force =     0.00277912    0.00233792   -0.00032851
     atom  281 type  3   force =     0.00000000    0.00000000    0.00000000
     atom  282 type  3   force =     0.00000000    0.00000000    0.00000000
     atom  283 type  3   force =     0.00000000    0.00000000    0.00000000
     atom  284 type  3   force =     0.00000000    0.00000000    0.00000000
     atom  285 type  3   force =     0.00000000    0.00000000    0.00000000
     atom  286 type  3   force =     0.00000000    0.00000000    0.00000000
     atom  287 type  3   force =     0.00000000    0.00000000    0.00000000
     atom  288 type  3   force =     0.00000000    0.00000000    0.00000000
     atom  289 type  2   force =    -0.00157213   -0.00087756   -0.00038512
     atom  290 type  2   force =    -0.00157218   -0.00087752   -0.00038511
     atom  291 type  2   force =    -0.00157220   -0.00087740   -0.00038516
     atom  292 type  2   force =    -0.00157216   -0.00087745   -0.00038512
     atom  293 type  2   force =    -0.00157212   -0.00087743   -0.00038513
     atom  294 type  2   force =    -0.00157213   -0.00087737   -0.00038514
     atom  295 type  2   force =    -0.00157217   -0.00087749   -0.00038512
     atom  296 type  2   force =    -0.00157223   -0.00087767   -0.00038514
     atom  297 type  3   force =     0.00000000    0.00000000    0.00000000
     atom  298 type  3   force =     0.00000000    0.00000000    0.00000000
     atom  299 type  3   force =     0.00000000    0.00000000    0.00000000
     atom  300 type  3   force =     0.00000000    0.00000000    0.00000000
     atom  301 type  3   force =     0.00000000    0.00000000    0.00000000
     atom  302 type  3   force =     0.00000000    0.00000000    0.00000000
     atom  303 type  3   force =     0.00000000    0.00000000    0.00000000
     atom  304 type  3   force =     0.00000000    0.00000000    0.00000000
     atom  305 type  1   force =    -0.00412399    0.00325613    0.00297479
     atom  306 type  1   force =    -0.00412431    0.00325627    0.00297497
     atom  307 type  1   force =    -0.00412429    0.00325625    0.00297492
     atom  308 type  1   force =    -0.00412425    0.00325621    0.00297488
     atom  309 type  1   force =    -0.00412418    0.00325622    0.00297486
     atom  310 type  1   force =    -0.00412427    0.00325621    0.00297490
     atom  311 type  1   force =    -0.00412430    0.00325623    0.00297491
     atom  312 type  1   force =    -0.00412427    0.00325623    0.00297490
     atom  313 type  1   force =    -0.00666343   -0.01284237    0.00256019
     atom  314 type  1   force =    -0.00666364   -0.01284244    0.00256026
     atom  315 type  1   force =    -0.00666367   -0.01284251    0.00256029
     atom  316 type  1   force =    -0.00666364   -0.01284249    0.00256028
     atom  317 type  1   force =    -0.00666357   -0.01284241    0.00256023
     atom  318 type  1   force =    -0.00666365   -0.01284250    0.00256028
     atom  319 type  1   force =    -0.00666366   -0.01284249    0.00256028
     atom  320 type  1   force =    -0.00666364   -0.01284248    0.00256027
     atom  321 type  2   force =    -0.00232280    0.00172102   -0.00022358
     atom  322 type  2   force =    -0.00232288    0.00172115   -0.00022362
     atom  323 type  2   force =    -0.00232290    0.00172114   -0.00022359
     atom  324 type  2   force =    -0.00232288    0.00172113   -0.00022359
     atom  325 type  2   force =    -0.00232283    0.00172117   -0.00022362
     atom  326 type  2   force =    -0.00232286    0.00172114   -0.00022360
     atom  327 type  2   force =    -0.00232289    0.00172113   -0.00022362
     atom  328 type  2   force =    -0.00232285    0.00172107   -0.00022366
     atom  329 type  3   force =     0.00000000    0.00000000    0.00000000
     atom  330 type  3   force =     0.00000000    0.00000000    0.00000000
     atom  331 type  3   force =     0.00000000    0.00000000    0.00000000
     atom  332 type  3   force =     0.00000000    0.00000000    0.00000000
     atom  333 type  3   force =     0.00000000    0.00000000    0.00000000
     atom  334 type  3   force =     0.00000000    0.00000000    0.00000000
     atom  335 type  3   force =     0.00000000    0.00000000    0.00000000
     atom  336 type  3   force =     0.00000000    0.00000000    0.00000000
     atom  337 type  1   force =     0.01083132    0.00403851    0.00097752
     atom  338 type  1   force =     0.01083131    0.00403856    0.00097752
     atom  339 type  1   force =     0.01083132    0.00403860    0.00097750
     atom  340 type  1   force =     0.01083134    0.00403859    0.00097750
     atom  341 type  1   force =     0.01083136    0.00403859    0.00097750
     atom  342 type  1   force =     0.01083137    0.00403861    0.00097751
     atom  343 type  1   force =     0.01083132    0.00403857    0.00097751
     atom  344 type  1   force =     0.01083128    0.00403852    0.00097752
     atom  345 type  2   force =    -0.00380053    0.00229026    0.00000107
     atom  346 type  2   force =    -0.00380035    0.00229029    0.00000009
     atom  347 type  2   force =    -0.00380058    0.00229029    0.00000107
     atom  348 type  2   force =    -0.00380064    0.00229036    0.00000102
     atom  349 type  2   force =    -0.00380056    0.00229028    0.00000106
     atom  350 type  2   force =    -0.00380055    0.00229031    0.00000106
     atom  351 type  2   force =    -0.00380054    0.00229024    0.00000107
     atom  352 type  2   force =    -0.00380057    0.00229025    0.00000107
     atom  353 type  3   force =     0.00000000    0.00000000    0.00000000
     atom  354 type  3   force =     0.00000000    0.00000000    0.00000000
     atom  355 type  3   force =     0.00000000    0.00000000    0.00000000
     atom  356 type  3   force =     0.00000000    0.00000000    0.00000000
     atom  357 type  3   force =     0.00000000    0.00000000    0.00000000
     atom  358 type  3   force =     0.00000000    0.00000000    0.00000000
     atom  359 type  3   force =     0.00000000    0.00000000    0.00000000
     atom  360 type  3   force =     0.00000000    0.00000000    0.00000000
     atom  361 type  1   force =    -0.00438559   -0.00311535   -0.00260986
     atom  362 type  1   force =    -0.00438514   -0.00311520   -0.00260956
     atom  363 type  1   force =    -0.00438527   -0.00311509   -0.00260961
     atom  364 type  1   force =    -0.00438512   -0.00311519   -0.00260955
     atom  365 type  1   force =    -0.00438513   -0.00311520   -0.00260956
     atom  366 type  1   force =    -0.00438512   -0.00311520   -0.00260955
     atom  367 type  1   force =    -0.00438511   -0.00311520   -0.00260954
     atom  368 type  1   force =    -0.00438514   -0.00311522   -0.00260956
     atom  369 type  1   force =    -0.00481514    0.01340086   -0.00489613
     atom  370 type  1   force =    -0.00481510    0.01340075   -0.00489609
     atom  371 type  1   force =    -0.00481515    0.01340062   -0.00489608
     atom  372 type  1   force =    -0.00481511    0.01340075   -0.00489610
     atom  373 type  1   force =    -0.00481507    0.01340070   -0.00489606
     atom  374 type  1   force =    -0.00481505    0.01340070   -0.00489604
     atom  375 type  1   force =    -0.00481511    0.01340077   -0.00489609
     atom  376 type  1   force =    -0.00481512    0.01340076   -0.00489609
     atom  377 type  2   force =    -0.00179775   -0.00643079   -0.00006812
     atom  378 type  2   force =    -0.00179768   -0.00643119   -0.00006800
     atom  379 type  2   force =    -0.00179772   -0.00643114   -0.00006801
     atom  380 type  2   force =    -0.00179769   -0.00643120   -0.00006802
     atom  381 type  2   force =    -0.00179766   -0.00643119   -0.00006802
     atom  382 type  2   force =    -0.00179767   -0.00643119   -0.00006800
     atom  383 type  2   force =    -0.00179770   -0.00643119   -0.00006801
     atom  384 type  2   force =    -0.00179767   -0.00643121   -0.00006799
     atom  385 type  2   force =     0.00019479    0.00302170   -0.00027356
     atom  386 type  2   force =     0.00019477    0.00302124   -0.00027351
     atom  387 type  2   force =     0.00019463    0.00302135   -0.00027361
     atom  388 type  2   force =     0.00019477    0.00302120   -0.00027354
     atom  389 type  2   force =     0.00019481    0.00302124   -0.00027350
     atom  390 type  2   force =     0.00019480    0.00302124   -0.00027350
     atom  391 type  2   force =     0.00019475    0.00302118   -0.00027355
     atom  392 type  2   force =     0.00019478    0.00302121   -0.00027352
     atom  393 type  2   force =    -0.00277889   -0.00233753   -0.00032883
     atom  394 type  2   force =    -0.00277915   -0.00233797   -0.00032849
     atom  395 type  2   force =    -0.00277931   -0.00233789   -0.00032855
     atom  396 type  2   force =    -0.00277918   -0.00233796   -0.00032850
     atom  397 type  2   force =    -0.00277902   -0.00233793   -0.00032852
     atom  398 type  2   force =    -0.00277911   -0.00233792   -0.00032850
     atom  399 type  2   force =    -0.00277921   -0.00233796   -0.00032851
     atom  400 type  2   force =    -0.00277918   -0.00233799   -0.00032850
     atom  401 type  3   force =     0.00000000    0.00000000    0.00000000
     atom  402 type  3   force =     0.00000000    0.00000000    0.00000000
     atom  403 type  3   force =     0.00000000    0.00000000    0.00000000
     atom  404 type  3   force =     0.00000000    0.00000000    0.00000000
     atom  405 type  3   force =     0.00000000    0.00000000    0.00000000
     atom  406 type  3   force =     0.00000000    0.00000000    0.00000000
     atom  407 type  3   force =     0.00000000    0.00000000    0.00000000
     atom  408 type  3   force =     0.00000000    0.00000000    0.00000000
     atom  409 type  2   force =     0.00157218    0.00087747   -0.00038514
     atom  410 type  2   force =     0.00157177    0.00087715   -0.00038528
     atom  411 type  2   force =     0.00157216    0.00087749   -0.00038513
     atom  412 type  2   force =     0.00157214    0.00087762   -0.00038512
     atom  413 type  2   force =     0.00157218    0.00087751   -0.00038512
     atom  414 type  2   force =     0.00157217    0.00087750   -0.00038512
     atom  415 type  2   force =     0.00157216    0.00087738   -0.00038511
     atom  416 type  2   force =     0.00157215    0.00087742   -0.00038512
     atom  417 type  3   force =     0.00000000    0.00000000    0.00000000
     atom  418 type  3   force =     0.00000000    0.00000000    0.00000000
     atom  419 type  3   force =     0.00000000    0.00000000    0.00000000
     atom  420 type  3   force =     0.00000000    0.00000000    0.00000000
     atom  421 type  3   force =     0.00000000    0.00000000    0.00000000
     atom  422 type  3   force =     0.00000000    0.00000000    0.00000000
     atom  423 type  3   force =     0.00000000    0.00000000    0.00000000
     atom  424 type  3   force =     0.00000000    0.00000000    0.00000000
     atom  425 type  1   force =     0.00412442   -0.00325615    0.00297497
     atom  426 type  1   force =     0.00412427   -0.00325622    0.00297490
     atom  427 type  1   force =     0.00412411   -0.00325620    0.00297478
     atom  428 type  1   force =     0.00412424   -0.00325622    0.00297488
     atom  429 type  1   force =     0.00412435   -0.00325626    0.00297494
     atom  430 type  1   force =     0.00412436   -0.00325627    0.00297494
     atom  431 type  1   force =     0.00412422   -0.00325621    0.00297486
     atom  432 type  1   force =     0.00412424   -0.00325620    0.00297487
     atom  433 type  1   force =     0.00666369    0.01284260    0.00256030
     atom  434 type  1   force =     0.00666365    0.01284248    0.00256028
     atom  435 type  1   force =     0.00666352    0.01284240    0.00256022
     atom  436 type  1   force =     0.00666363    0.01284249    0.00256026
     atom  437 type  1   force =     0.00666365    0.01284248    0.00256028
     atom  438 type  1   force =     0.00666364    0.01284249    0.00256026
     atom  439 type  1   force =     0.00666364    0.01284249    0.00256027
     atom  440 type  1   force =     0.00666364    0.01284249    0.00256027
     atom  441 type  2   force =     0.00232262   -0.00172089   -0.00022364
     atom  442 type  2   force =     0.00232288   -0.00172115   -0.00022361
     atom  443 type  2   force =     0.00232274   -0.00172098   -0.00022364
     atom  444 type  2   force =     0.00232285   -0.00172114   -0.00022361
     atom  445 type  2   force =     0.00232288   -0.00172113   -0.00022361
     atom  446 type  2   force =     0.00232284   -0.00172111   -0.00022361
     atom  447 type  2   force =     0.00232287   -0.00172117   -0.00022361
     atom  448 type  2   force =     0.00232289   -0.00172116   -0.00022361
     atom  449 type  3   force =     0.00000000    0.00000000    0.00000000
     atom  450 type  3   force =     0.00000000    0.00000000    0.00000000
     atom  451 type  3   force =     0.00000000    0.00000000    0.00000000
     atom  452 type  3   force =     0.00000000    0.00000000    0.00000000
     atom  453 type  3   force =     0.00000000    0.00000000    0.00000000
     atom  454 type  3   force =     0.00000000    0.00000000    0.00000000
     atom  455 type  3   force =     0.00000000    0.00000000    0.00000000
     atom  456 type  3   force =     0.00000000    0.00000000    0.00000000
     atom  457 type  1   force =    -0.01083131   -0.00403851    0.00097748
     atom  458 type  1   force =    -0.01083133   -0.00403857    0.00097750
     atom  459 type  1   force =    -0.01083177   -0.00403861    0.00097736
     atom  460 type  1   force =    -0.01083133   -0.00403858    0.00097751
     atom  461 type  1   force =    -0.01083136   -0.00403860    0.00097751
     atom  462 type  1   force =    -0.01083134   -0.00403860    0.00097751
     atom  463 type  1   force =    -0.01083131   -0.00403857    0.00097750
     atom  464 type  1   force =    -0.01083134   -0.00403857    0.00097751
     atom  465 type  2   force =     0.00380060   -0.00229031    0.00000109
     atom  466 type  2   force =     0.00380070   -0.00229040    0.00000111
     atom  467 type  2   force =     0.00380053   -0.00229024    0.00000108
     atom  468 type  2   force =     0.00380051   -0.00229021    0.00000106
     atom  469 type  2   force =     0.00380056   -0.00229022    0.00000107
     atom  470 type  2   force =     0.00380054   -0.00229025    0.00000111
     atom  471 type  2   force =     0.00380054   -0.00229028    0.00000107
     atom  472 type  2   force =     0.00380047   -0.00229030    0.00000106
     atom  473 type  3   force =     0.00000000    0.00000000    0.00000000
     atom  474 type  3   force =     0.00000000    0.00000000    0.00000000
     atom  475 type  3   force =     0.00000000    0.00000000    0.00000000
     atom  476 type  3   force =     0.00000000    0.00000000    0.00000000
     atom  477 type  3   force =     0.00000000    0.00000000    0.00000000
     atom  478 type  3   force =     0.00000000    0.00000000    0.00000000
     atom  479 type  3   force =     0.00000000    0.00000000    0.00000000
     atom  480 type  3   force =     0.00000000    0.00000000    0.00000000
     atom  481 type  4   force =     0.00000000    0.00000000    0.00000000
     atom  482 type  4   force =     0.00000000    0.00000000    0.00000000
     atom  483 type  4   force =     0.00000000    0.00000000    0.00000000
     atom  484 type  4   force =     0.00000000    0.00000000    0.00000000
     atom  485 type  4   force =     0.00000000    0.00000000    0.00000000
     atom  486 type  4   force =     0.00000000    0.00000000    0.00000000
     atom  487 type  4   force =     0.00000000    0.00000000    0.00000000
     atom  488 type  4   force =     0.00000000    0.00000000    0.00000000
     atom  489 type  4   force =     0.00000000    0.00000000    0.00000000
     atom  490 type  4   force =     0.00000000    0.00000000    0.00000000
     atom  491 type  4   force =     0.00000000    0.00000000    0.00000000
     atom  492 type  4   force =     0.00000000    0.00000000    0.00000000
     atom  493 type  4   force =     0.00000000    0.00000000    0.00000000
     atom  494 type  4   force =     0.00000000    0.00000000    0.00000000
     atom  495 type  4   force =     0.00000000    0.00000000    0.00000000
     atom  496 type  4   force =     0.00000000    0.00000000    0.00000000
     The Hubbard contrib.    to forces
     atom    1 type  1   force =     0.00000000    0.00000000    0.00000000
     atom    2 type  1   force =     0.00000000    0.00000000    0.00000000
     atom    3 type  1   force =     0.00000000    0.00000000    0.00000000
     atom    4 type  1   force =     0.00000000    0.00000000    0.00000000
     atom    5 type  1   force =     0.00000000    0.00000000    0.00000000
     atom    6 type  1   force =     0.00000000    0.00000000    0.00000000
     atom    7 type  1   force =     0.00000000    0.00000000    0.00000000
     atom    8 type  1   force =     0.00000000    0.00000000    0.00000000
     atom    9 type  1   force =     0.00000000    0.00000000    0.00000000
     atom   10 type  1   force =     0.00000000    0.00000000    0.00000000
     atom   11 type  1   force =     0.00000000    0.00000000    0.00000000
     atom   12 type  1   force =     0.00000000    0.00000000    0.00000000
     atom   13 type  1   force =     0.00000000    0.00000000    0.00000000
     atom   14 type  1   force =     0.00000000    0.00000000    0.00000000
     atom   15 type  1   force =     0.00000000    0.00000000    0.00000000
     atom   16 type  1   force =     0.00000000    0.00000000    0.00000000
     atom   17 type  2   force =     0.00000000    0.00000000    0.00000000
     atom   18 type  2   force =     0.00000000    0.00000000    0.00000000
     atom   19 type  2   force =     0.00000000    0.00000000    0.00000000
     atom   20 type  2   force =     0.00000000    0.00000000    0.00000000
     atom   21 type  2   force =     0.00000000    0.00000000    0.00000000
     atom   22 type  2   force =     0.00000000    0.00000000    0.00000000
     atom   23 type  2   force =     0.00000000    0.00000000    0.00000000
     atom   24 type  2   force =     0.00000000    0.00000000    0.00000000
     atom   25 type  2   force =     0.00000000    0.00000000    0.00000000
     atom   26 type  2   force =     0.00000000    0.00000000    0.00000000
     atom   27 type  2   force =     0.00000000    0.00000000    0.00000000
     atom   28 type  2   force =     0.00000000    0.00000000    0.00000000
     atom   29 type  2   force =     0.00000000    0.00000000    0.00000000
     atom   30 type  2   force =     0.00000000    0.00000000    0.00000000
     atom   31 type  2   force =     0.00000000    0.00000000    0.00000000
     atom   32 type  2   force =     0.00000000    0.00000000    0.00000000
     atom   33 type  2   force =     0.00000000    0.00000000    0.00000000
     atom   34 type  2   force =     0.00000000    0.00000000    0.00000000
     atom   35 type  2   force =     0.00000000    0.00000000    0.00000000
     atom   36 type  2   force =     0.00000000    0.00000000    0.00000000
     atom   37 type  2   force =     0.00000000    0.00000000    0.00000000
     atom   38 type  2   force =     0.00000000    0.00000000    0.00000000
     atom   39 type  2   force =     0.00000000    0.00000000    0.00000000
     atom   40 type  2   force =     0.00000000    0.00000000    0.00000000
     atom   41 type  3   force =     0.00000000    0.00000000    0.00000000
     atom   42 type  3   force =     0.00000000    0.00000000    0.00000000
     atom   43 type  3   force =     0.00000000    0.00000000    0.00000000
     atom   44 type  3   force =     0.00000000    0.00000000    0.00000000
     atom   45 type  3   force =     0.00000000    0.00000000    0.00000000
     atom   46 type  3   force =     0.00000000    0.00000000    0.00000000
     atom   47 type  3   force =     0.00000000    0.00000000    0.00000000
     atom   48 type  3   force =     0.00000000    0.00000000    0.00000000
     atom   49 type  2   force =     0.00000000    0.00000000    0.00000000
     atom   50 type  2   force =     0.00000000    0.00000000    0.00000000
     atom   51 type  2   force =     0.00000000    0.00000000    0.00000000
     atom   52 type  2   force =     0.00000000    0.00000000    0.00000000
     atom   53 type  2   force =     0.00000000    0.00000000    0.00000000
     atom   54 type  2   force =     0.00000000    0.00000000    0.00000000
     atom   55 type  2   force =     0.00000000    0.00000000    0.00000000
     atom   56 type  2   force =     0.00000000    0.00000000    0.00000000
     atom   57 type  3   force =     0.00000000    0.00000000    0.00000000
     atom   58 type  3   force =     0.00000000    0.00000000    0.00000000
     atom   59 type  3   force =     0.00000000    0.00000000    0.00000000
     atom   60 type  3   force =     0.00000000    0.00000000    0.00000000
     atom   61 type  3   force =     0.00000000    0.00000000    0.00000000
     atom   62 type  3   force =     0.00000000    0.00000000    0.00000000
     atom   63 type  3   force =     0.00000000    0.00000000    0.00000000
     atom   64 type  3   force =     0.00000000    0.00000000    0.00000000
     atom   65 type  1   force =     0.00000000    0.00000000    0.00000000
     atom   66 type  1   force =     0.00000000    0.00000000    0.00000000
     atom   67 type  1   force =     0.00000000    0.00000000    0.00000000
     atom   68 type  1   force =     0.00000000    0.00000000    0.00000000
     atom   69 type  1   force =     0.00000000    0.00000000    0.00000000
     atom   70 type  1   force =     0.00000000    0.00000000    0.00000000
     atom   71 type  1   force =     0.00000000    0.00000000    0.00000000
     atom   72 type  1   force =     0.00000000    0.00000000    0.00000000
     atom   73 type  1   force =     0.00000000    0.00000000    0.00000000
     atom   74 type  1   force =     0.00000000    0.00000000    0.00000000
     atom   75 type  1   force =     0.00000000    0.00000000    0.00000000
     atom   76 type  1   force =     0.00000000    0.00000000    0.00000000
     atom   77 type  1   force =     0.00000000    0.00000000    0.00000000
     atom   78 type  1   force =     0.00000000    0.00000000    0.00000000
     atom   79 type  1   force =     0.00000000    0.00000000    0.00000000
     atom   80 type  1   force =     0.00000000    0.00000000    0.00000000
     atom   81 type  2   force =     0.00000000    0.00000000    0.00000000
     atom   82 type  2   force =     0.00000000    0.00000000    0.00000000
     atom   83 type  2   force =     0.00000000    0.00000000    0.00000000
     atom   84 type  2   force =     0.00000000    0.00000000    0.00000000
     atom   85 type  2   force =     0.00000000    0.00000000    0.00000000
     atom   86 type  2   force =     0.00000000    0.00000000    0.00000000
     atom   87 type  2   force =     0.00000000    0.00000000    0.00000000
     atom   88 type  2   force =     0.00000000    0.00000000    0.00000000
     atom   89 type  3   force =     0.00000000    0.00000000    0.00000000
     atom   90 type  3   force =     0.00000000    0.00000000    0.00000000
     atom   91 type  3   force =     0.00000000    0.00000000    0.00000000
     atom   92 type  3   force =     0.00000000    0.00000000    0.00000000
     atom   93 type  3   force =     0.00000000    0.00000000    0.00000000
     atom   94 type  3   force =     0.00000000    0.00000000    0.00000000
     atom   95 type  3   force =     0.00000000    0.00000000    0.00000000
     atom   96 type  3   force =     0.00000000    0.00000000    0.00000000
     atom   97 type  1   force =     0.00000000    0.00000000    0.00000000
     atom   98 type  1   force =     0.00000000    0.00000000    0.00000000
     atom   99 type  1   force =     0.00000000    0.00000000    0.00000000
     atom  100 type  1   force =     0.00000000    0.00000000    0.00000000
     atom  101 type  1   force =     0.00000000    0.00000000    0.00000000
     atom  102 type  1   force =     0.00000000    0.00000000    0.00000000
     atom  103 type  1   force =     0.00000000    0.00000000    0.00000000
     atom  104 type  1   force =     0.00000000    0.00000000    0.00000000
     atom  105 type  2   force =     0.00000000    0.00000000    0.00000000
     atom  106 type  2   force =     0.00000000    0.00000000    0.00000000
     atom  107 type  2   force =     0.00000000    0.00000000    0.00000000
     atom  108 type  2   force =     0.00000000    0.00000000    0.00000000
     atom  109 type  2   force =     0.00000000    0.00000000    0.00000000
     atom  110 type  2   force =     0.00000000    0.00000000    0.00000000
     atom  111 type  2   force =     0.00000000    0.00000000    0.00000000
     atom  112 type  2   force =     0.00000000    0.00000000    0.00000000
     atom  113 type  3   force =     0.00000000    0.00000000    0.00000000
     atom  114 type  3   force =     0.00000000    0.00000000    0.00000000
     atom  115 type  3   force =     0.00000000    0.00000000    0.00000000
     atom  116 type  3   force =     0.00000000    0.00000000    0.00000000
     atom  117 type  3   force =     0.00000000    0.00000000    0.00000000
     atom  118 type  3   force =     0.00000000    0.00000000    0.00000000
     atom  119 type  3   force =     0.00000000    0.00000000    0.00000000
     atom  120 type  3   force =     0.00000000    0.00000000    0.00000000
     atom  121 type  1   force =     0.00000000    0.00000000    0.00000000
     atom  122 type  1   force =     0.00000000    0.00000000    0.00000000
     atom  123 type  1   force =     0.00000000    0.00000000    0.00000000
     atom  124 type  1   force =     0.00000000    0.00000000    0.00000000
     atom  125 type  1   force =     0.00000000    0.00000000    0.00000000
     atom  126 type  1   force =     0.00000000    0.00000000    0.00000000
     atom  127 type  1   force =     0.00000000    0.00000000    0.00000000
     atom  128 type  1   force =     0.00000000    0.00000000    0.00000000
     atom  129 type  1   force =     0.00000000    0.00000000    0.00000000
     atom  130 type  1   force =     0.00000000    0.00000000    0.00000000
     atom  131 type  1   force =     0.00000000    0.00000000    0.00000000
     atom  132 type  1   force =     0.00000000    0.00000000    0.00000000
     atom  133 type  1   force =     0.00000000    0.00000000    0.00000000
     atom  134 type  1   force =     0.00000000    0.00000000    0.00000000
     atom  135 type  1   force =     0.00000000    0.00000000    0.00000000
     atom  136 type  1   force =     0.00000000    0.00000000    0.00000000
     atom  137 type  2   force =     0.00000000    0.00000000    0.00000000
     atom  138 type  2   force =     0.00000000    0.00000000    0.00000000
     atom  139 type  2   force =     0.00000000    0.00000000    0.00000000
     atom  140 type  2   force =     0.00000000    0.00000000    0.00000000
     atom  141 type  2   force =     0.00000000    0.00000000    0.00000000
     atom  142 type  2   force =     0.00000000    0.00000000    0.00000000
     atom  143 type  2   force =     0.00000000    0.00000000    0.00000000
     atom  144 type  2   force =     0.00000000    0.00000000    0.00000000
     atom  145 type  2   force =     0.00000000    0.00000000    0.00000000
     atom  146 type  2   force =     0.00000000    0.00000000    0.00000000
     atom  147 type  2   force =     0.00000000    0.00000000    0.00000000
     atom  148 type  2   force =     0.00000000    0.00000000    0.00000000
     atom  149 type  2   force =     0.00000000    0.00000000    0.00000000
     atom  150 type  2   force =     0.00000000    0.00000000    0.00000000
     atom  151 type  2   force =     0.00000000    0.00000000    0.00000000
     atom  152 type  2   force =     0.00000000    0.00000000    0.00000000
     atom  153 type  2   force =     0.00000000    0.00000000    0.00000000
     atom  154 type  2   force =     0.00000000    0.00000000    0.00000000
     atom  155 type  2   force =     0.00000000    0.00000000    0.00000000
     atom  156 type  2   force =     0.00000000    0.00000000    0.00000000
     atom  157 type  2   force =     0.00000000    0.00000000    0.00000000
     atom  158 type  2   force =     0.00000000    0.00000000    0.00000000
     atom  159 type  2   force =     0.00000000    0.00000000    0.00000000
     atom  160 type  2   force =     0.00000000    0.00000000    0.00000000
     atom  161 type  3   force =     0.00000000    0.00000000    0.00000000
     atom  162 type  3   force =     0.00000000    0.00000000    0.00000000
     atom  163 type  3   force =     0.00000000    0.00000000    0.00000000
     atom  164 type  3   force =     0.00000000    0.00000000    0.00000000
     atom  165 type  3   force =     0.00000000    0.00000000    0.00000000
     atom  166 type  3   force =     0.00000000    0.00000000    0.00000000
     atom  167 type  3   force =     0.00000000    0.00000000    0.00000000
     atom  168 type  3   force =     0.00000000    0.00000000    0.00000000
     atom  169 type  2   force =     0.00000000    0.00000000    0.00000000
     atom  170 type  2   force =     0.00000000    0.00000000    0.00000000
     atom  171 type  2   force =     0.00000000    0.00000000    0.00000000
     atom  172 type  2   force =     0.00000000    0.00000000    0.00000000
     atom  173 type  2   force =     0.00000000    0.00000000    0.00000000
     atom  174 type  2   force =     0.00000000    0.00000000    0.00000000
     atom  175 type  2   force =     0.00000000    0.00000000    0.00000000
     atom  176 type  2   force =     0.00000000    0.00000000    0.00000000
     atom  177 type  3   force =     0.00000000    0.00000000    0.00000000
     atom  178 type  3   force =     0.00000000    0.00000000    0.00000000
     atom  179 type  3   force =     0.00000000    0.00000000    0.00000000
     atom  180 type  3   force =     0.00000000    0.00000000    0.00000000
     atom  181 type  3   force =     0.00000000    0.00000000    0.00000000
     atom  182 type  3   force =     0.00000000    0.00000000    0.00000000
     atom  183 type  3   force =     0.00000000    0.00000000    0.00000000
     atom  184 type  3   force =     0.00000000    0.00000000    0.00000000
     atom  185 type  1   force =     0.00000000    0.00000000    0.00000000
     atom  186 type  1   force =     0.00000000    0.00000000    0.00000000
     atom  187 type  1   force =     0.00000000    0.00000000    0.00000000
     atom  188 type  1   force =     0.00000000    0.00000000    0.00000000
     atom  189 type  1   force =     0.00000000    0.00000000    0.00000000
     atom  190 type  1   force =     0.00000000    0.00000000    0.00000000
     atom  191 type  1   force =     0.00000000    0.00000000    0.00000000
     atom  192 type  1   force =     0.00000000    0.00000000    0.00000000
     atom  193 type  1   force =     0.00000000    0.00000000    0.00000000
     atom  194 type  1   force =     0.00000000    0.00000000    0.00000000
     atom  195 type  1   force =     0.00000000    0.00000000    0.00000000
     atom  196 type  1   force =     0.00000000    0.00000000    0.00000000
     atom  197 type  1   force =     0.00000000    0.00000000    0.00000000
     atom  198 type  1   force =     0.00000000    0.00000000    0.00000000
     atom  199 type  1   force =     0.00000000    0.00000000    0.00000000
     atom  200 type  1   force =     0.00000000    0.00000000    0.00000000
     atom  201 type  2   force =     0.00000000    0.00000000    0.00000000
     atom  202 type  2   force =     0.00000000    0.00000000    0.00000000
     atom  203 type  2   force =     0.00000000    0.00000000    0.00000000
     atom  204 type  2   force =     0.00000000    0.00000000    0.00000000
     atom  205 type  2   force =     0.00000000    0.00000000    0.00000000
     atom  206 type  2   force =     0.00000000    0.00000000    0.00000000
     atom  207 type  2   force =     0.00000000    0.00000000    0.00000000
     atom  208 type  2   force =     0.00000000    0.00000000    0.00000000
     atom  209 type  3   force =     0.00000000    0.00000000    0.00000000
     atom  210 type  3   force =     0.00000000    0.00000000    0.00000000
     atom  211 type  3   force =     0.00000000    0.00000000    0.00000000
     atom  212 type  3   force =     0.00000000    0.00000000    0.00000000
     atom  213 type  3   force =     0.00000000    0.00000000    0.00000000
     atom  214 type  3   force =     0.00000000    0.00000000    0.00000000
     atom  215 type  3   force =     0.00000000    0.00000000    0.00000000
     atom  216 type  3   force =     0.00000000    0.00000000    0.00000000
     atom  217 type  1   force =     0.00000000    0.00000000    0.00000000
     atom  218 type  1   force =     0.00000000    0.00000000    0.00000000
     atom  219 type  1   force =     0.00000000    0.00000000    0.00000000
     atom  220 type  1   force =     0.00000000    0.00000000    0.00000000
     atom  221 type  1   force =     0.00000000    0.00000000    0.00000000
     atom  222 type  1   force =     0.00000000    0.00000000    0.00000000
     atom  223 type  1   force =     0.00000000    0.00000000    0.00000000
     atom  224 type  1   force =     0.00000000    0.00000000    0.00000000
     atom  225 type  2   force =     0.00000000    0.00000000    0.00000000
     atom  226 type  2   force =     0.00000000    0.00000000    0.00000000
     atom  227 type  2   force =     0.00000000    0.00000000    0.00000000
     atom  228 type  2   force =     0.00000000    0.00000000    0.00000000
     atom  229 type  2   force =     0.00000000    0.00000000    0.00000000
     atom  230 type  2   force =     0.00000000    0.00000000    0.00000000
     atom  231 type  2   force =     0.00000000    0.00000000    0.00000000
     atom  232 type  2   force =     0.00000000    0.00000000    0.00000000
     atom  233 type  3   force =     0.00000000    0.00000000    0.00000000
     atom  234 type  3   force =     0.00000000    0.00000000    0.00000000
     atom  235 type  3   force =     0.00000000    0.00000000    0.00000000
     atom  236 type  3   force =     0.00000000    0.00000000    0.00000000
     atom  237 type  3   force =     0.00000000    0.00000000    0.00000000
     atom  238 type  3   force =     0.00000000    0.00000000    0.00000000
     atom  239 type  3   force =     0.00000000    0.00000000    0.00000000
     atom  240 type  3   force =     0.00000000    0.00000000    0.00000000
     atom  241 type  1   force =     0.00000000    0.00000000    0.00000000
     atom  242 type  1   force =     0.00000000    0.00000000    0.00000000
     atom  243 type  1   force =     0.00000000    0.00000000    0.00000000
     atom  244 type  1   force =     0.00000000    0.00000000    0.00000000
     atom  245 type  1   force =     0.00000000    0.00000000    0.00000000
     atom  246 type  1   force =     0.00000000    0.00000000    0.00000000
     atom  247 type  1   force =     0.00000000    0.00000000    0.00000000
     atom  248 type  1   force =     0.00000000    0.00000000    0.00000000
     atom  249 type  1   force =     0.00000000    0.00000000    0.00000000
     atom  250 type  1   force =     0.00000000    0.00000000    0.00000000
     atom  251 type  1   force =     0.00000000    0.00000000    0.00000000
     atom  252 type  1   force =     0.00000000    0.00000000    0.00000000
     atom  253 type  1   force =     0.00000000    0.00000000    0.00000000
     atom  254 type  1   force =     0.00000000    0.00000000    0.00000000
     atom  255 type  1   force =     0.00000000    0.00000000    0.00000000
     atom  256 type  1   force =     0.00000000    0.00000000    0.00000000
     atom  257 type  2   force =     0.00000000    0.00000000    0.00000000
     atom  258 type  2   force =     0.00000000    0.00000000    0.00000000
     atom  259 type  2   force =     0.00000000    0.00000000    0.00000000
     atom  260 type  2   force =     0.00000000    0.00000000    0.00000000
     atom  261 type  2   force =     0.00000000    0.00000000    0.00000000
     atom  262 type  2   force =     0.00000000    0.00000000    0.00000000
     atom  263 type  2   force =     0.00000000    0.00000000    0.00000000
     atom  264 type  2   force =     0.00000000    0.00000000    0.00000000
     atom  265 type  2   force =     0.00000000    0.00000000    0.00000000
     atom  266 type  2   force =     0.00000000    0.00000000    0.00000000
     atom  267 type  2   force =     0.00000000    0.00000000    0.00000000
     atom  268 type  2   force =     0.00000000    0.00000000    0.00000000
     atom  269 type  2   force =     0.00000000    0.00000000    0.00000000
     atom  270 type  2   force =     0.00000000    0.00000000    0.00000000
     atom  271 type  2   force =     0.00000000    0.00000000    0.00000000
     atom  272 type  2   force =     0.00000000    0.00000000    0.00000000
     atom  273 type  2   force =     0.00000000    0.00000000    0.00000000
     atom  274 type  2   force =     0.00000000    0.00000000    0.00000000
     atom  275 type  2   force =     0.00000000    0.00000000    0.00000000
     atom  276 type  2   force =     0.00000000    0.00000000    0.00000000
     atom  277 type  2   force =     0.00000000    0.00000000    0.00000000
     atom  278 type  2   force =     0.00000000    0.00000000    0.00000000
     atom  279 type  2   force =     0.00000000    0.00000000    0.00000000
     atom  280 type  2   force =     0.00000000    0.00000000    0.00000000
     atom  281 type  3   force =     0.00000000    0.00000000    0.00000000
     atom  282 type  3   force =     0.00000000    0.00000000    0.00000000
     atom  283 type  3   force =     0.00000000    0.00000000    0.00000000
     atom  284 type  3   force =     0.00000000    0.00000000    0.00000000
     atom  285 type  3   force =     0.00000000    0.00000000    0.00000000
     atom  286 type  3   force =     0.00000000    0.00000000    0.00000000
     atom  287 type  3   force =     0.00000000    0.00000000    0.00000000
     atom  288 type  3   force =     0.00000000    0.00000000    0.00000000
     atom  289 type  2   force =     0.00000000    0.00000000    0.00000000
     atom  290 type  2   force =     0.00000000    0.00000000    0.00000000
     atom  291 type  2   force =     0.00000000    0.00000000    0.00000000
     atom  292 type  2   force =     0.00000000    0.00000000    0.00000000
     atom  293 type  2   force =     0.00000000    0.00000000    0.00000000
     atom  294 type  2   force =     0.00000000    0.00000000    0.00000000
     atom  295 type  2   force =     0.00000000    0.00000000    0.00000000
     atom  296 type  2   force =     0.00000000    0.00000000    0.00000000
     atom  297 type  3   force =     0.00000000    0.00000000    0.00000000
     atom  298 type  3   force =     0.00000000    0.00000000    0.00000000
     atom  299 type  3   force =     0.00000000    0.00000000    0.00000000
     atom  300 type  3   force =     0.00000000    0.00000000    0.00000000
     atom  301 type  3   force =     0.00000000    0.00000000    0.00000000
     atom  302 type  3   force =     0.00000000    0.00000000    0.00000000
     atom  303 type  3   force =     0.00000000    0.00000000    0.00000000
     atom  304 type  3   force =     0.00000000    0.00000000    0.00000000
     atom  305 type  1   force =     0.00000000    0.00000000    0.00000000
     atom  306 type  1   force =     0.00000000    0.00000000    0.00000000
     atom  307 type  1   force =     0.00000000    0.00000000    0.00000000
     atom  308 type  1   force =     0.00000000    0.00000000    0.00000000
     atom  309 type  1   force =     0.00000000    0.00000000    0.00000000
     atom  310 type  1   force =     0.00000000    0.00000000    0.00000000
     atom  311 type  1   force =     0.00000000    0.00000000    0.00000000
     atom  312 type  1   force =     0.00000000    0.00000000    0.00000000
     atom  313 type  1   force =     0.00000000    0.00000000    0.00000000
     atom  314 type  1   force =     0.00000000    0.00000000    0.00000000
     atom  315 type  1   force =     0.00000000    0.00000000    0.00000000
     atom  316 type  1   force =     0.00000000    0.00000000    0.00000000
     atom  317 type  1   force =     0.00000000    0.00000000    0.00000000
     atom  318 type  1   force =     0.00000000    0.00000000    0.00000000
     atom  319 type  1   force =     0.00000000    0.00000000    0.00000000
     atom  320 type  1   force =     0.00000000    0.00000000    0.00000000
     atom  321 type  2   force =     0.00000000    0.00000000    0.00000000
     atom  322 type  2   force =     0.00000000    0.00000000    0.00000000
     atom  323 type  2   force =     0.00000000    0.00000000    0.00000000
     atom  324 type  2   force =     0.00000000    0.00000000    0.00000000
     atom  325 type  2   force =     0.00000000    0.00000000    0.00000000
     atom  326 type  2   force =     0.00000000    0.00000000    0.00000000
     atom  327 type  2   force =     0.00000000    0.00000000    0.00000000
     atom  328 type  2   force =     0.00000000    0.00000000    0.00000000
     atom  329 type  3   force =     0.00000000    0.00000000    0.00000000
     atom  330 type  3   force =     0.00000000    0.00000000    0.00000000
     atom  331 type  3   force =     0.00000000    0.00000000    0.00000000
     atom  332 type  3   force =     0.00000000    0.00000000    0.00000000
     atom  333 type  3   force =     0.00000000    0.00000000    0.00000000
     atom  334 type  3   force =     0.00000000    0.00000000    0.00000000
     atom  335 type  3   force =     0.00000000    0.00000000    0.00000000
     atom  336 type  3   force =     0.00000000    0.00000000    0.00000000
     atom  337 type  1   force =     0.00000000    0.00000000    0.00000000
     atom  338 type  1   force =     0.00000000    0.00000000    0.00000000
     atom  339 type  1   force =     0.00000000    0.00000000    0.00000000
     atom  340 type  1   force =     0.00000000    0.00000000    0.00000000
     atom  341 type  1   force =     0.00000000    0.00000000    0.00000000
     atom  342 type  1   force =     0.00000000    0.00000000    0.00000000
     atom  343 type  1   force =     0.00000000    0.00000000    0.00000000
     atom  344 type  1   force =     0.00000000    0.00000000    0.00000000
     atom  345 type  2   force =     0.00000000    0.00000000    0.00000000
     atom  346 type  2   force =     0.00000000    0.00000000    0.00000000
     atom  347 type  2   force =     0.00000000    0.00000000    0.00000000
     atom  348 type  2   force =     0.00000000    0.00000000    0.00000000
     atom  349 type  2   force =     0.00000000    0.00000000    0.00000000
     atom  350 type  2   force =     0.00000000    0.00000000    0.00000000
     atom  351 type  2   force =     0.00000000    0.00000000    0.00000000
     atom  352 type  2   force =     0.00000000    0.00000000    0.00000000
     atom  353 type  3   force =     0.00000000    0.00000000    0.00000000
     atom  354 type  3   force =     0.00000000    0.00000000    0.00000000
     atom  355 type  3   force =     0.00000000    0.00000000    0.00000000
     atom  356 type  3   force =     0.00000000    0.00000000    0.00000000
     atom  357 type  3   force =     0.00000000    0.00000000    0.00000000
     atom  358 type  3   force =     0.00000000    0.00000000    0.00000000
     atom  359 type  3   force =     0.00000000    0.00000000    0.00000000
     atom  360 type  3   force =     0.00000000    0.00000000    0.00000000
     atom  361 type  1   force =     0.00000000    0.00000000    0.00000000
     atom  362 type  1   force =     0.00000000    0.00000000    0.00000000
     atom  363 type  1   force =     0.00000000    0.00000000    0.00000000
     atom  364 type  1   force =     0.00000000    0.00000000    0.00000000
     atom  365 type  1   force =     0.00000000    0.00000000    0.00000000
     atom  366 type  1   force =     0.00000000    0.00000000    0.00000000
     atom  367 type  1   force =     0.00000000    0.00000000    0.00000000
     atom  368 type  1   force =     0.00000000    0.00000000    0.00000000
     atom  369 type  1   force =     0.00000000    0.00000000    0.00000000
     atom  370 type  1   force =     0.00000000    0.00000000    0.00000000
     atom  371 type  1   force =     0.00000000    0.00000000    0.00000000
     atom  372 type  1   force =     0.00000000    0.00000000    0.00000000
     atom  373 type  1   force =     0.00000000    0.00000000    0.00000000
     atom  374 type  1   force =     0.00000000    0.00000000    0.00000000
     atom  375 type  1   force =     0.00000000    0.00000000    0.00000000
     atom  376 type  1   force =     0.00000000    0.00000000    0.00000000
     atom  377 type  2   force =     0.00000000    0.00000000    0.00000000
     atom  378 type  2   force =     0.00000000    0.00000000    0.00000000
     atom  379 type  2   force =     0.00000000    0.00000000    0.00000000
     atom  380 type  2   force =     0.00000000    0.00000000    0.00000000
     atom  381 type  2   force =     0.00000000    0.00000000    0.00000000
     atom  382 type  2   force =     0.00000000    0.00000000    0.00000000
     atom  383 type  2   force =     0.00000000    0.00000000    0.00000000
     atom  384 type  2   force =     0.00000000    0.00000000    0.00000000
     atom  385 type  2   force =     0.00000000    0.00000000    0.00000000
     atom  386 type  2   force =     0.00000000    0.00000000    0.00000000
     atom  387 type  2   force =     0.00000000    0.00000000    0.00000000
     atom  388 type  2   force =     0.00000000    0.00000000    0.00000000
     atom  389 type  2   force =     0.00000000    0.00000000    0.00000000
     atom  390 type  2   force =     0.00000000    0.00000000    0.00000000
     atom  391 type  2   force =     0.00000000    0.00000000    0.00000000
     atom  392 type  2   force =     0.00000000    0.00000000    0.00000000
     atom  393 type  2   force =     0.00000000    0.00000000    0.00000000
     atom  394 type  2   force =     0.00000000    0.00000000    0.00000000
     atom  395 type  2   force =     0.00000000    0.00000000    0.00000000
     atom  396 type  2   force =     0.00000000    0.00000000    0.00000000
     atom  397 type  2   force =     0.00000000    0.00000000    0.00000000
     atom  398 type  2   force =     0.00000000    0.00000000    0.00000000
     atom  399 type  2   force =     0.00000000    0.00000000    0.00000000
     atom  400 type  2   force =     0.00000000    0.00000000    0.00000000
     atom  401 type  3   force =     0.00000000    0.00000000    0.00000000
     atom  402 type  3   force =     0.00000000    0.00000000    0.00000000
     atom  403 type  3   force =     0.00000000    0.00000000    0.00000000
     atom  404 type  3   force =     0.00000000    0.00000000    0.00000000
     atom  405 type  3   force =     0.00000000    0.00000000    0.00000000
     atom  406 type  3   force =     0.00000000    0.00000000    0.00000000
     atom  407 type  3   force =     0.00000000    0.00000000    0.00000000
     atom  408 type  3   force =     0.00000000    0.00000000    0.00000000
     atom  409 type  2   force =     0.00000000    0.00000000    0.00000000
     atom  410 type  2   force =     0.00000000    0.00000000    0.00000000
     atom  411 type  2   force =     0.00000000    0.00000000    0.00000000
     atom  412 type  2   force =     0.00000000    0.00000000    0.00000000
     atom  413 type  2   force =     0.00000000    0.00000000    0.00000000
     atom  414 type  2   force =     0.00000000    0.00000000    0.00000000
     atom  415 type  2   force =     0.00000000    0.00000000    0.00000000
     atom  416 type  2   force =     0.00000000    0.00000000    0.00000000
     atom  417 type  3   force =     0.00000000    0.00000000    0.00000000
     atom  418 type  3   force =     0.00000000    0.00000000    0.00000000
     atom  419 type  3   force =     0.00000000    0.00000000    0.00000000
     atom  420 type  3   force =     0.00000000    0.00000000    0.00000000
     atom  421 type  3   force =     0.00000000    0.00000000    0.00000000
     atom  422 type  3   force =     0.00000000    0.00000000    0.00000000
     atom  423 type  3   force =     0.00000000    0.00000000    0.00000000
     atom  424 type  3   force =     0.00000000    0.00000000    0.00000000
     atom  425 type  1   force =     0.00000000    0.00000000    0.00000000
     atom  426 type  1   force =     0.00000000    0.00000000    0.00000000
     atom  427 type  1   force =     0.00000000    0.00000000    0.00000000
     atom  428 type  1   force =     0.00000000    0.00000000    0.00000000
     atom  429 type  1   force =     0.00000000    0.00000000    0.00000000
     atom  430 type  1   force =     0.00000000    0.00000000    0.00000000
     atom  431 type  1   force =     0.00000000    0.00000000    0.00000000
     atom  432 type  1   force =     0.00000000    0.00000000    0.00000000
     atom  433 type  1   force =     0.00000000    0.00000000    0.00000000
     atom  434 type  1   force =     0.00000000    0.00000000    0.00000000
     atom  435 type  1   force =     0.00000000    0.00000000    0.00000000
     atom  436 type  1   force =     0.00000000    0.00000000    0.00000000
     atom  437 type  1   force =     0.00000000    0.00000000    0.00000000
     atom  438 type  1   force =     0.00000000    0.00000000    0.00000000
     atom  439 type  1   force =     0.00000000    0.00000000    0.00000000
     atom  440 type  1   force =     0.00000000    0.00000000    0.00000000
     atom  441 type  2   force =     0.00000000    0.00000000    0.00000000
     atom  442 type  2   force =     0.00000000    0.00000000    0.00000000
     atom  443 type  2   force =     0.00000000    0.00000000    0.00000000
     atom  444 type  2   force =     0.00000000    0.00000000    0.00000000
     atom  445 type  2   force =     0.00000000    0.00000000    0.00000000
     atom  446 type  2   force =     0.00000000    0.00000000    0.00000000
     atom  447 type  2   force =     0.00000000    0.00000000    0.00000000
     atom  448 type  2   force =     0.00000000    0.00000000    0.00000000
     atom  449 type  3   force =     0.00000000    0.00000000    0.00000000
     atom  450 type  3   force =     0.00000000    0.00000000    0.00000000
     atom  451 type  3   force =     0.00000000    0.00000000    0.00000000
     atom  452 type  3   force =     0.00000000    0.00000000    0.00000000
     atom  453 type  3   force =     0.00000000    0.00000000    0.00000000
     atom  454 type  3   force =     0.00000000    0.00000000    0.00000000
     atom  455 type  3   force =     0.00000000    0.00000000    0.00000000
     atom  456 type  3   force =     0.00000000    0.00000000    0.00000000
     atom  457 type  1   force =     0.00000000    0.00000000    0.00000000
     atom  458 type  1   force =     0.00000000    0.00000000    0.00000000
     atom  459 type  1   force =     0.00000000    0.00000000    0.00000000
     atom  460 type  1   force =     0.00000000    0.00000000    0.00000000
     atom  461 type  1   force =     0.00000000    0.00000000    0.00000000
     atom  462 type  1   force =     0.00000000    0.00000000    0.00000000
     atom  463 type  1   force =     0.00000000    0.00000000    0.00000000
     atom  464 type  1   force =     0.00000000    0.00000000    0.00000000
     atom  465 type  2   force =     0.00000000    0.00000000    0.00000000
     atom  466 type  2   force =     0.00000000    0.00000000    0.00000000
     atom  467 type  2   force =     0.00000000    0.00000000    0.00000000
     atom  468 type  2   force =     0.00000000    0.00000000    0.00000000
     atom  469 type  2   force =     0.00000000    0.00000000    0.00000000
     atom  470 type  2   force =     0.00000000    0.00000000    0.00000000
     atom  471 type  2   force =     0.00000000    0.00000000    0.00000000
     atom  472 type  2   force =     0.00000000    0.00000000    0.00000000
     atom  473 type  3   force =     0.00000000    0.00000000    0.00000000
     atom  474 type  3   force =     0.00000000    0.00000000    0.00000000
     atom  475 type  3   force =     0.00000000    0.00000000    0.00000000
     atom  476 type  3   force =     0.00000000    0.00000000    0.00000000
     atom  477 type  3   force =     0.00000000    0.00000000    0.00000000
     atom  478 type  3   force =     0.00000000    0.00000000    0.00000000
     atom  479 type  3   force =     0.00000000    0.00000000    0.00000000
     atom  480 type  3   force =     0.00000000    0.00000000    0.00000000
     atom  481 type  4   force =     0.00000000    0.00000000    0.00000000
     atom  482 type  4   force =     0.00000000    0.00000000    0.00000000
     atom  483 type  4   force =     0.00000000    0.00000000    0.00000000
     atom  484 type  4   force =     0.00000000    0.00000000    0.00000000
     atom  485 type  4   force =     0.00000000    0.00000000    0.00000000
     atom  486 type  4   force =     0.00000000    0.00000000    0.00000000
     atom  487 type  4   force =     0.00000000    0.00000000    0.00000000
     atom  488 type  4   force =     0.00000000    0.00000000    0.00000000
     atom  489 type  4   force =     0.00000000    0.00000000    0.00000000
     atom  490 type  4   force =     0.00000000    0.00000000    0.00000000
     atom  491 type  4   force =     0.00000000    0.00000000    0.00000000
     atom  492 type  4   force =     0.00000000    0.00000000    0.00000000
     atom  493 type  4   force =     0.00000000    0.00000000    0.00000000
     atom  494 type  4   force =     0.00000000    0.00000000    0.00000000
     atom  495 type  4   force =     0.00000000    0.00000000    0.00000000
     atom  496 type  4   force =     0.00000000    0.00000000    0.00000000
     The SCF correction term to forces
     atom    1 type  1   force =     0.00000787   -0.00000653   -0.00000235
     atom    2 type  1   force =     0.00000873   -0.00000790   -0.00000190
     atom    3 type  1   force =     0.00000868   -0.00000693   -0.00000159
     atom    4 type  1   force =     0.00000694   -0.00000650   -0.00000219
     atom    5 type  1   force =     0.00000818   -0.00000902   -0.00000270
     atom    6 type  1   force =     0.00000641   -0.00000609   -0.00000229
     atom    7 type  1   force =     0.00000813   -0.00000612   -0.00000184
     atom    8 type  1   force =     0.00000761   -0.00000875   -0.00000271
     atom    9 type  1   force =     0.00001329   -0.00000301    0.00000046
     atom   10 type  1   force =     0.00001322    0.00000082    0.00000174
     atom   11 type  1   force =     0.00001239    0.00000082    0.00000177
     atom   12 type  1   force =     0.00001148   -0.00000009    0.00000191
     atom   13 type  1   force =     0.00001189    0.00000133    0.00000187
     atom   14 type  1   force =     0.00001483   -0.00000587   -0.00000110
     atom   15 type  1   force =     0.00001376   -0.00000423   -0.00000038
     atom   16 type  1   force =     0.00001224    0.00000192    0.00000253
     atom   17 type  2   force =    -0.00000073    0.00000471    0.00000093
     atom   18 type  2   force =    -0.00000079    0.00000662    0.00000123
     atom   19 type  2   force =    -0.00000043    0.00000659    0.00000141
     atom   20 type  2   force =    -0.00000040    0.00000527    0.00000103
     atom   21 type  2   force =    -0.00000042    0.00000662    0.00000162
     atom   22 type  2   force =    -0.00000067    0.00000444    0.00000083
     atom   23 type  2   force =    -0.00000049    0.00000441    0.00000079
     atom   24 type  2   force =    -0.00000100    0.00000653    0.00000163
     atom   25 type  2   force =    -0.00000264    0.00000160    0.00000195
     atom   26 type  2   force =    -0.00000401    0.00000508    0.00000319
     atom   27 type  2   force =    -0.00000395    0.00000514    0.00000340
     atom   28 type  2   force =    -0.00000202    0.00000269    0.00000258
     atom   29 type  2   force =    -0.00000395    0.00000556    0.00000370
     atom   30 type  2   force =    -0.00000332    0.00000062    0.00000135
     atom   31 type  2   force =    -0.00000329    0.00000088    0.00000137
     atom   32 type  2   force =    -0.00000338    0.00000544    0.00000386
     atom   33 type  2   force =    -0.00000547    0.00000324    0.00000252
     atom   34 type  2   force =    -0.00000541    0.00000176    0.00000194
     atom   35 type  2   force =    -0.00000530    0.00000200    0.00000182
     atom   36 type  2   force =    -0.00000611    0.00000295    0.00000256
     atom   37 type  2   force =    -0.00000551    0.00000187    0.00000190
     atom   38 type  2   force =    -0.00000508    0.00000311    0.00000227
     atom   39 type  2   force =    -0.00000526    0.00000307    0.00000245
     atom   40 type  2   force =    -0.00000581    0.00000215    0.00000194
     atom   41 type  3   force =    -0.00000073   -0.00000067    0.00000122
     atom   42 type  3   force =    -0.00000041   -0.00000118    0.00000102
     atom   43 type  3   force =    -0.00000042   -0.00000105    0.00000099
     atom   44 type  3   force =    -0.00000078   -0.00000076    0.00000122
     atom   45 type  3   force =    -0.00000047   -0.00000107    0.00000102
     atom   46 type  3   force =    -0.00000068   -0.00000065    0.00000116
     atom   47 type  3   force =    -0.00000066   -0.00000079    0.00000120
     atom   48 type  3   force =    -0.00000044   -0.00000114    0.00000105
     atom   49 type  2   force =    -0.00000017    0.00000664   -0.00000244
     atom   50 type  2   force =     0.00000034    0.00000553   -0.00000267
     atom   51 type  2   force =     0.00000031    0.00000517   -0.00000279
     atom   52 type  2   force =    -0.00000024    0.00000678   -0.00000253
     atom   53 type  2   force =     0.00000018    0.00000536   -0.00000269
     atom   54 type  2   force =     0.00000007    0.00000679   -0.00000251
     atom   55 type  2   force =     0.00000016    0.00000686   -0.00000246
     atom   56 type  2   force =     0.00000029    0.00000552   -0.00000278
     atom   57 type  3   force =     0.00000145    0.00000080   -0.00000068
     atom   58 type  3   force =     0.00000120    0.00000071   -0.00000073
     atom   59 type  3   force =     0.00000118    0.00000063   -0.00000077
     atom   60 type  3   force =     0.00000144    0.00000084   -0.00000071
     atom   61 type  3   force =     0.00000116    0.00000066   -0.00000075
     atom   62 type  3   force =     0.00000148    0.00000083   -0.00000069
     atom   63 type  3   force =     0.00000154    0.00000083   -0.00000069
     atom   64 type  3   force =     0.00000119    0.00000064   -0.00000078
     atom   65 type  1   force =     0.00000207    0.00000729    0.00000725
     atom   66 type  1   force =     0.00000004    0.00001088    0.00000837
     atom   67 type  1   force =    -0.00000012    0.00001084    0.00000839
     atom   68 type  1   force =     0.00000002    0.00000755    0.00000727
     atom   69 type  1   force =    -0.00000043    0.00001113    0.00000872
     atom   70 type  1   force =     0.00000370    0.00000719    0.00000756
     atom   71 type  1   force =     0.00000195    0.00000728    0.00000715
     atom   72 type  1   force =    -0.00000041    0.00001064    0.00000874
     atom   73 type  1   force =     0.00001287    0.00001167    0.00001101
     atom   74 type  1   force =     0.00001525    0.00001495    0.00001245
     atom   75 type  1   force =     0.00001484    0.00001415    0.00001191
     atom   76 type  1   force =     0.00001186    0.00001279    0.00001177
     atom   77 type  1   force =     0.00001466    0.00001419    0.00001206
     atom   78 type  1   force =     0.00001365    0.00001036    0.00001033
     atom   79 type  1   force =     0.00001251    0.00001071    0.00001027
     atom   80 type  1   force =     0.00001484    0.00001519    0.00001299
     atom   81 type  2   force =    -0.00000936    0.00000467   -0.00000182
     atom   82 type  2   force =    -0.00000876    0.00000509   -0.00000178
     atom   83 type  2   force =    -0.00000921    0.00000501   -0.00000176
     atom   84 type  2   force =    -0.00000961    0.00000498   -0.00000183
     atom   85 type  2   force =    -0.00000889    0.00000515   -0.00000159
     atom   86 type  2   force =    -0.00000973    0.00000459   -0.00000199
     atom   87 type  2   force =    -0.00000933    0.00000423   -0.00000199
     atom   88 type  2   force =    -0.00000971    0.00000553   -0.00000166
     atom   89 type  3   force =    -0.00000181    0.00000022   -0.00000047
     atom   90 type  3   force =    -0.00000178    0.00000045   -0.00000060
     atom   91 type  3   force =    -0.00000168    0.00000048   -0.00000059
     atom   92 type  3   force =    -0.00000183    0.00000019   -0.00000053
     atom   93 type  3   force =    -0.00000184    0.00000048   -0.00000064
     atom   94 type  3   force =    -0.00000176    0.00000031   -0.00000045
     atom   95 type  3   force =    -0.00000184    0.00000038   -0.00000050
     atom   96 type  3   force =    -0.00000177    0.00000039   -0.00000066
     atom   97 type  1   force =    -0.00000729    0.00000033   -0.00000304
     atom   98 type  1   force =    -0.00000762    0.00000127   -0.00000336
     atom   99 type  1   force =    -0.00000783    0.00000135   -0.00000349
     atom  100 type  1   force =    -0.00000785    0.00000034   -0.00000317
     atom  101 type  1   force =    -0.00000780    0.00000108   -0.00000349
     atom  102 type  1   force =    -0.00000799    0.00000053   -0.00000296
     atom  103 type  1   force =    -0.00000863    0.00000073   -0.00000310
     atom  104 type  1   force =    -0.00000771    0.00000076   -0.00000352
     atom  105 type  2   force =     0.00000608   -0.00000825   -0.00000059
     atom  106 type  2   force =     0.00000656   -0.00000667   -0.00000061
     atom  107 type  2   force =     0.00000698   -0.00000657   -0.00000066
     atom  108 type  2   force =     0.00000633   -0.00000822   -0.00000046
     atom  109 type  2   force =     0.00000640   -0.00000678   -0.00000075
     atom  110 type  2   force =     0.00000635   -0.00000842   -0.00000043
     atom  111 type  2   force =     0.00000672   -0.00000864   -0.00000042
     atom  112 type  2   force =     0.00000619   -0.00000634   -0.00000065
     atom  113 type  3   force =    -0.00000035    0.00000107    0.00000002
     atom  114 type  3   force =    -0.00000011    0.00000101   -0.00000001
     atom  115 type  3   force =    -0.00000015    0.00000102   -0.00000005
     atom  116 type  3   force =    -0.00000033    0.00000113    0.00000003
     atom  117 type  3   force =    -0.00000019    0.00000100   -0.00000004
     atom  118 type  3   force =    -0.00000030    0.00000102    0.00000005
     atom  119 type  3   force =    -0.00000029    0.00000105    0.00000007
     atom  120 type  3   force =    -0.00000024    0.00000110   -0.00000005
     atom  121 type  1   force =    -0.00000761    0.00000599   -0.00000200
     atom  122 type  1   force =    -0.00000853    0.00000869   -0.00000215
     atom  123 type  1   force =    -0.00000781    0.00000758   -0.00000212
     atom  124 type  1   force =    -0.00000628    0.00000647   -0.00000260
     atom  125 type  1   force =    -0.00000949    0.00000806   -0.00000214
     atom  126 type  1   force =    -0.00000759    0.00000628   -0.00000187
     atom  127 type  1   force =    -0.00000742    0.00000654   -0.00000243
     atom  128 type  1   force =    -0.00000870    0.00000834   -0.00000254
     atom  129 type  1   force =    -0.00001202   -0.00000251    0.00000267
     atom  130 type  1   force =    -0.00001454    0.00000516   -0.00000046
     atom  131 type  1   force =    -0.00001312    0.00000292    0.00000029
     atom  132 type  1   force =    -0.00001264   -0.00000066    0.00000145
     atom  133 type  1   force =    -0.00001361    0.00000297    0.00000040
     atom  134 type  1   force =    -0.00001238   -0.00000117    0.00000221
     atom  135 type  1   force =    -0.00001320   -0.00000044    0.00000157
     atom  136 type  1   force =    -0.00001384    0.00000344    0.00000007
     atom  137 type  2   force =     0.00000071   -0.00000694    0.00000154
     atom  138 type  2   force =     0.00000061   -0.00000414    0.00000090
     atom  139 type  2   force =     0.00000044   -0.00000481    0.00000096
     atom  140 type  2   force =     0.00000047   -0.00000637    0.00000150
     atom  141 type  2   force =     0.00000101   -0.00000441    0.00000075
     atom  142 type  2   force =     0.00000090   -0.00000635    0.00000166
     atom  143 type  2   force =     0.00000078   -0.00000642    0.00000129
     atom  144 type  2   force =     0.00000089   -0.00000448    0.00000066
     atom  145 type  2   force =     0.00000364   -0.00000573    0.00000377
     atom  146 type  2   force =     0.00000313   -0.00000067    0.00000150
     atom  147 type  2   force =     0.00000279   -0.00000171    0.00000187
     atom  148 type  2   force =     0.00000429   -0.00000486    0.00000320
     atom  149 type  2   force =     0.00000225   -0.00000152    0.00000187
     atom  150 type  2   force =     0.00000366   -0.00000520    0.00000374
     atom  151 type  2   force =     0.00000419   -0.00000494    0.00000321
     atom  152 type  2   force =     0.00000302   -0.00000113    0.00000143
     atom  153 type  2   force =     0.00000627   -0.00000175    0.00000188
     atom  154 type  2   force =     0.00000567   -0.00000288    0.00000253
     atom  155 type  2   force =     0.00000524   -0.00000305    0.00000225
     atom  156 type  2   force =     0.00000570   -0.00000221    0.00000191
     atom  157 type  2   force =     0.00000569   -0.00000322    0.00000250
     atom  158 type  2   force =     0.00000544   -0.00000171    0.00000189
     atom  159 type  2   force =     0.00000548   -0.00000212    0.00000183
     atom  160 type  2   force =     0.00000535   -0.00000326    0.00000251
     atom  161 type  3   force =     0.00000052    0.00000115    0.00000102
     atom  162 type  3   force =     0.00000074    0.00000076    0.00000120
     atom  163 type  3   force =     0.00000070    0.00000069    0.00000115
     atom  164 type  3   force =     0.00000051    0.00000092    0.00000105
     atom  165 type  3   force =     0.00000072    0.00000074    0.00000122
     atom  166 type  3   force =     0.00000042    0.00000114    0.00000100
     atom  167 type  3   force =     0.00000041    0.00000106    0.00000099
     atom  168 type  3   force =     0.00000070    0.00000065    0.00000122
     atom  169 type  2   force =     0.00000016   -0.00000653   -0.00000254
     atom  170 type  2   force =    -0.00000002   -0.00000510   -0.00000268
     atom  171 type  2   force =     0.00000000   -0.00000527   -0.00000272
     atom  172 type  2   force =     0.00000002   -0.00000646   -0.00000252
     atom  173 type  2   force =    -0.00000028   -0.00000524   -0.00000276
     atom  174 type  2   force =     0.00000020   -0.00000651   -0.00000240
     atom  175 type  2   force =     0.00000002   -0.00000717   -0.00000251
     atom  176 type  2   force =    -0.00000033   -0.00000519   -0.00000273
     atom  177 type  3   force =    -0.00000146   -0.00000082   -0.00000070
     atom  178 type  3   force =    -0.00000116   -0.00000058   -0.00000074
     atom  179 type  3   force =    -0.00000118   -0.00000066   -0.00000075
     atom  180 type  3   force =    -0.00000154   -0.00000081   -0.00000073
     atom  181 type  3   force =    -0.00000123   -0.00000064   -0.00000076
     atom  182 type  3   force =    -0.00000148   -0.00000080   -0.00000067
     atom  183 type  3   force =    -0.00000152   -0.00000087   -0.00000070
     atom  184 type  3   force =    -0.00000120   -0.00000064   -0.00000076
     atom  185 type  1   force =     0.00000108   -0.00001103    0.00000855
     atom  186 type  1   force =    -0.00000321   -0.00000724    0.00000752
     atom  187 type  1   force =    -0.00000174   -0.00000740    0.00000722
     atom  188 type  1   force =     0.00000044   -0.00001091    0.00000865
     atom  189 type  1   force =    -0.00000234   -0.00000710    0.00000718
     atom  190 type  1   force =     0.00000009   -0.00001057    0.00000865
     atom  191 type  1   force =    -0.00000014   -0.00001073    0.00000847
     atom  192 type  1   force =    -0.00000195   -0.00000739    0.00000725
     atom  193 type  1   force =    -0.00001464   -0.00001541    0.00001277
     atom  194 type  1   force =    -0.00001335   -0.00001083    0.00001067
     atom  195 type  1   force =    -0.00001258   -0.00001130    0.00001063
     atom  196 type  1   force =    -0.00001457   -0.00001373    0.00001175
     atom  197 type  1   force =    -0.00001319   -0.00001188    0.00001120
     atom  198 type  1   force =    -0.00001490   -0.00001456    0.00001253
     atom  199 type  1   force =    -0.00001523   -0.00001442    0.00001224
     atom  200 type  1   force =    -0.00001275   -0.00001145    0.00001085
     atom  201 type  2   force =     0.00000955   -0.00000562   -0.00000164
     atom  202 type  2   force =     0.00000949   -0.00000443   -0.00000182
     atom  203 type  2   force =     0.00000909   -0.00000463   -0.00000171
     atom  204 type  2   force =     0.00000885   -0.00000498   -0.00000165
     atom  205 type  2   force =     0.00001024   -0.00000480   -0.00000214
     atom  206 type  2   force =     0.00000914   -0.00000508   -0.00000157
     atom  207 type  2   force =     0.00000871   -0.00000498   -0.00000173
     atom  208 type  2   force =     0.00000956   -0.00000430   -0.00000222
     atom  209 type  3   force =     0.00000185   -0.00000034   -0.00000047
     atom  210 type  3   force =     0.00000173   -0.00000051   -0.00000060
     atom  211 type  3   force =     0.00000161   -0.00000051   -0.00000052
     atom  212 type  3   force =     0.00000178   -0.00000030   -0.00000049
     atom  213 type  3   force =     0.00000180   -0.00000055   -0.00000072
     atom  214 type  3   force =     0.00000177   -0.00000027   -0.00000046
     atom  215 type  3   force =     0.00000180   -0.00000027   -0.00000046
     atom  216 type  3   force =     0.00000178   -0.00000042   -0.00000073
     atom  217 type  1   force =     0.00000819   -0.00000075   -0.00000309
     atom  218 type  1   force =     0.00000794   -0.00000094   -0.00000343
     atom  219 type  1   force =     0.00000780   -0.00000078   -0.00000331
     atom  220 type  1   force =     0.00000808   -0.00000031   -0.00000291
     atom  221 type  1   force =     0.00000877   -0.00000115   -0.00000361
     atom  222 type  1   force =     0.00000815   -0.00000015   -0.00000303
     atom  223 type  1   force =     0.00000769   -0.00000026   -0.00000304
     atom  224 type  1   force =     0.00000803   -0.00000069   -0.00000355
     atom  225 type  2   force =    -0.00000649    0.00000830   -0.00000048
     atom  226 type  2   force =    -0.00000630    0.00000651   -0.00000060
     atom  227 type  2   force =    -0.00000627    0.00000651   -0.00000074
     atom  228 type  2   force =    -0.00000679    0.00000833   -0.00000047
     atom  229 type  2   force =    -0.00000638    0.00000637   -0.00000066
     atom  230 type  2   force =    -0.00000591    0.00000835   -0.00000053
     atom  231 type  2   force =    -0.00000638    0.00000839   -0.00000039
     atom  232 type  2   force =    -0.00000699    0.00000673   -0.00000070
     atom  233 type  3   force =     0.00000028   -0.00000104    0.00000002
     atom  234 type  3   force =     0.00000023   -0.00000109   -0.00000002
     atom  235 type  3   force =     0.00000016   -0.00000114   -0.00000005
     atom  236 type  3   force =     0.00000027   -0.00000105    0.00000003
     atom  237 type  3   force =     0.00000014   -0.00000110   -0.00000006
     atom  238 type  3   force =     0.00000032   -0.00000110    0.00000005
     atom  239 type  3   force =     0.00000036   -0.00000112    0.00000006
     atom  240 type  3   force =     0.00000010   -0.00000103   -0.00000004
     atom  241 type  1   force =    -0.00000761   -0.00000822    0.00000173
     atom  242 type  1   force =    -0.00000669   -0.00000764    0.00000226
     atom  243 type  1   force =    -0.00000679   -0.00000821    0.00000196
     atom  244 type  1   force =    -0.00000760   -0.00000942    0.00000178
     atom  245 type  1   force =    -0.00000747   -0.00000859    0.00000207
     atom  246 type  1   force =    -0.00000778   -0.00000763    0.00000201
     atom  247 type  1   force =    -0.00000795   -0.00000797    0.00000206
     atom  248 type  1   force =    -0.00000724   -0.00000908    0.00000198
     atom  249 type  1   force =    -0.00000237   -0.00001270   -0.00000082
     atom  250 type  1   force =    -0.00000019   -0.00001318   -0.00000131
     atom  251 type  1   force =    -0.00000090   -0.00001382   -0.00000111
     atom  252 type  1   force =    -0.00000313   -0.00001345   -0.00000034
     atom  253 type  1   force =    -0.00000106   -0.00001438   -0.00000118
     atom  254 type  1   force =    -0.00000318   -0.00001277   -0.00000018
     atom  255 type  1   force =    -0.00000324   -0.00001291   -0.00000017
     atom  256 type  1   force =    -0.00000021   -0.00001384   -0.00000168
     atom  257 type  2   force =     0.00000498    0.00000010   -0.00000095
     atom  258 type  2   force =     0.00000614    0.00000144   -0.00000140
     atom  259 type  2   force =     0.00000566    0.00000136   -0.00000158
     atom  260 type  2   force =     0.00000481    0.00000046   -0.00000096
     atom  261 type  2   force =     0.00000577    0.00000153   -0.00000166
     atom  262 type  2   force =     0.00000497    0.00000024   -0.00000066
     atom  263 type  2   force =     0.00000439    0.00000015   -0.00000094
     atom  264 type  2   force =     0.00000578    0.00000149   -0.00000157
     atom  265 type  2   force =     0.00000148    0.00000238   -0.00000183
     atom  266 type  2   force =     0.00000429    0.00000371   -0.00000312
     atom  267 type  2   force =     0.00000383    0.00000366   -0.00000308
     atom  268 type  2   force =     0.00000146    0.00000204   -0.00000188
     atom  269 type  2   force =     0.00000382    0.00000373   -0.00000319
     atom  270 type  2   force =     0.00000123    0.00000266   -0.00000144
     atom  271 type  2   force =     0.00000110    0.00000252   -0.00000167
     atom  272 type  2   force =     0.00000419    0.00000323   -0.00000335
     atom  273 type  2   force =     0.00000215    0.00000505   -0.00000184
     atom  274 type  2   force =     0.00000260    0.00000599   -0.00000243
     atom  275 type  2   force =     0.00000244    0.00000588   -0.00000257
     atom  276 type  2   force =     0.00000182    0.00000589   -0.00000195
     atom  277 type  2   force =     0.00000273    0.00000612   -0.00000265
     atom  278 type  2   force =     0.00000228    0.00000489   -0.00000172
     atom  279 type  2   force =     0.00000195    0.00000520   -0.00000192
     atom  280 type  2   force =     0.00000249    0.00000633   -0.00000256
     atom  281 type  3   force =    -0.00000108    0.00000034   -0.00000102
     atom  282 type  3   force =    -0.00000090    0.00000074   -0.00000117
     atom  283 type  3   force =    -0.00000082    0.00000075   -0.00000119
     atom  284 type  3   force =    -0.00000122    0.00000044   -0.00000105
     atom  285 type  3   force =    -0.00000076    0.00000081   -0.00000124
     atom  286 type  3   force =    -0.00000104    0.00000031   -0.00000100
     atom  287 type  3   force =    -0.00000108    0.00000035   -0.00000102
     atom  288 type  3   force =    -0.00000081    0.00000083   -0.00000123
     atom  289 type  2   force =     0.00000582   -0.00000047    0.00000282
     atom  290 type  2   force =     0.00000645    0.00000009    0.00000260
     atom  291 type  2   force =     0.00000608    0.00000023    0.00000239
     atom  292 type  2   force =     0.00000562   -0.00000023    0.00000284
     atom  293 type  2   force =     0.00000609    0.00000038    0.00000246
     atom  294 type  2   force =     0.00000611   -0.00000051    0.00000277
     atom  295 type  2   force =     0.00000554   -0.00000029    0.00000264
     atom  296 type  2   force =     0.00000632    0.00000043    0.00000257
     atom  297 type  3   force =     0.00000075   -0.00000106    0.00000076
     atom  298 type  3   force =     0.00000077   -0.00000151    0.00000074
     atom  299 type  3   force =     0.00000071   -0.00000148    0.00000068
     atom  300 type  3   force =     0.00000073   -0.00000103    0.00000078
     atom  301 type  3   force =     0.00000075   -0.00000145    0.00000072
     atom  302 type  3   force =     0.00000080   -0.00000115    0.00000074
     atom  303 type  3   force =     0.00000071   -0.00000109    0.00000073
     atom  304 type  3   force =     0.00000075   -0.00000141    0.00000072
     atom  305 type  1   force =     0.00000742   -0.00000126   -0.00000732
     atom  306 type  1   force =     0.00000991   -0.00000072   -0.00000845
     atom  307 type  1   force =     0.00000983   -0.00000156   -0.00000857
     atom  308 type  1   force =     0.00000732   -0.00000288   -0.00000747
     atom  309 type  1   force =     0.00000983   -0.00000154   -0.00000873
     atom  310 type  1   force =     0.00000732   -0.00000161   -0.00000699
     atom  311 type  1   force =     0.00000727   -0.00000171   -0.00000728
     atom  312 type  1   force =     0.00000993   -0.00000127   -0.00000854
     atom  313 type  1   force =     0.00001174   -0.00001152   -0.00001099
     atom  314 type  1   force =     0.00001370   -0.00001483   -0.00001185
     atom  315 type  1   force =     0.00001360   -0.00001510   -0.00001187
     atom  316 type  1   force =     0.00001186   -0.00001261   -0.00001108
     atom  317 type  1   force =     0.00001404   -0.00001558   -0.00001236
     atom  318 type  1   force =     0.00001095   -0.00001161   -0.00001027
     atom  319 type  1   force =     0.00001099   -0.00001195   -0.00001050
     atom  320 type  1   force =     0.00001451   -0.00001551   -0.00001255
     atom  321 type  2   force =     0.00000493    0.00000929    0.00000178
     atom  322 type  2   force =     0.00000514    0.00000975    0.00000181
     atom  323 type  2   force =     0.00000509    0.00000939    0.00000155
     atom  324 type  2   force =     0.00000512    0.00000990    0.00000191
     atom  325 type  2   force =     0.00000483    0.00000963    0.00000167
     atom  326 type  2   force =     0.00000483    0.00000941    0.00000193
     atom  327 type  2   force =     0.00000460    0.00000942    0.00000178
     atom  328 type  2   force =     0.00000521    0.00001002    0.00000178
     atom  329 type  3   force =     0.00000049    0.00000167    0.00000057
     atom  330 type  3   force =     0.00000033    0.00000193    0.00000053
     atom  331 type  3   force =     0.00000042    0.00000183    0.00000045
     atom  332 type  3   force =     0.00000062    0.00000167    0.00000062
     atom  333 type  3   force =     0.00000032    0.00000194    0.00000057
     atom  334 type  3   force =     0.00000045    0.00000174    0.00000058
     atom  335 type  3   force =     0.00000049    0.00000164    0.00000059
     atom  336 type  3   force =     0.00000039    0.00000195    0.00000058
     atom  337 type  1   force =     0.00000179    0.00000709    0.00000359
     atom  338 type  1   force =     0.00000034    0.00000840    0.00000316
     atom  339 type  1   force =     0.00000024    0.00000843    0.00000284
     atom  340 type  1   force =     0.00000191    0.00000790    0.00000368
     atom  341 type  1   force =     0.00000027    0.00000878    0.00000303
     atom  342 type  1   force =     0.00000153    0.00000736    0.00000357
     atom  343 type  1   force =     0.00000125    0.00000784    0.00000340
     atom  344 type  1   force =     0.00000060    0.00000899    0.00000318
     atom  345 type  2   force =    -0.00000650   -0.00000632    0.00000073
     atom  346 type  2   force =    -0.00000789   -0.00000694    0.00000059
     atom  347 type  2   force =    -0.00000807   -0.00000704    0.00000049
     atom  348 type  2   force =    -0.00000650   -0.00000640    0.00000069
     atom  349 type  2   force =    -0.00000783   -0.00000647    0.00000051
     atom  350 type  2   force =    -0.00000678   -0.00000666    0.00000070
     atom  351 type  2   force =    -0.00000632   -0.00000665    0.00000070
     atom  352 type  2   force =    -0.00000811   -0.00000683    0.00000044
     atom  353 type  3   force =     0.00000103    0.00000019    0.00000005
     atom  354 type  3   force =     0.00000107    0.00000027    0.00000000
     atom  355 type  3   force =     0.00000105    0.00000025   -0.00000002
     atom  356 type  3   force =     0.00000105    0.00000018    0.00000007
     atom  357 type  3   force =     0.00000108    0.00000029   -0.00000001
     atom  358 type  3   force =     0.00000105    0.00000018    0.00000002
     atom  359 type  3   force =     0.00000107    0.00000015    0.00000003
     atom  360 type  3   force =     0.00000106    0.00000033   -0.00000000
     atom  361 type  1   force =     0.00000782    0.00000787    0.00000180
     atom  362 type  1   force =     0.00000646    0.00000864    0.00000194
     atom  363 type  1   force =     0.00000626    0.00000874    0.00000124
     atom  364 type  1   force =     0.00000783    0.00000734    0.00000200
     atom  365 type  1   force =     0.00000771    0.00000754    0.00000279
     atom  366 type  1   force =     0.00000727    0.00000912    0.00000162
     atom  367 type  1   force =     0.00000747    0.00000773    0.00000164
     atom  368 type  1   force =     0.00000774    0.00000833    0.00000265
     atom  369 type  1   force =    -0.00000113    0.00001283   -0.00000247
     atom  370 type  1   force =     0.00000266    0.00001210   -0.00000059
     atom  371 type  1   force =     0.00000296    0.00001247   -0.00000044
     atom  372 type  1   force =    -0.00000067    0.00001326   -0.00000185
     atom  373 type  1   force =     0.00000252    0.00001231   -0.00000075
     atom  374 type  1   force =     0.00000348    0.00001533    0.00000030
     atom  375 type  1   force =     0.00000275    0.00001456    0.00000002
     atom  376 type  1   force =     0.00000253    0.00001290   -0.00000057
     atom  377 type  2   force =    -0.00000628   -0.00000142   -0.00000195
     atom  378 type  2   force =    -0.00000503    0.00000018   -0.00000070
     atom  379 type  2   force =    -0.00000489   -0.00000014   -0.00000098
     atom  380 type  2   force =    -0.00000640   -0.00000133   -0.00000162
     atom  381 type  2   force =    -0.00000517   -0.00000017   -0.00000098
     atom  382 type  2   force =    -0.00000564   -0.00000167   -0.00000128
     atom  383 type  2   force =    -0.00000584   -0.00000128   -0.00000125
     atom  384 type  2   force =    -0.00000486   -0.00000051   -0.00000089
     atom  385 type  2   force =    -0.00000495   -0.00000294   -0.00000402
     atom  386 type  2   force =    -0.00000160   -0.00000263   -0.00000172
     atom  387 type  2   force =    -0.00000144   -0.00000247   -0.00000186
     atom  388 type  2   force =    -0.00000485   -0.00000315   -0.00000356
     atom  389 type  2   force =    -0.00000162   -0.00000227   -0.00000191
     atom  390 type  2   force =    -0.00000298   -0.00000377   -0.00000240
     atom  391 type  2   force =    -0.00000327   -0.00000401   -0.00000254
     atom  392 type  2   force =    -0.00000181   -0.00000196   -0.00000204
     atom  393 type  2   force =    -0.00000246   -0.00000648   -0.00000266
     atom  394 type  2   force =    -0.00000221   -0.00000480   -0.00000171
     atom  395 type  2   force =    -0.00000209   -0.00000513   -0.00000192
     atom  396 type  2   force =    -0.00000265   -0.00000639   -0.00000257
     atom  397 type  2   force =    -0.00000227   -0.00000528   -0.00000193
     atom  398 type  2   force =    -0.00000252   -0.00000609   -0.00000244
     atom  399 type  2   force =    -0.00000265   -0.00000615   -0.00000249
     atom  400 type  2   force =    -0.00000181   -0.00000562   -0.00000186
     atom  401 type  3   force =     0.00000088   -0.00000082   -0.00000123
     atom  402 type  3   force =     0.00000111   -0.00000028   -0.00000099
     atom  403 type  3   force =     0.00000111   -0.00000034   -0.00000103
     atom  404 type  3   force =     0.00000090   -0.00000080   -0.00000122
     atom  405 type  3   force =     0.00000113   -0.00000033   -0.00000105
     atom  406 type  3   force =     0.00000078   -0.00000078   -0.00000118
     atom  407 type  3   force =     0.00000090   -0.00000073   -0.00000120
     atom  408 type  3   force =     0.00000118   -0.00000042   -0.00000103
     atom  409 type  2   force =    -0.00000586    0.00000060    0.00000276
     atom  410 type  2   force =    -0.00000625   -0.00000029    0.00000263
     atom  411 type  2   force =    -0.00000637   -0.00000015    0.00000257
     atom  412 type  2   force =    -0.00000590    0.00000048    0.00000281
     atom  413 type  2   force =    -0.00000617   -0.00000034    0.00000246
     atom  414 type  2   force =    -0.00000595    0.00000052    0.00000284
     atom  415 type  2   force =    -0.00000569    0.00000028    0.00000279
     atom  416 type  2   force =    -0.00000651   -0.00000015    0.00000251
     atom  417 type  3   force =    -0.00000076    0.00000110    0.00000074
     atom  418 type  3   force =    -0.00000068    0.00000148    0.00000075
     atom  419 type  3   force =    -0.00000070    0.00000153    0.00000075
     atom  420 type  3   force =    -0.00000075    0.00000110    0.00000076
     atom  421 type  3   force =    -0.00000075    0.00000142    0.00000068
     atom  422 type  3   force =    -0.00000075    0.00000115    0.00000077
     atom  423 type  3   force =    -0.00000072    0.00000107    0.00000076
     atom  424 type  3   force =    -0.00000080    0.00000149    0.00000070
     atom  425 type  1   force =    -0.00001001    0.00000060   -0.00000879
     atom  426 type  1   force =    -0.00000750    0.00000104   -0.00000714
     atom  427 type  1   force =    -0.00000738    0.00000170   -0.00000732
     atom  428 type  1   force =    -0.00001015    0.00000079   -0.00000855
     atom  429 type  1   force =    -0.00000727    0.00000148   -0.00000727
     atom  430 type  1   force =    -0.00000955    0.00000345   -0.00000850
     atom  431 type  1   force =    -0.00000969    0.00000244   -0.00000863
     atom  432 type  1   force =    -0.00000731    0.00000236   -0.00000733
     atom  433 type  1   force =    -0.00001496    0.00001516   -0.00001294
     atom  434 type  1   force =    -0.00001109    0.00001143   -0.00001048
     atom  435 type  1   force =    -0.00001121    0.00001171   -0.00001062
     atom  436 type  1   force =    -0.00001480    0.00001531   -0.00001268
     atom  437 type  1   force =    -0.00001120    0.00001153   -0.00001061
     atom  438 type  1   force =    -0.00001257    0.00001593   -0.00001130
     atom  439 type  1   force =    -0.00001238    0.00001554   -0.00001122
     atom  440 type  1   force =    -0.00001193    0.00001249   -0.00001112
     atom  441 type  2   force =    -0.00000562   -0.00000980    0.00000134
     atom  442 type  2   force =    -0.00000477   -0.00000921    0.00000192
     atom  443 type  2   force =    -0.00000481   -0.00000953    0.00000182
     atom  444 type  2   force =    -0.00000546   -0.00000990    0.00000164
     atom  445 type  2   force =    -0.00000501   -0.00000967    0.00000180
     atom  446 type  2   force =    -0.00000515   -0.00000980    0.00000187
     atom  447 type  2   force =    -0.00000514   -0.00001024    0.00000199
     atom  448 type  2   force =    -0.00000510   -0.00000969    0.00000188
     atom  449 type  3   force =    -0.00000045   -0.00000171    0.00000058
     atom  450 type  3   force =    -0.00000039   -0.00000186    0.00000051
     atom  451 type  3   force =    -0.00000042   -0.00000186    0.00000042
     atom  452 type  3   force =    -0.00000042   -0.00000173    0.00000058
     atom  453 type  3   force =    -0.00000037   -0.00000202    0.00000061
     atom  454 type  3   force =    -0.00000055   -0.00000167    0.00000060
     atom  455 type  3   force =    -0.00000049   -0.00000172    0.00000059
     atom  456 type  3   force =    -0.00000043   -0.00000197    0.00000056
     atom  457 type  1   force =    -0.00000157   -0.00000740    0.00000357
     atom  458 type  1   force =    -0.00000043   -0.00000861    0.00000310
     atom  459 type  1   force =    -0.00000052   -0.00000863    0.00000300
     atom  460 type  1   force =    -0.00000178   -0.00000691    0.00000361
     atom  461 type  1   force =    -0.00000053   -0.00000890    0.00000326
     atom  462 type  1   force =    -0.00000164   -0.00000768    0.00000360
     atom  463 type  1   force =    -0.00000161   -0.00000746    0.00000362
     atom  464 type  1   force =    -0.00000047   -0.00000848    0.00000303
     atom  465 type  2   force =     0.00000643    0.00000635    0.00000072
     atom  466 type  2   force =     0.00000806    0.00000651    0.00000056
     atom  467 type  2   force =     0.00000784    0.00000631    0.00000042
     atom  468 type  2   force =     0.00000613    0.00000691    0.00000073
     atom  469 type  2   force =     0.00000793    0.00000654    0.00000043
     atom  470 type  2   force =     0.00000686    0.00000619    0.00000070
     atom  471 type  2   force =     0.00000649    0.00000634    0.00000060
     atom  472 type  2   force =     0.00000780    0.00000681    0.00000051
     atom  473 type  3   force =    -0.00000103   -0.00000017    0.00000004
     atom  474 type  3   force =    -0.00000107   -0.00000034    0.00000003
     atom  475 type  3   force =    -0.00000108   -0.00000034   -0.00000001
     atom  476 type  3   force =    -0.00000103   -0.00000017    0.00000005
     atom  477 type  3   force =    -0.00000106   -0.00000029   -0.00000001
     atom  478 type  3   force =    -0.00000109   -0.00000020    0.00000004
     atom  479 type  3   force =    -0.00000103   -0.00000019    0.00000005
     atom  480 type  3   force =    -0.00000112   -0.00000026   -0.00000003
     atom  481 type  4   force =     0.00000010    0.00000092   -0.00000391
     atom  482 type  4   force =     0.00000092   -0.00000092    0.00000459
     atom  483 type  4   force =     0.00000294   -0.00000167    0.00000022
     atom  484 type  4   force =     0.00000172   -0.00000209   -0.00000331
     atom  485 type  4   force =    -0.00000276    0.00000131    0.00000167
     atom  486 type  4   force =     0.00000001    0.00000118   -0.00000415
     atom  487 type  4   force =     0.00000145   -0.00000117   -0.00000371
     atom  488 type  4   force =    -0.00000351   -0.00000095    0.00000128
     atom  489 type  4   force =     0.00000013    0.00000068   -0.00000228
     atom  490 type  4   force =    -0.00000033    0.00000189   -0.00000203
     atom  491 type  4   force =    -0.00000002    0.00000063   -0.00000218
     atom  492 type  4   force =    -0.00000091   -0.00000049   -0.00000094
     atom  493 type  4   force =     0.00000091   -0.00000026   -0.00000166
     atom  494 type  4   force =     0.00000045   -0.00000068   -0.00000106
     atom  495 type  4   force =     0.00000004    0.00000032   -0.00000147
     atom  496 type  4   force =     0.00000015   -0.00000127   -0.00000037

     Total force =     0.006228     Total SCF correction =     0.000212


     Computing stress (Cartesian axis) and pressure

          total   stress  (Ry/bohr**3)                   (kbar)     P=       -2.01
  -0.00001427  -0.00000003  -0.00000000           -2.10       -0.00       -0.00
  -0.00000003  -0.00001453   0.00000002           -0.00       -2.14        0.00
  -0.00000000   0.00000002  -0.00001210           -0.00        0.00       -1.78

     kinetic stress (kbar)  10030.39      0.01      0.01
                                0.01  10030.31      0.01
                                0.01      0.01  10716.54

     local   stress (kbar) -23378.61      0.01      0.05
                                0.01 -23378.82      0.33
                                0.05      0.33  -2297.26

     nonloc. stress (kbar)   2420.52     -0.00     -0.00
                               -0.00   2420.52     -0.00
                               -0.00     -0.00   2341.33

     hartree stress (kbar)  13178.42      0.00     -0.00
                                0.00  13178.48     -0.13
                               -0.00     -0.13   6149.27

     exc-cor stress (kbar)  -1776.02     -0.00     -0.00
                               -0.00  -1776.01     -0.00
                               -0.00     -0.00  -1797.58

     corecor stress (kbar)  -1052.43      0.00      0.00
                                0.00  -1052.43      0.00
                                0.00      0.00  -1036.21

     ewald   stress (kbar)    575.62     -0.03     -0.05
                               -0.03    575.81     -0.20
                               -0.05     -0.20 -14077.88

     hubbard stress (kbar)      0.00      0.00      0.00
                                0.00      0.00      0.00
                                0.00      0.00      0.00

     DFT-D   stress (kbar)      0.00      0.00      0.00
                                0.00      0.00      0.00
                                0.00      0.00      0.00

     XDM     stress (kbar)      0.00      0.00      0.00
                                0.00      0.00      0.00
                                0.00      0.00      0.00

     dft-nl  stress (kbar)      0.00      0.00      0.00
                                0.00      0.00      0.00
                                0.00      0.00      0.00

     TS-vdW  stress (kbar)      0.00      0.00      0.00
                                0.00      0.00      0.00
                                0.00      0.00      0.00

     MDB     stress (kbar)      0.00      0.00      0.00
                                0.00      0.00      0.00
                                0.00      0.00      0.00

     3D-RISM stress (kbar)      0.00      0.00      0.00
                                0.00      0.00      0.00
                                0.00      0.00      0.00


     init_run     :    156.22s CPU    161.06s WALL (       1 calls)
     electrons    :   6575.81s CPU   6731.89s WALL (       1 calls)
     forces       :     75.97s CPU     79.41s WALL (       1 calls)
     stress       :   1699.14s CPU   1717.94s WALL (       1 calls)

     Called by init_run:
     wfcinit      :    145.31s CPU    149.21s WALL (       1 calls)
     wfcinit:atom :      0.16s CPU      0.32s WALL (       1 calls)
     wfcinit:wfcr :    143.53s CPU    146.83s WALL (       1 calls)
     potinit      :      4.31s CPU      4.35s WALL (       1 calls)
     hinit0       :      3.59s CPU      3.64s WALL (       1 calls)

     Called by electrons:
     c_bands      :   6004.48s CPU   6119.74s WALL (      19 calls)
     sum_band     :    524.47s CPU    552.23s WALL (      19 calls)
     v_of_rho     :      6.19s CPU      6.44s WALL (      20 calls)
     v_h          :      0.47s CPU      0.49s WALL (      20 calls)
     v_xc         :      6.23s CPU      6.48s WALL (      22 calls)
     newd         :     26.56s CPU     39.79s WALL (      20 calls)
     PAW_pot      :     13.16s CPU     13.21s WALL (      20 calls)
     mix_rho      :      2.12s CPU      2.33s WALL (      19 calls)

     Called by c_bands:
     init_us_2    :     11.17s CPU     12.94s WALL (      39 calls)
     init_us_2:cp :     11.17s CPU     12.94s WALL (      39 calls)
     cegterg      :   5979.93s CPU   6093.34s WALL (      19 calls)

     Called by sum_band:
     sum_band:wei :      0.00s CPU      0.00s WALL (      19 calls)
     sum_band:loo :    499.13s CPU    512.35s WALL (      19 calls)
     sum_band:buf :      0.00s CPU      0.00s WALL (      19 calls)
     sum_band:ini :      5.25s CPU      6.10s WALL (      19 calls)
     sum_band:cal :    278.69s CPU    282.82s WALL (      19 calls)
     sum_band:bec :      0.89s CPU      0.89s WALL (      19 calls)
     addusdens    :     22.51s CPU     35.79s WALL (      19 calls)
                                        0.00s GPU  (      19 calls)
     addusd:skk   :      5.72s CPU     11.64s WALL (      76 calls)
                                        0.00s GPU  (      76 calls)

     Called by *egterg:
     cdiaghg      :    529.64s CPU    534.06s WALL (     104 calls)
     cegterg:over :    679.06s CPU    684.82s WALL (      85 calls)
     cegterg:upda :    357.15s CPU    361.95s WALL (      85 calls)
     cegterg:last :    869.34s CPU    879.67s WALL (      46 calls)
     cdiaghg:chol :     12.78s CPU     12.81s WALL (     104 calls)
     cdiaghg:inve :      2.12s CPU      2.12s WALL (     104 calls)
     cdiaghg:para :     45.44s CPU     47.31s WALL (     208 calls)
     h_psi        :   2736.55s CPU   2810.08s WALL (     105 calls)
     s_psi        :    678.48s CPU    684.69s WALL (     105 calls)
     g_psi        :      2.96s CPU      2.97s WALL (      85 calls)

     Called by h_psi:
     h_psi:calbec :    840.09s CPU    852.55s WALL (     105 calls)
     vloc_psi     :   1194.73s CPU   1247.02s WALL (     105 calls)
     add_vuspsi   :    699.10s CPU    705.14s WALL (     105 calls)

     General routines
     calbec       :   1190.94s CPU   1208.33s WALL (     129 calls)
     fft          :      8.18s CPU      8.59s WALL (     283 calls)
     ffts         :      0.74s CPU      0.82s WALL (      39 calls)
     fftw         :   1306.30s CPU   1364.37s WALL (  133288 calls)
     interpolate  :      0.84s CPU      0.89s WALL (      20 calls)

     Parallel routines

     PAW routines
     PAW_pot      :     13.16s CPU     13.21s WALL (      20 calls)

     PWSCF        :      2h21m CPU      2h24m WALL


   This run was terminated on:   3:10:57  23May2025            

=------------------------------------------------------------------------------=
   JOB DONE.
=------------------------------------------------------------------------------=
