
     Program PWSCF v.7.2 starts on 22May2025 at  6:11:54 

     This program is part of the open-source Quantum ESPRESSO suite
     for quantum simulation of materials; please cite
         "P. Giannozzi et al., J. Phys.:Condens. Matter 21 395502 (2009);
         "P. Giannozzi et al., J. Phys.:Condens. Matter 29 465901 (2017);
         "P. Giannozzi et al., J. Chem. Phys. 152 154105 (2020);
          URL http://www.quantum-espresso.org", 
     in publications or presentations arising from this work. More details at
     http://www.quantum-espresso.org/quote

     Parallel version (MPI), running on    32 processors

     MPI processes distributed on     1 nodes
     181576 MiB available memory on the printing compute node when the environment starts

     Waiting for input...
     Reading input from standard input

     Current dimensions of program PWSCF are:
     Max number of different atomic species (ntypx) = 10
     Max number of k-points (npk) =  40000
     Max angular momentum in pseudopotentials (lmaxx) =  4
     file C.pbesol-n-kjpaw_psl.1.0.0.UPF: wavefunction(s)  2S 2P renormalized

     R & G space division:  proc/nbgrp/npool/nimage =      32
     Subspace diagonalization in iterative solution of the eigenvalue problem:
     one sub-group per band group will be used
     custom distributed-memory algorithm (size of sub-group:  5*  5 procs)


     Parallelization info
     --------------------
     sticks:   dense  smooth     PW     G-vecs:    dense   smooth      PW
     Min         878     844    211                80117    75361    9423
     Max         882     845    212                80120    75364    9425
     Sum       28159   27021   6771              2563819  2411581  301561

     Using Slab Decomposition



     bravais-lattice index     =            0
     lattice parameter (alat)  =      37.6381  a.u.
     unit-cell volume          =   38409.3354 (a.u.)^3
     number of atoms/cell      =          496
     number of atomic types    =            4
     number of electrons       =      2016.00
     number of Kohn-Sham states=         1008
     kinetic-energy cutoff     =      60.0000  Ry
     charge density cutoff     =     250.0000  Ry
     scf convergence threshold =      1.2E-08
     mixing beta               =       0.4000
     number of iterations used =            8  plain     mixing
     Exchange-correlation= SLA  PW   PSX  PSC
                           (   1   4  10   8   0   0   0)

     celldm(1)=  37.638096  celldm(2)=   0.000000  celldm(3)=   0.000000
     celldm(4)=   0.000000  celldm(5)=   0.000000  celldm(6)=   0.000000

     crystal axes: (cart. coord. in units of alat)
               a(1) = (  -0.509774   0.509774   0.693009 )  
               a(2) = (   0.509774  -0.509774   0.693009 )  
               a(3) = (   0.509774   0.509774  -0.693009 )  

     reciprocal axes: (cart. coord. in units 2 pi/alat)
               b(1) = (  0.000000  0.980827  0.721491 )  
               b(2) = (  0.980827  0.000000  0.721491 )  
               b(3) = (  0.980827  0.980827  0.000000 )  


     PseudoPot. # 1 for N  read from file:
     ./pseudo/N.pbesol-theos.UPF
     MD5 check sum: 1b64827339d390a5a22afef3ff345c9d
     Pseudo is Ultrasoft + core correction, Zval =  5.0
     Generated using "atomic" code by A. Dal Corso  v.5.1
     Using radial grid of 1085 points,  4 beta functions with: 
                l(1) =   0
                l(2) =   0
                l(3) =   1
                l(4) =   1
     Q(r) pseudized with 0 coefficients 


     PseudoPot. # 2 for C  read from file:
     ./pseudo/C.pbesol-n-kjpaw_psl.1.0.0.UPF
     MD5 check sum: 5f3a56537b2bcef3348431d8311bb923
     Pseudo is Projector augmented-wave + core cor, Zval =  4.0
     Generated using "atomic" code by A. Dal Corso  v.6.0 svn rev. 13079
     Shape of augmentation charge: PSQ
     Using radial grid of 1073 points,  4 beta functions with: 
                l(1) =   0
                l(2) =   0
                l(3) =   1
                l(4) =   1
     Q(r) pseudized with 0 coefficients 


     PseudoPot. # 3 for H  read from file:
     ./pseudo/H.pbesol-rrkjus_psl.1.0.0.UPF
     MD5 check sum: 0324ed591cc0147dc3d88cad0d33f665
     Pseudo is Ultrasoft, Zval =  1.0
     Generated using "atomic" code by A. Dal Corso  v.6.0 svn rev. 13079
     Using radial grid of  929 points,  2 beta functions with: 
                l(1) =   0
                l(2) =   0
     Q(r) pseudized with 0 coefficients 


     PseudoPot. # 4 for Zn read from file:
     ./pseudo/zn_pbesol_v1.uspp.F.UPF
     MD5 check sum: 7d8615e52efe7c1e2b1899de8658bae2
     Pseudo is Ultrasoft, Zval = 20.0
     Generated by new atomic code, or converted to UPF format
     Using radial grid of  943 points,  6 beta functions with: 
                l(1) =   0
                l(2) =   0
                l(3) =   1
                l(4) =   1
                l(5) =   2
                l(6) =   2
     Q(r) pseudized with  8 coefficients,  rinner =    1.100   1.100   1.100
                                                       1.100   1.100

     atomic species   valence    mass     pseudopotential
        N              5.00    14.00670     N ( 1.00)
        C              4.00    12.01070     C ( 1.00)
        H              1.00     1.00794     H ( 1.00)
        Zn            20.00    65.38000     Zn( 1.00)

     No symmetry found


                                    s                        frac. trans.

      isym =  1     identity                                     

 cryst.   s( 1) = (     1          0          0      )
                  (     0          1          0      )
                  (     0          0          1      )

 cart.    s( 1) = (  1.0000000  0.0000000  0.0000000 )
                  (  0.0000000  1.0000000  0.0000000 )
                  (  0.0000000  0.0000000  1.0000000 )


   Cartesian axes

     site n.     atom                  positions (alat units)
         1           N   tau(   1) = (   0.2710468  -0.0829864   0.1173636  )
         2           N   tau(   2) = (   0.0161599   0.1719005   0.4638680  )
         3           N   tau(   3) = (   0.5259337  -0.3378733   0.4638680  )
         4           N   tau(   4) = (   0.2710468  -0.0829864   0.8103725  )
         5           N   tau(   5) = (   0.5259337   0.1719005  -0.2291408  )
         6           N   tau(   6) = (   0.2710468   0.4267874   0.1173636  )
         7           N   tau(   7) = (   0.7808206  -0.0829864   0.1173636  )
         8           N   tau(   8) = (   0.5259337   0.1719005   0.4638680  )
         9           N   tau(   9) = (   0.0792892   0.1480962   0.4576515  )
        10           N   tau(  10) = (  -0.1755977   0.4029831   0.8041559  )
        11           N   tau(  11) = (   0.3341761  -0.1067907   0.8041559  )
        12           N   tau(  12) = (   0.0792892   0.1480962   1.1506604  )
        13           N   tau(  13) = (   0.3341761   0.4029831   0.1111471  )
        14           N   tau(  14) = (   0.0792892   0.6578701   0.4576515  )
        15           N   tau(  15) = (   0.5890630   0.1480962   0.4576515  )
        16           N   tau(  16) = (   0.3341761   0.4029831   0.8041559  )
        17           C   tau(  17) = (  -0.0968335   0.1355948   0.4273593  )
        18           C   tau(  18) = (  -0.3517204   0.3904817   0.7738637  )
        19           C   tau(  19) = (   0.1580534  -0.1192921   0.7738637  )
        20           C   tau(  20) = (  -0.0968335   0.1355948   1.1203682  )
        21           C   tau(  21) = (   0.1580534   0.3904817   0.0808549  )
        22           C   tau(  22) = (  -0.0968335   0.6453687   0.4273593  )
        23           C   tau(  23) = (   0.4129403   0.1355948   0.4273593  )
        24           C   tau(  24) = (   0.1580534   0.3904817   0.7738637  )
        25           C   tau(  25) = (  -0.0244840   0.1283983   0.4318794  )
        26           C   tau(  26) = (  -0.2793710   0.3832852   0.7783839  )
        27           C   tau(  27) = (   0.2304029  -0.1264886   0.7783839  )
        28           C   tau(  28) = (  -0.0244840   0.1283983   1.1248883  )
        29           C   tau(  29) = (   0.2304029   0.3832852   0.0853750  )
        30           C   tau(  30) = (  -0.0244840   0.6381721   0.4318794  )
        31           C   tau(  31) = (   0.4852898   0.1283983   0.4318794  )
        32           C   tau(  32) = (   0.2304029   0.3832852   0.7783839  )
        33           C   tau(  33) = (   0.1135697   0.3364209   0.0858899  )
        34           C   tau(  34) = (  -0.1413172   0.5913078   0.4323944  )
        35           C   tau(  35) = (   0.3684566   0.0815340   0.4323944  )
        36           C   tau(  36) = (   0.1135697   0.3364209   0.7788988  )
        37           C   tau(  37) = (   0.3684566   0.5913078  -0.2606145  )
        38           C   tau(  38) = (   0.1135697   0.8461947   0.0858899  )
        39           C   tau(  39) = (   0.6233435   0.3364209   0.0858899  )
        40           C   tau(  40) = (   0.3684566   0.5913078   0.4323944  )
        41           H   tau(  41) = (   0.1320089   0.2848859   0.0919123  )
        42           H   tau(  42) = (  -0.1228780   0.5397728   0.4384168  )
        43           H   tau(  43) = (   0.3868958   0.0299990   0.4384168  )
        44           H   tau(  44) = (   0.1320089   0.2848859   0.7849212  )
        45           H   tau(  45) = (   0.3868958   0.5397728  -0.2545921  )
        46           H   tau(  46) = (   0.1320089   0.7946597   0.0919123  )
        47           H   tau(  47) = (   0.6417827   0.2848859   0.0919123  )
        48           H   tau(  48) = (   0.3868958   0.5397728   0.4384168  )
        49           C   tau(  49) = (   0.0234072   0.4166034   0.0803957  )
        50           C   tau(  50) = (  -0.2314797   0.6714904   0.4269002  )
        51           C   tau(  51) = (   0.2782941   0.1617165   0.4269002  )
        52           C   tau(  52) = (   0.0234072   0.4166034   0.7734046  )
        53           C   tau(  53) = (   0.2782941   0.6714904  -0.2661087  )
        54           C   tau(  54) = (   0.0234072   0.9263773   0.0803957  )
        55           C   tau(  55) = (   0.5331811   0.4166034   0.0803957  )
        56           C   tau(  56) = (   0.2782941   0.6714904   0.4269002  )
        57           H   tau(  57) = (  -0.0300067   0.4299903   0.0814174  )
        58           H   tau(  58) = (  -0.2848936   0.6848772   0.4279218  )
        59           H   tau(  59) = (   0.2248802   0.1751034   0.4279218  )
        60           H   tau(  60) = (  -0.0300067   0.4299903   0.7744263  )
        61           H   tau(  61) = (   0.2248802   0.6848772  -0.2650870  )
        62           H   tau(  62) = (  -0.0300067   0.9397641   0.0814174  )
        63           H   tau(  63) = (   0.4797671   0.4299903   0.0814174  )
        64           H   tau(  64) = (   0.2248802   0.6848772   0.4279218  )
        65           N   tau(  65) = (   0.0137429   0.0791523   0.4063605  )
        66           N   tau(  66) = (  -0.2411440   0.3340392   0.7528650  )
        67           N   tau(  67) = (   0.2686298  -0.1757347   0.7528650  )
        68           N   tau(  68) = (   0.0137429   0.0791523   1.0993694  )
        69           N   tau(  69) = (   0.2686298   0.3340392   0.0598561  )
        70           N   tau(  70) = (   0.0137429   0.5889261   0.4063605  )
        71           N   tau(  71) = (   0.5235167   0.0791523   0.4063605  )
        72           N   tau(  72) = (   0.2686298   0.3340392   0.7528650  )
        73           N   tau(  73) = (   0.0778636   0.0929680   0.4236992  )
        74           N   tau(  74) = (  -0.1770233   0.3478549   0.7702037  )
        75           N   tau(  75) = (   0.3327505  -0.1619189   0.7702037  )
        76           N   tau(  76) = (   0.0778636   0.0929680   1.1167081  )
        77           N   tau(  77) = (   0.3327505   0.3478549   0.0771948  )
        78           N   tau(  78) = (   0.0778636   0.6027418   0.4236992  )
        79           N   tau(  79) = (   0.5876374   0.0929680   0.4236992  )
        80           N   tau(  80) = (   0.3327505   0.3478549   0.7702037  )
        81           C   tau(  81) = (  -0.1235577   0.1998410   0.4201831  )
        82           C   tau(  82) = (  -0.3787155   0.4549987   0.7670558  )
        83           C   tau(  83) = (   0.1310583  -0.0547751   0.7670558  )
        84           C   tau(  84) = (  -0.1238286   0.2001118   1.1135603  )
        85           C   tau(  85) = (   0.1310583   0.4549987   0.0740469  )
        86           C   tau(  86) = (  -0.1238286   0.7098857   0.4205514  )
        87           C   tau(  87) = (   0.3859452   0.2001118   0.4205514  )
        88           C   tau(  88) = (   0.1310583   0.4549987   0.7670558  )
        89           H   tau(  89) = (   0.1645114  -0.0114933   0.0672613  )
        90           H   tau(  90) = (  -0.0903755   0.2433936   0.4137658  )
        91           H   tau(  91) = (   0.4193983  -0.2663802   0.4137658  )
        92           H   tau(  92) = (   0.1645114  -0.0114933   0.7602702  )
        93           H   tau(  93) = (   0.4193983   0.2433936  -0.2792431  )
        94           H   tau(  94) = (   0.1645114   0.4982805   0.0672613  )
        95           H   tau(  95) = (   0.6742852  -0.0114933   0.0672613  )
        96           H   tau(  96) = (   0.4193983   0.2433936   0.4137658  )
        97           N   tau(  97) = (   0.0658052  -0.0414701   0.0746064  )
        98           N   tau(  98) = (  -0.1890817   0.2134168   0.4211109  )
        99           N   tau(  99) = (   0.3206921  -0.2963571   0.4211109  )
       100           N   tau( 100) = (   0.0658052  -0.0414701   0.7676153  )
       101           N   tau( 101) = (   0.3206921   0.2134168  -0.2718980  )
       102           N   tau( 102) = (   0.0658052   0.4683037   0.0746064  )
       103           N   tau( 103) = (   0.5755790  -0.0414701   0.0746064  )
       104           N   tau( 104) = (   0.3206921   0.2134168   0.4211109  )
       105           C   tau( 105) = (  -0.0451994   0.1596322   0.0850839  )
       106           C   tau( 106) = (  -0.3000863   0.4145191   0.4315883  )
       107           C   tau( 107) = (   0.2096875  -0.0952547   0.4315883  )
       108           C   tau( 108) = (  -0.0451994   0.1596322   0.7780928  )
       109           C   tau( 109) = (   0.2096875   0.4145191  -0.2614205  )
       110           C   tau( 110) = (  -0.0451994   0.6694060   0.0850839  )
       111           C   tau( 111) = (   0.4645744   0.1596322   0.0850839  )
       112           C   tau( 112) = (   0.2096875   0.4145191   0.4315883  )
       113           H   tau( 113) = (   0.0082067   0.3098036   0.0895138  )
       114           H   tau( 114) = (  -0.2466802   0.5646905   0.4360182  )
       115           H   tau( 115) = (   0.2630936   0.0549167   0.4360182  )
       116           H   tau( 116) = (   0.0082067   0.3098036   0.7825226  )
       117           H   tau( 117) = (   0.2630936   0.5646905  -0.2569907  )
       118           H   tau( 118) = (   0.0082067   0.8195774   0.0895138  )
       119           H   tau( 119) = (   0.5179805   0.3098036   0.0895138  )
       120           H   tau( 120) = (   0.2630936   0.5646905   0.4360182  )
       121           N   tau( 121) = (   0.2387270   0.0829864   0.1173636  )
       122           N   tau( 122) = (  -0.0161599   0.3378733   0.4638680  )
       123           N   tau( 123) = (   0.4936139  -0.1719005   0.4638680  )
       124           N   tau( 124) = (   0.2387270   0.0829864   0.8103725  )
       125           N   tau( 125) = (   0.4936139   0.3378733  -0.2291408  )
       126           N   tau( 126) = (   0.2387270   0.5927603   0.1173636  )
       127           N   tau( 127) = (   0.7485008   0.0829864   0.1173636  )
       128           N   tau( 128) = (   0.4936139   0.3378733   0.4638680  )
       129           N   tau( 129) = (   0.1755977   0.1067907   0.1111471  )
       130           N   tau( 130) = (  -0.0792892   0.3616776   0.4576515  )
       131           N   tau( 131) = (   0.4304846  -0.1480962   0.4576515  )
       132           N   tau( 132) = (   0.1755977   0.1067907   0.8041559  )
       133           N   tau( 133) = (   0.4304846   0.3616776  -0.2353574  )
       134           N   tau( 134) = (   0.1755977   0.6165645   0.1111471  )
       135           N   tau( 135) = (   0.6853715   0.1067907   0.1111471  )
       136           N   tau( 136) = (   0.4304846   0.3616776   0.4576515  )
       137           C   tau( 137) = (   0.3517204   0.1192921   0.0808549  )
       138           C   tau( 138) = (   0.0968335   0.3741790   0.4273593  )
       139           C   tau( 139) = (   0.6066073  -0.1355948   0.4273593  )
       140           C   tau( 140) = (   0.3517204   0.1192921   0.7738637  )
       141           C   tau( 141) = (   0.6066073   0.3741790  -0.2656496  )
       142           C   tau( 142) = (   0.3517204   0.6290659   0.0808549  )
       143           C   tau( 143) = (   0.8614942   0.1192921   0.0808549  )
       144           C   tau( 144) = (   0.6066073   0.3741790   0.4273593  )
       145           C   tau( 145) = (   0.2793710   0.1264886   0.0853750  )
       146           C   tau( 146) = (   0.0244840   0.3813755   0.4318794  )
       147           C   tau( 147) = (   0.5342579  -0.1283983   0.4318794  )
       148           C   tau( 148) = (   0.2793710   0.1264886   0.7783839  )
       149           C   tau( 149) = (   0.5342579   0.3813755  -0.2611294  )
       150           C   tau( 150) = (   0.2793710   0.6362624   0.0853750  )
       151           C   tau( 151) = (   0.7891448   0.1264886   0.0853750  )
       152           C   tau( 152) = (   0.5342579   0.3813755   0.4318794  )
       153           C   tau( 153) = (   0.1413172  -0.0815340   0.4323944  )
       154           C   tau( 154) = (  -0.1135697   0.1733530   0.7788988  )
       155           C   tau( 155) = (   0.3962041  -0.3364209   0.7788988  )
       156           C   tau( 156) = (   0.1413172  -0.0815340   1.1254033  )
       157           C   tau( 157) = (   0.3962041   0.1733530   0.0858899  )
       158           C   tau( 158) = (   0.1413172   0.4282399   0.4323944  )
       159           C   tau( 159) = (   0.6510910  -0.0815340   0.4323944  )
       160           C   tau( 160) = (   0.3962041   0.1733530   0.7788988  )
       161           H   tau( 161) = (   0.1228780  -0.0299990   0.4384168  )
       162           H   tau( 162) = (  -0.1320089   0.2248879   0.7849212  )
       163           H   tau( 163) = (   0.3777649  -0.2848859   0.7849212  )
       164           H   tau( 164) = (   0.1228780  -0.0299990   1.1314256  )
       165           H   tau( 165) = (   0.3777649   0.2248879   0.0919123  )
       166           H   tau( 166) = (   0.1228780   0.4797748   0.4384168  )
       167           H   tau( 167) = (   0.6326518  -0.0299990   0.4384168  )
       168           H   tau( 168) = (   0.3777649   0.2248879   0.7849212  )
       169           C   tau( 169) = (  -0.0234072   0.0931704   0.0803957  )
       170           C   tau( 170) = (  -0.2782942   0.3480573   0.4269002  )
       171           C   tau( 171) = (   0.2314797  -0.1617165   0.4269002  )
       172           C   tau( 172) = (  -0.0234072   0.0931704   0.7734046  )
       173           C   tau( 173) = (   0.2314797   0.3480573  -0.2661087  )
       174           C   tau( 174) = (  -0.0234072   0.6029442   0.0803957  )
       175           C   tau( 175) = (   0.4863666   0.0931704   0.0803957  )
       176           C   tau( 176) = (   0.2314797   0.3480573   0.4269002  )
       177           H   tau( 177) = (   0.0300067   0.0797836   0.0814174  )
       178           H   tau( 178) = (  -0.2248802   0.3346705   0.4279218  )
       179           H   tau( 179) = (   0.2848936  -0.1751034   0.4279218  )
       180           H   tau( 180) = (   0.0300067   0.0797836   0.7744263  )
       181           H   tau( 181) = (   0.2848936   0.3346705  -0.2650870  )
       182           H   tau( 182) = (   0.0300067   0.5895574   0.0814174  )
       183           H   tau( 183) = (   0.5397805   0.0797836   0.0814174  )
       184           H   tau( 184) = (   0.2848936   0.3346705   0.4279218  )
       185           N   tau( 185) = (   0.2411440   0.1757347   0.0598561  )
       186           N   tau( 186) = (  -0.0137429   0.4306216   0.4063605  )
       187           N   tau( 187) = (   0.4960309  -0.0791523   0.4063605  )
       188           N   tau( 188) = (   0.2411440   0.1757347   0.7528650  )
       189           N   tau( 189) = (   0.4960309   0.4306216  -0.2866484  )
       190           N   tau( 190) = (   0.2411440   0.6855085   0.0598561  )
       191           N   tau( 191) = (   0.7509178   0.1757347   0.0598561  )
       192           N   tau( 192) = (   0.4960309   0.4306216   0.4063605  )
       193           N   tau( 193) = (   0.1770233   0.1619189   0.0771948  )
       194           N   tau( 194) = (  -0.0778636   0.4168059   0.4236992  )
       195           N   tau( 195) = (   0.4319102  -0.0929680   0.4236992  )
       196           N   tau( 196) = (   0.1770233   0.1619189   0.7702037  )
       197           N   tau( 197) = (   0.4319102   0.4168059  -0.2693096  )
       198           N   tau( 198) = (   0.1770233   0.6716928   0.0771948  )
       199           N   tau( 199) = (   0.6867971   0.1619189   0.0771948  )
       200           N   tau( 200) = (   0.4319102   0.4168059   0.4236992  )
       201           C   tau( 201) = (   0.3787155   0.0547751   0.0740469  )
       202           C   tau( 202) = (   0.1238286   0.3096620   0.4205514  )
       203           C   tau( 203) = (   0.6336024  -0.2001118   0.4205514  )
       204           C   tau( 204) = (   0.3787155   0.0547751   0.7670558  )
       205           C   tau( 205) = (   0.6336024   0.3096620  -0.2724575  )
       206           C   tau( 206) = (   0.3787155   0.5645489   0.0740469  )
       207           C   tau( 207) = (   0.8884893   0.0547751   0.0740469  )
       208           C   tau( 208) = (   0.6336024   0.3096620   0.4205514  )
       209           H   tau( 209) = (   0.3452624   0.0114933   0.0672613  )
       210           H   tau( 210) = (   0.0903755   0.2663802   0.4137658  )
       211           H   tau( 211) = (   0.6001493  -0.2433936   0.4137658  )
       212           H   tau( 212) = (   0.3452624   0.0114933   0.7602702  )
       213           H   tau( 213) = (   0.6001493   0.2663802  -0.2792431  )
       214           H   tau( 214) = (   0.3452624   0.5212672   0.0672613  )
       215           H   tau( 215) = (   0.8550362   0.0114933   0.0672613  )
       216           H   tau( 216) = (   0.6001493   0.2663802   0.4137658  )
       217           N   tau( 217) = (   0.4439686   0.0414701   0.0746064  )
       218           N   tau( 218) = (   0.1890817   0.2963571   0.4211109  )
       219           N   tau( 219) = (   0.6988555  -0.2134168   0.4211109  )
       220           N   tau( 220) = (   0.4439686   0.0414701   0.7676153  )
       221           N   tau( 221) = (   0.6988555   0.2963571  -0.2718980  )
       222           N   tau( 222) = (   0.4439686   0.5512440   0.0746064  )
       223           N   tau( 223) = (   0.9537424   0.0414701   0.0746064  )
       224           N   tau( 224) = (   0.6988555   0.2963571   0.4211109  )
       225           C   tau( 225) = (   0.0451994   0.3501416   0.0850839  )
       226           C   tau( 226) = (  -0.2096875   0.6050285   0.4315883  )
       227           C   tau( 227) = (   0.3000863   0.0952547   0.4315883  )
       228           C   tau( 228) = (   0.0451994   0.3501416   0.7780928  )
       229           C   tau( 229) = (   0.3000863   0.6050285  -0.2614205  )
       230           C   tau( 230) = (   0.0451994   0.8599154   0.0850839  )
       231           C   tau( 231) = (   0.5549732   0.3501416   0.0850839  )
       232           C   tau( 232) = (   0.3000863   0.6050285   0.4315883  )
       233           H   tau( 233) = (  -0.0082067   0.1999702   0.0895138  )
       234           H   tau( 234) = (  -0.2630936   0.4548571   0.4360182  )
       235           H   tau( 235) = (   0.2466802  -0.0549167   0.4360182  )
       236           H   tau( 236) = (  -0.0082067   0.1999702   0.7825226  )
       237           H   tau( 237) = (   0.2466802   0.4548571  -0.2569907  )
       238           H   tau( 238) = (  -0.0082067   0.7097440   0.0895138  )
       239           H   tau( 239) = (   0.5015671   0.1999702   0.0895138  )
       240           H   tau( 240) = (   0.2466802   0.4548571   0.4360182  )
       241           N   tau( 241) = (   0.1719005  -0.0161599   0.2291408  )
       242           N   tau( 242) = (  -0.0829864   0.2387270   0.5756453  )
       243           N   tau( 243) = (   0.4267874  -0.2710468   0.5756453  )
       244           N   tau( 244) = (   0.1719005  -0.0161599   0.9221497  )
       245           N   tau( 245) = (   0.4267874   0.2387270  -0.1173636  )
       246           N   tau( 246) = (   0.1719005   0.4936139   0.2291408  )
       247           N   tau( 247) = (   0.6816743  -0.0161599   0.2291408  )
       248           N   tau( 248) = (   0.4267874   0.2387270   0.5756453  )
       249           N   tau( 249) = (   0.1480962  -0.0792892   0.2353574  )
       250           N   tau( 250) = (  -0.1067907   0.1755977   0.5818618  )
       251           N   tau( 251) = (   0.4029831  -0.3341761   0.5818618  )
       252           N   tau( 252) = (   0.1480962  -0.0792892   0.9283662  )
       253           N   tau( 253) = (   0.4029831   0.1755977  -0.1111471  )
       254           N   tau( 254) = (   0.1480962   0.4304846   0.2353574  )
       255           N   tau( 255) = (   0.6578701  -0.0792892   0.2353574  )
       256           N   tau( 256) = (   0.4029831   0.1755977   0.5818618  )
       257           C   tau( 257) = (   0.1355948   0.0968335   0.2656496  )
       258           C   tau( 258) = (  -0.1192921   0.3517204   0.6121540  )
       259           C   tau( 259) = (   0.3904817  -0.1580534   0.6121540  )
       260           C   tau( 260) = (   0.1355948   0.0968335   0.9586584  )
       261           C   tau( 261) = (   0.3904817   0.3517204  -0.0808549  )
       262           C   tau( 262) = (   0.1355948   0.6066073   0.2656496  )
       263           C   tau( 263) = (   0.6453687   0.0968335   0.2656496  )
       264           C   tau( 264) = (   0.3904817   0.3517204   0.6121540  )
       265           C   tau( 265) = (   0.1283983   0.0244840   0.2611294  )
       266           C   tau( 266) = (  -0.1264886   0.2793710   0.6076339  )
       267           C   tau( 267) = (   0.3832852  -0.2304029   0.6076339  )
       268           C   tau( 268) = (   0.1283983   0.0244840   0.9541383  )
       269           C   tau( 269) = (   0.3832852   0.2793710  -0.0853750  )
       270           C   tau( 270) = (   0.1283983   0.5342579   0.2611294  )
       271           C   tau( 271) = (   0.6381721   0.0244840   0.2611294  )
       272           C   tau( 272) = (   0.3832852   0.2793710   0.6076339  )
       273           C   tau( 273) = (   0.0815340   0.1413172   0.2606145  )
       274           C   tau( 274) = (  -0.1733530   0.3962041   0.6071189  )
       275           C   tau( 275) = (   0.3364209  -0.1135697   0.6071189  )
       276           C   tau( 276) = (   0.0815340   0.1413172   0.9536234  )
       277           C   tau( 277) = (   0.3364209   0.3962041  -0.0858899  )
       278           C   tau( 278) = (   0.0815340   0.6510910   0.2606145  )
       279           C   tau( 279) = (   0.5913078   0.1413172   0.2606145  )
       280           C   tau( 280) = (   0.3364209   0.3962041   0.6071189  )
       281           H   tau( 281) = (   0.0299990   0.1228780   0.2545921  )
       282           H   tau( 282) = (  -0.2248879   0.3777649   0.6010965  )
       283           H   tau( 283) = (   0.2848859  -0.1320089   0.6010965  )
       284           H   tau( 284) = (   0.0299990   0.1228780   0.9476010  )
       285           H   tau( 285) = (   0.2848859   0.3777649  -0.0919123  )
       286           H   tau( 286) = (   0.0299990   0.6326518   0.2545921  )
       287           H   tau( 287) = (   0.5397728   0.1228780   0.2545921  )
       288           H   tau( 288) = (   0.2848859   0.3777649   0.6010965  )
       289           C   tau( 289) = (   0.1617165   0.2314797   0.2661087  )
       290           C   tau( 290) = (  -0.0931704   0.4863666   0.6126131  )
       291           C   tau( 291) = (   0.4166034  -0.0234072   0.6126131  )
       292           C   tau( 292) = (   0.1617165   0.2314797   0.9591176  )
       293           C   tau( 293) = (   0.4166034   0.4863666  -0.0803957  )
       294           C   tau( 294) = (   0.1617165   0.7412535   0.2661087  )
       295           C   tau( 295) = (   0.6714904   0.2314797   0.2661087  )
       296           C   tau( 296) = (   0.4166034   0.4863666   0.6126131  )
       297           H   tau( 297) = (   0.1751034   0.2848936   0.2650870  )
       298           H   tau( 298) = (  -0.0797836   0.5397805   0.6115915  )
       299           H   tau( 299) = (   0.4299903   0.0300067   0.6115915  )
       300           H   tau( 300) = (   0.1751034   0.2848936   0.9580959  )
       301           H   tau( 301) = (   0.4299903   0.5397805  -0.0814174  )
       302           H   tau( 302) = (   0.1751034   0.7946674   0.2650870  )
       303           H   tau( 303) = (   0.6848772   0.2848936   0.2650870  )
       304           H   tau( 304) = (   0.4299903   0.5397805   0.6115915  )
       305           N   tau( 305) = (   0.0791523  -0.0137429   0.2866484  )
       306           N   tau( 306) = (  -0.1757347   0.2411440   0.6331528  )
       307           N   tau( 307) = (   0.3340392  -0.2686298   0.6331528  )
       308           N   tau( 308) = (   0.0791523  -0.0137429   0.9796572  )
       309           N   tau( 309) = (   0.3340392   0.2411440  -0.0598561  )
       310           N   tau( 310) = (   0.0791523   0.4960309   0.2866484  )
       311           N   tau( 311) = (   0.5889261  -0.0137429   0.2866484  )
       312           N   tau( 312) = (   0.3340392   0.2411440   0.6331528  )
       313           N   tau( 313) = (   0.0929680  -0.0778636   0.2693096  )
       314           N   tau( 314) = (  -0.1619189   0.1770233   0.6158141  )
       315           N   tau( 315) = (   0.3478549  -0.3327505   0.6158141  )
       316           N   tau( 316) = (   0.0929680  -0.0778636   0.9623185  )
       317           N   tau( 317) = (   0.3478549   0.1770233  -0.0771948  )
       318           N   tau( 318) = (   0.0929680   0.4319102   0.2693096  )
       319           N   tau( 319) = (   0.6027418  -0.0778636   0.2693096  )
       320           N   tau( 320) = (   0.3478549   0.1770233   0.6158141  )
       321           C   tau( 321) = (   0.2001118   0.1238286   0.2724575  )
       322           C   tau( 322) = (  -0.0547751   0.3787155   0.6189619  )
       323           C   tau( 323) = (   0.4549987  -0.1310583   0.6189619  )
       324           C   tau( 324) = (   0.2001118   0.1238286   0.9654664  )
       325           C   tau( 325) = (   0.4549987   0.3787155  -0.0740469  )
       326           C   tau( 326) = (   0.2001118   0.6336024   0.2724575  )
       327           C   tau( 327) = (   0.7098857   0.1238286   0.2724575  )
       328           C   tau( 328) = (   0.4549987   0.3787155   0.6189619  )
       329           H   tau( 329) = (   0.2433936   0.0903755   0.2792431  )
       330           H   tau( 330) = (  -0.0114933   0.3452624   0.6257475  )
       331           H   tau( 331) = (   0.4982805  -0.1645114   0.6257475  )
       332           H   tau( 332) = (   0.2433936   0.0903755   0.9722520  )
       333           H   tau( 333) = (   0.4982805   0.3452624  -0.0672613  )
       334           H   tau( 334) = (   0.2433936   0.6001493   0.2792431  )
       335           H   tau( 335) = (   0.7531674   0.0903755   0.2792431  )
       336           H   tau( 336) = (   0.4982805   0.3452624   0.6257475  )
       337           N   tau( 337) = (   0.2134168   0.1890817   0.2718980  )
       338           N   tau( 338) = (  -0.0414701   0.4439686   0.6184024  )
       339           N   tau( 339) = (   0.4683037  -0.0658052   0.6184024  )
       340           N   tau( 340) = (   0.2134168   0.1890817   0.9649069  )
       341           N   tau( 341) = (   0.4683037   0.4439686  -0.0746064  )
       342           N   tau( 342) = (   0.2134168   0.6988555   0.2718980  )
       343           N   tau( 343) = (   0.7231906   0.1890817   0.2718980  )
       344           N   tau( 344) = (   0.4683037   0.4439686   0.6184024  )
       345           C   tau( 345) = (  -0.0952547   0.3000863   0.2614205  )
       346           C   tau( 346) = (  -0.3501416   0.5549732   0.6079250  )
       347           C   tau( 347) = (   0.1596322   0.0451994   0.6079250  )
       348           C   tau( 348) = (  -0.0952547   0.3000863   0.9544294  )
       349           C   tau( 349) = (   0.1596322   0.5549732  -0.0850839  )
       350           C   tau( 350) = (  -0.0952547   0.8098601   0.2614205  )
       351           C   tau( 351) = (   0.4145191   0.3000863   0.2614205  )
       352           C   tau( 352) = (   0.1596322   0.5549732   0.6079250  )
       353           H   tau( 353) = (   0.0549167   0.2466802   0.2569907  )
       354           H   tau( 354) = (  -0.1999702   0.5015671   0.6034951  )
       355           H   tau( 355) = (   0.3098036  -0.0082067   0.6034951  )
       356           H   tau( 356) = (   0.0549167   0.2466802   0.9499995  )
       357           H   tau( 357) = (   0.3098036   0.5015671  -0.0895138  )
       358           H   tau( 358) = (   0.0549167   0.7564540   0.2569907  )
       359           H   tau( 359) = (   0.5646905   0.2466802   0.2569907  )
       360           H   tau( 360) = (   0.3098036   0.5015671   0.6034951  )
       361           N   tau( 361) = (   0.3378733   0.0161599   0.2291408  )
       362           N   tau( 362) = (   0.0829864   0.2710468   0.5756453  )
       363           N   tau( 363) = (   0.5927603  -0.2387270   0.5756453  )
       364           N   tau( 364) = (   0.3378733   0.0161599   0.9221497  )
       365           N   tau( 365) = (   0.5927603   0.2710468  -0.1173636  )
       366           N   tau( 366) = (   0.3378733   0.5259337   0.2291408  )
       367           N   tau( 367) = (   0.8476472   0.0161599   0.2291408  )
       368           N   tau( 368) = (   0.5927603   0.2710468   0.5756453  )
       369           N   tau( 369) = (   0.1067907   0.3341761  -0.1111471  )
       370           N   tau( 370) = (  -0.1480962   0.5890630   0.2353574  )
       371           N   tau( 371) = (   0.3616776   0.0792892   0.2353574  )
       372           N   tau( 372) = (   0.1067907   0.3341761   0.5818618  )
       373           N   tau( 373) = (   0.3616776   0.5890630  -0.4576515  )
       374           N   tau( 374) = (   0.1067907   0.8439499  -0.1111471  )
       375           N   tau( 375) = (   0.6165645   0.3341761  -0.1111471  )
       376           N   tau( 376) = (   0.3616776   0.5890630   0.2353574  )
       377           C   tau( 377) = (   0.1192921   0.1580534  -0.0808549  )
       378           C   tau( 378) = (  -0.1355948   0.4129403   0.2656496  )
       379           C   tau( 379) = (   0.3741790  -0.0968335   0.2656496  )
       380           C   tau( 380) = (   0.1192921   0.1580534   0.6121540  )
       381           C   tau( 381) = (   0.3741790   0.4129403  -0.4273593  )
       382           C   tau( 382) = (   0.1192921   0.6678273  -0.0808549  )
       383           C   tau( 383) = (   0.6290659   0.1580534  -0.0808549  )
       384           C   tau( 384) = (   0.3741790   0.4129403   0.2656496  )
       385           C   tau( 385) = (   0.1264886   0.2304029  -0.0853750  )
       386           C   tau( 386) = (  -0.1283983   0.4852898   0.2611294  )
       387           C   tau( 387) = (   0.3813755  -0.0244840   0.2611294  )
       388           C   tau( 388) = (   0.1264886   0.2304029   0.6076339  )
       389           C   tau( 389) = (   0.3813755   0.4852898  -0.4318794  )
       390           C   tau( 390) = (   0.1264886   0.7401767  -0.0853750  )
       391           C   tau( 391) = (   0.6362624   0.2304029  -0.0853750  )
       392           C   tau( 392) = (   0.3813755   0.4852898   0.2611294  )
       393           C   tau( 393) = (   0.1733530   0.1135697  -0.0858899  )
       394           C   tau( 394) = (  -0.0815340   0.3684566   0.2606145  )
       395           C   tau( 395) = (   0.4282399  -0.1413172   0.2606145  )
       396           C   tau( 396) = (   0.1733530   0.1135697   0.6071189  )
       397           C   tau( 397) = (   0.4282399   0.3684566  -0.4323944  )
       398           C   tau( 398) = (   0.1733530   0.6233435  -0.0858899  )
       399           C   tau( 399) = (   0.6831268   0.1135697  -0.0858899  )
       400           C   tau( 400) = (   0.4282399   0.3684566   0.2606145  )
       401           H   tau( 401) = (   0.2248879   0.1320089  -0.0919123  )
       402           H   tau( 402) = (  -0.0299990   0.3868958   0.2545921  )
       403           H   tau( 403) = (   0.4797748  -0.1228780   0.2545921  )
       404           H   tau( 404) = (   0.2248879   0.1320089   0.6010965  )
       405           H   tau( 405) = (   0.4797748   0.3868958  -0.4384168  )
       406           H   tau( 406) = (   0.2248879   0.6417827  -0.0919123  )
       407           H   tau( 407) = (   0.7346617   0.1320089  -0.0919123  )
       408           H   tau( 408) = (   0.4797748   0.3868958   0.2545921  )
       409           C   tau( 409) = (  -0.1617165   0.2782942   0.2661087  )
       410           C   tau( 410) = (  -0.4166034   0.5331811   0.6126131  )
       411           C   tau( 411) = (   0.0931704   0.0234072   0.6126131  )
       412           C   tau( 412) = (  -0.1617165   0.2782942   0.9591176  )
       413           C   tau( 413) = (   0.0931704   0.5331811  -0.0803957  )
       414           C   tau( 414) = (  -0.1617165   0.7880680   0.2661087  )
       415           C   tau( 415) = (   0.3480573   0.2782942   0.2661087  )
       416           C   tau( 416) = (   0.0931704   0.5331811   0.6126131  )
       417           H   tau( 417) = (  -0.1751034   0.2248802   0.2650870  )
       418           H   tau( 418) = (  -0.4299903   0.4797671   0.6115915  )
       419           H   tau( 419) = (   0.0797836  -0.0300067   0.6115915  )
       420           H   tau( 420) = (  -0.1751034   0.2248802   0.9580959  )
       421           H   tau( 421) = (   0.0797836   0.4797671  -0.0814174  )
       422           H   tau( 422) = (  -0.1751034   0.7346540   0.2650870  )
       423           H   tau( 423) = (   0.3346705   0.2248802   0.2650870  )
       424           H   tau( 424) = (   0.0797836   0.4797671   0.6115915  )
       425           N   tau( 425) = (   0.1757347   0.2686298  -0.0598561  )
       426           N   tau( 426) = (  -0.0791523   0.5235167   0.2866484  )
       427           N   tau( 427) = (   0.4306216   0.0137429   0.2866484  )
       428           N   tau( 428) = (   0.1757347   0.2686298   0.6331528  )
       429           N   tau( 429) = (   0.4306216   0.5235167  -0.4063605  )
       430           N   tau( 430) = (   0.1757347   0.7784037  -0.0598561  )
       431           N   tau( 431) = (   0.6855085   0.2686298  -0.0598561  )
       432           N   tau( 432) = (   0.4306216   0.5235167   0.2866484  )
       433           N   tau( 433) = (   0.1619189   0.3327505  -0.0771948  )
       434           N   tau( 434) = (  -0.0929680   0.5876374   0.2693096  )
       435           N   tau( 435) = (   0.4168059   0.0778636   0.2693096  )
       436           N   tau( 436) = (   0.1619189   0.3327505   0.6158141  )
       437           N   tau( 437) = (   0.4168059   0.5876374  -0.4236992  )
       438           N   tau( 438) = (   0.1619189   0.8425243  -0.0771948  )
       439           N   tau( 439) = (   0.6716928   0.3327505  -0.0771948  )
       440           N   tau( 440) = (   0.4168059   0.5876374   0.2693096  )
       441           C   tau( 441) = (   0.0547751   0.1310583  -0.0740469  )
       442           C   tau( 442) = (  -0.2001118   0.3859452   0.2724575  )
       443           C   tau( 443) = (   0.3096620  -0.1238286   0.2724575  )
       444           C   tau( 444) = (   0.0547751   0.1310583   0.6189619  )
       445           C   tau( 445) = (   0.3096620   0.3859452  -0.4205514  )
       446           C   tau( 446) = (   0.0547751   0.6408321  -0.0740469  )
       447           C   tau( 447) = (   0.5645489   0.1310583  -0.0740469  )
       448           C   tau( 448) = (   0.3096620   0.3859452   0.2724575  )
       449           H   tau( 449) = (   0.2663802  -0.0903755   0.2792431  )
       450           H   tau( 450) = (   0.0114933   0.1645114   0.6257475  )
       451           H   tau( 451) = (   0.5212672  -0.3452624   0.6257475  )
       452           H   tau( 452) = (   0.2663802  -0.0903755   0.9722520  )
       453           H   tau( 453) = (   0.5212672   0.1645114  -0.0672613  )
       454           H   tau( 454) = (   0.2663802   0.4193983   0.2792431  )
       455           H   tau( 455) = (   0.7761541  -0.0903755   0.2792431  )
       456           H   tau( 456) = (   0.5212672   0.1645114   0.6257475  )
       457           N   tau( 457) = (   0.2963571  -0.1890817   0.2718980  )
       458           N   tau( 458) = (   0.0414701   0.0658052   0.6184024  )
       459           N   tau( 459) = (   0.5512440  -0.4439686   0.6184024  )
       460           N   tau( 460) = (   0.2963571  -0.1890817   0.9649069  )
       461           N   tau( 461) = (   0.5512440   0.0658052  -0.0746064  )
       462           N   tau( 462) = (   0.2963571   0.3206921   0.2718980  )
       463           N   tau( 463) = (   0.8061309  -0.1890817   0.2718980  )
       464           N   tau( 464) = (   0.5512440   0.0658052   0.6184024  )
       465           C   tau( 465) = (   0.0952547   0.2096875   0.2614205  )
       466           C   tau( 466) = (  -0.1596322   0.4645744   0.6079250  )
       467           C   tau( 467) = (   0.3501416  -0.0451994   0.6079250  )
       468           C   tau( 468) = (   0.0952547   0.2096875   0.9544294  )
       469           C   tau( 469) = (   0.3501416   0.4645744  -0.0850839  )
       470           C   tau( 470) = (   0.0952547   0.7194613   0.2614205  )
       471           C   tau( 471) = (   0.6050285   0.2096875   0.2614205  )
       472           C   tau( 472) = (   0.3501416   0.4645744   0.6079250  )
       473           H   tau( 473) = (  -0.0549167   0.2630936   0.2569907  )
       474           H   tau( 474) = (  -0.3098036   0.5179805   0.6034951  )
       475           H   tau( 475) = (   0.1999702   0.0082067   0.6034951  )
       476           H   tau( 476) = (  -0.0549167   0.2630936   0.9499995  )
       477           H   tau( 477) = (   0.1999702   0.5179805  -0.0895138  )
       478           H   tau( 478) = (  -0.0549167   0.7728675   0.2569907  )
       479           H   tau( 479) = (   0.4548571   0.2630936   0.2569907  )
       480           H   tau( 480) = (   0.1999702   0.5179805   0.6034951  )
       481           Zn  tau( 481) = (   0.2548869   0.0000000   0.1732522  )
       482           Zn  tau( 482) = (   0.0000000   0.2548869   0.5197567  )
       483           Zn  tau( 483) = (   0.5097738  -0.2548869   0.5197567  )
       484           Zn  tau( 484) = (   0.2548869   0.0000000   0.8662611  )
       485           Zn  tau( 485) = (   0.5097738   0.2548869  -0.1732522  )
       486           Zn  tau( 486) = (   0.2548869   0.5097738   0.1732522  )
       487           Zn  tau( 487) = (   0.7646607   0.0000000   0.1732522  )
       488           Zn  tau( 488) = (   0.5097738   0.2548869   0.5197567  )
       489           Zn  tau( 489) = (   0.0000000   0.0000000   0.3465044  )
       490           Zn  tau( 490) = (  -0.2548869   0.2548869   0.6930089  )
       491           Zn  tau( 491) = (   0.2548869  -0.2548869   0.6930089  )
       492           Zn  tau( 492) = (   0.0000000   0.0000000   1.0395133  )
       493           Zn  tau( 493) = (   0.2548869   0.2548869   0.0000000  )
       494           Zn  tau( 494) = (   0.0000000   0.5097738   0.3465044  )
       495           Zn  tau( 495) = (   0.5097738   0.0000000   0.3465044  )
       496           Zn  tau( 496) = (   0.2548869   0.2548869   0.6930089  )

   Crystallographic axes

     site n.     atom                  positions (cryst. coord.)
         1           N   tau(   1) = (  0.0032815  0.3505269  0.1844547  )
         2           N   tau(   2) = (  0.5032815  0.3505269  0.1844547  )
         3           N   tau(   3) = (  0.0032815  0.8505269  0.1844547  )
         4           N   tau(   4) = (  0.5032815  0.8505269  0.1844547  )
         5           N   tau(   5) = (  0.0032815  0.3505269  0.6844547  )
         6           N   tau(   6) = (  0.5032815  0.3505269  0.6844547  )
         7           N   tau(   7) = (  0.0032815  0.8505269  0.6844547  )
         8           N   tau(   8) = (  0.5032815  0.8505269  0.6844547  )
         9           N   tau(   9) = (  0.4754485  0.4079607  0.2230258  )
        10           N   tau(  10) = (  0.9754485  0.4079607  0.2230258  )
        11           N   tau(  11) = (  0.4754485  0.9079607  0.2230258  )
        12           N   tau(  12) = (  0.9754485  0.9079607  0.2230258  )
        13           N   tau(  13) = (  0.4754485  0.4079607  0.7230258  )
        14           N   tau(  14) = (  0.9754485  0.4079607  0.7230258  )
        15           N   tau(  15) = (  0.4754485  0.9079607  0.7230258  )
        16           N   tau(  16) = (  0.9754485  0.9079607  0.7230258  )
        17           C   tau(  17) = (  0.4413312  0.2133592  0.0380182  )
        18           C   tau(  18) = (  0.9413312  0.2133592  0.0380182  )
        19           C   tau(  19) = (  0.4413312  0.7133592  0.0380182  )
        20           C   tau(  20) = (  0.9413312  0.7133592  0.0380182  )
        21           C   tau(  21) = (  0.4413312  0.2133592  0.5380182  )
        22           C   tau(  22) = (  0.9413312  0.2133592  0.5380182  )
        23           C   tau(  23) = (  0.4413312  0.7133592  0.5380182  )
        24           C   tau(  24) = (  0.9413312  0.7133592  0.5380182  )
        25           C   tau(  25) = (  0.4375339  0.2875827  0.1019219  )
        26           C   tau(  26) = (  0.9375339  0.2875827  0.1019219  )
        27           C   tau(  27) = (  0.4375339  0.7875827  0.1019219  )
        28           C   tau(  28) = (  0.9375339  0.7875827  0.1019219  )
        29           C   tau(  29) = (  0.4375339  0.2875827  0.6019219  )
        30           C   tau(  30) = (  0.9375339  0.2875827  0.6019219  )
        31           C   tau(  31) = (  0.4375339  0.7875827  0.6019219  )
        32           C   tau(  32) = (  0.9375339  0.7875827  0.6019219  )
        33           C   tau(  33) = (  0.3919396  0.1733611  0.4413630  )
        34           C   tau(  34) = (  0.8919396  0.1733611  0.4413630  )
        35           C   tau(  35) = (  0.3919396  0.6733611  0.4413630  )
        36           C   tau(  36) = (  0.8919396  0.6733611  0.4413630  )
        37           C   tau(  37) = (  0.3919396  0.1733611  0.9413630  )
        38           C   tau(  38) = (  0.8919396  0.1733611  0.9413630  )
        39           C   tau(  39) = (  0.3919396  0.6733611  0.9413630  )
        40           C   tau(  40) = (  0.8919396  0.6733611  0.9413630  )
        41           H   tau(  41) = (  0.3457378  0.1957919  0.4089018  )
        42           H   tau(  42) = (  0.8457378  0.1957919  0.4089018  )
        43           H   tau(  43) = (  0.3457378  0.6957919  0.4089018  )
        44           H   tau(  44) = (  0.8457378  0.6957919  0.4089018  )
        45           H   tau(  45) = (  0.3457378  0.1957919  0.9089018  )
        46           H   tau(  46) = (  0.8457378  0.1957919  0.9089018  )
        47           H   tau(  47) = (  0.3457378  0.6957919  0.9089018  )
        48           H   tau(  48) = (  0.8457378  0.6957919  0.9089018  )
        49           C   tau(  49) = (  0.4666208  0.0809633  0.4315744  )
        50           C   tau(  50) = (  0.9666208  0.0809633  0.4315744  )
        51           C   tau(  51) = (  0.4666208  0.5809633  0.4315744  )
        52           C   tau(  52) = (  0.9666208  0.5809633  0.4315744  )
        53           C   tau(  53) = (  0.4666208  0.0809633  0.9315744  )
        54           C   tau(  54) = (  0.9666208  0.0809633  0.9315744  )
        55           C   tau(  55) = (  0.4666208  0.5809633  0.9315744  )
        56           C   tau(  56) = (  0.9666208  0.5809633  0.9315744  )
        57           H   tau(  57) = (  0.4804881  0.0293106  0.3923147  )
        58           H   tau(  58) = (  0.9804881  0.0293106  0.3923147  )
        59           H   tau(  59) = (  0.4804881  0.5293106  0.3923147  )
        60           H   tau(  60) = (  0.9804881  0.5293106  0.3923147  )
        61           H   tau(  61) = (  0.4804881  0.0293106  0.8923147  )
        62           H   tau(  62) = (  0.9804881  0.0293106  0.8923147  )
        63           H   tau(  63) = (  0.4804881  0.5293106  0.8923147  )
        64           H   tau(  64) = (  0.9804881  0.5293106  0.8923147  )
        65           N   tau(  65) = (  0.3708203  0.3066651  0.0911141  )
        66           N   tau(  66) = (  0.8708203  0.3066651  0.0911141  )
        67           N   tau(  67) = (  0.3708203  0.8066651  0.0911141  )
        68           N   tau(  68) = (  0.8708203  0.8066651  0.0911141  )
        69           N   tau(  69) = (  0.3708203  0.3066651  0.5911141  )
        70           N   tau(  70) = (  0.8708203  0.3066651  0.5911141  )
        71           N   tau(  71) = (  0.3708203  0.8066651  0.5911141  )
        72           N   tau(  72) = (  0.8708203  0.8066651  0.5911141  )
        73           N   tau(  73) = (  0.3968809  0.3820661  0.1675562  )
        74           N   tau(  74) = (  0.8968809  0.3820661  0.1675562  )
        75           N   tau(  75) = (  0.3968809  0.8820661  0.1675562  )
        76           N   tau(  76) = (  0.8968809  0.8820661  0.1675562  )
        77           N   tau(  77) = (  0.3968809  0.3820661  0.6675562  )
        78           N   tau(  78) = (  0.8968809  0.3820661  0.6675562  )
        79           N   tau(  79) = (  0.3968809  0.8820661  0.6675562  )
        80           N   tau(  80) = (  0.8968809  0.8820661  0.6675562  )
        81           C   tau(  81) = (  0.4991680  0.1819698  0.0748207  )
        82           C   tau(  82) = (  0.9996994  0.1819698  0.0748207  )
        83           C   tau(  83) = (  0.4996994  0.6819698  0.0748207  )
        84           C   tau(  84) = (  0.9996994  0.6819698  0.0748207  )
        85           C   tau(  85) = (  0.4996994  0.1819698  0.5748207  )
        86           C   tau(  86) = (  0.9996994  0.1819698  0.5748207  )
        87           C   tau(  87) = (  0.4996994  0.6819698  0.5748207  )
        88           C   tau(  88) = (  0.9996994  0.6819698  0.5748207  )
        89           H   tau(  89) = (  0.0372555  0.2098857  0.1500843  )
        90           H   tau(  90) = (  0.5372555  0.2098857  0.1500843  )
        91           H   tau(  91) = (  0.0372555  0.7098857  0.1500843  )
        92           H   tau(  92) = (  0.5372555  0.7098857  0.1500843  )
        93           H   tau(  93) = (  0.0372555  0.2098857  0.6500843  )
        94           H   tau(  94) = (  0.5372555  0.2098857  0.6500843  )
        95           H   tau(  95) = (  0.0372555  0.7098857  0.6500843  )
        96           H   tau(  96) = (  0.5372555  0.7098857  0.6500843  )
        97           N   tau(  97) = (  0.0131529  0.1183715  0.0238685  )
        98           N   tau(  98) = (  0.5131529  0.1183715  0.0238685  )
        99           N   tau(  99) = (  0.0131529  0.6183715  0.0238685  )
       100           N   tau( 100) = (  0.5131529  0.6183715  0.0238685  )
       101           N   tau( 101) = (  0.0131529  0.1183715  0.5238685  )
       102           N   tau( 102) = (  0.5131529  0.1183715  0.5238685  )
       103           N   tau( 103) = (  0.0131529  0.6183715  0.5238685  )
       104           N   tau( 104) = (  0.5131529  0.6183715  0.5238685  )
       105           C   tau( 105) = (  0.2179589  0.0170545  0.1122388  )
       106           C   tau( 106) = (  0.7179589  0.0170545  0.1122388  )
       107           C   tau( 107) = (  0.2179589  0.5170545  0.1122388  )
       108           C   tau( 108) = (  0.7179589  0.5170545  0.1122388  )
       109           C   tau( 109) = (  0.2179589  0.0170545  0.6122388  )
       110           C   tau( 110) = (  0.7179589  0.0170545  0.6122388  )
       111           C   tau( 111) = (  0.2179589  0.5170545  0.6122388  )
       112           C   tau( 112) = (  0.7179589  0.5170545  0.6122388  )
       113           H   tau( 113) = (  0.3684472  0.0726328  0.3119132  )
       114           H   tau( 114) = (  0.8684472  0.0726328  0.3119132  )
       115           H   tau( 115) = (  0.3684472  0.5726328  0.3119132  )
       116           H   tau( 116) = (  0.8684472  0.5726328  0.3119132  )
       117           H   tau( 117) = (  0.3684472  0.0726328  0.8119132  )
       118           H   tau( 118) = (  0.8684472  0.0726328  0.8119132  )
       119           H   tau( 119) = (  0.3684472  0.5726328  0.8119132  )
       120           H   tau( 120) = (  0.8684472  0.5726328  0.8119132  )
       121           N   tau( 121) = (  0.1660722  0.3188268  0.3155453  )
       122           N   tau( 122) = (  0.6660722  0.3188268  0.3155453  )
       123           N   tau( 123) = (  0.1660722  0.8188268  0.3155453  )
       124           N   tau( 124) = (  0.6660722  0.8188268  0.3155453  )
       125           N   tau( 125) = (  0.1660722  0.3188268  0.8155453  )
       126           N   tau( 126) = (  0.6660722  0.3188268  0.8155453  )
       127           N   tau( 127) = (  0.1660722  0.8188268  0.8155453  )
       128           N   tau( 128) = (  0.6660722  0.8188268  0.8155453  )
       129           N   tau( 129) = (  0.1849349  0.2524227  0.2769742  )
       130           N   tau( 130) = (  0.6849349  0.2524227  0.2769742  )
       131           N   tau( 131) = (  0.1849349  0.7524227  0.2769742  )
       132           N   tau( 132) = (  0.6849349  0.7524227  0.2769742  )
       133           N   tau( 133) = (  0.1849349  0.2524227  0.7769742  )
       134           N   tau( 134) = (  0.6849349  0.2524227  0.7769742  )
       135           N   tau( 135) = (  0.1849349  0.7524227  0.7769742  )
       136           N   tau( 136) = (  0.6849349  0.7524227  0.7769742  )
       137           C   tau( 137) = (  0.1753410  0.4033130  0.4619818  )
       138           C   tau( 138) = (  0.6753410  0.4033130  0.4619818  )
       139           C   tau( 139) = (  0.1753410  0.9033130  0.4619818  )
       140           C   tau( 140) = (  0.6753410  0.9033130  0.4619818  )
       141           C   tau( 141) = (  0.1753410  0.4033130  0.9619818  )
       142           C   tau( 142) = (  0.6753410  0.4033130  0.9619818  )
       143           C   tau( 143) = (  0.1753410  0.9033130  0.9619818  )
       144           C   tau( 144) = (  0.6753410  0.9033130  0.9619818  )
       145           C   tau( 145) = (  0.1856608  0.3356120  0.3980781  )
       146           C   tau( 146) = (  0.6856608  0.3356120  0.3980781  )
       147           C   tau( 147) = (  0.1856608  0.8356120  0.3980781  )
       148           C   tau( 148) = (  0.6856608  0.8356120  0.3980781  )
       149           C   tau( 149) = (  0.1856608  0.3356120  0.8980781  )
       150           C   tau( 150) = (  0.6856608  0.3356120  0.8980781  )
       151           C   tau( 151) = (  0.1856608  0.8356120  0.8980781  )
       152           C   tau( 152) = (  0.6856608  0.8356120  0.8980781  )
       153           C   tau( 153) = (  0.2319981  0.4505766  0.0586370  )
       154           C   tau( 154) = (  0.7319981  0.4505766  0.0586370  )
       155           C   tau( 155) = (  0.2319981  0.9505766  0.0586370  )
       156           C   tau( 156) = (  0.7319981  0.9505766  0.0586370  )
       157           C   tau( 157) = (  0.2319981  0.4505766  0.5586370  )
       158           C   tau( 158) = (  0.7319981  0.4505766  0.5586370  )
       159           C   tau( 159) = (  0.2319981  0.9505766  0.5586370  )
       160           C   tau( 160) = (  0.7319981  0.9505766  0.5586370  )
       161           H   tau( 161) = (  0.2868901  0.4368360  0.0910982  )
       162           H   tau( 162) = (  0.7868901  0.4368360  0.0910982  )
       163           H   tau( 163) = (  0.2868901  0.9368360  0.0910982  )
       164           H   tau( 164) = (  0.7868901  0.9368360  0.0910982  )
       165           H   tau( 165) = (  0.2868901  0.4368360  0.5910982  )
       166           H   tau( 166) = (  0.7868901  0.4368360  0.5910982  )
       167           H   tau( 167) = (  0.2868901  0.9368360  0.5910982  )
       168           H   tau( 168) = (  0.7868901  0.9368360  0.5910982  )
       169           C   tau( 169) = (  0.1493889  0.0350464  0.0684256  )
       170           C   tau( 170) = (  0.6493889  0.0350464  0.0684256  )
       171           C   tau( 171) = (  0.1493889  0.5350464  0.0684256  )
       172           C   tau( 172) = (  0.6493889  0.5350464  0.0684256  )
       173           C   tau( 173) = (  0.1493889  0.0350464  0.5684256  )
       174           C   tau( 174) = (  0.6493889  0.0350464  0.5684256  )
       175           C   tau( 175) = (  0.1493889  0.5350464  0.5684256  )
       176           C   tau( 176) = (  0.6493889  0.5350464  0.5684256  )
       177           H   tau( 177) = (  0.1369958  0.0881734  0.1076853  )
       178           H   tau( 178) = (  0.6369958  0.0881734  0.1076853  )
       179           H   tau( 179) = (  0.1369958  0.5881734  0.1076853  )
       180           H   tau( 180) = (  0.6369958  0.5881734  0.1076853  )
       181           H   tau( 181) = (  0.1369958  0.0881734  0.6076853  )
       182           H   tau( 182) = (  0.6369958  0.0881734  0.6076853  )
       183           H   tau( 183) = (  0.1369958  0.5881734  0.6076853  )
       184           H   tau( 184) = (  0.6369958  0.5881734  0.6076853  )
       185           N   tau( 185) = (  0.2155510  0.2797062  0.4088859  )
       186           N   tau( 186) = (  0.7155510  0.2797062  0.4088859  )
       187           N   tau( 187) = (  0.2155510  0.7797062  0.4088859  )
       188           N   tau( 188) = (  0.7155510  0.7797062  0.4088859  )
       189           N   tau( 189) = (  0.2155510  0.2797062  0.9088859  )
       190           N   tau( 190) = (  0.7155510  0.2797062  0.9088859  )
       191           N   tau( 191) = (  0.2155510  0.7797062  0.9088859  )
       192           N   tau( 192) = (  0.7155510  0.7797062  0.9088859  )
       193           N   tau( 193) = (  0.2145099  0.2293247  0.3324438  )
       194           N   tau( 194) = (  0.7145099  0.2293247  0.3324438  )
       195           N   tau( 195) = (  0.2145099  0.7293247  0.3324438  )
       196           N   tau( 196) = (  0.7145099  0.7293247  0.3324438  )
       197           N   tau( 197) = (  0.2145099  0.2293247  0.8324438  )
       198           N   tau( 198) = (  0.7145099  0.2293247  0.8324438  )
       199           N   tau( 199) = (  0.2145099  0.7293247  0.8324438  )
       200           N   tau( 200) = (  0.7145099  0.7293247  0.8324438  )
       201           C   tau( 201) = (  0.1071491  0.4248787  0.4251793  )
       202           C   tau( 202) = (  0.6071491  0.4248787  0.4251793  )
       203           C   tau( 203) = (  0.1071491  0.9248787  0.4251793  )
       204           C   tau( 204) = (  0.6071491  0.9248787  0.4251793  )
       205           C   tau( 205) = (  0.1071491  0.4248787  0.9251793  )
       206           C   tau( 206) = (  0.6071491  0.4248787  0.9251793  )
       207           C   tau( 207) = (  0.1071491  0.9248787  0.9251793  )
       208           C   tau( 208) = (  0.6071491  0.9248787  0.9251793  )
       209           H   tau( 209) = (  0.0598014  0.3871712  0.3499157  )
       210           H   tau( 210) = (  0.5598014  0.3871712  0.3499157  )
       211           H   tau( 211) = (  0.0598014  0.8871712  0.3499157  )
       212           H   tau( 212) = (  0.5598014  0.8871712  0.3499157  )
       213           H   tau( 213) = (  0.0598014  0.3871712  0.8499157  )
       214           H   tau( 214) = (  0.5598014  0.3871712  0.8499157  )
       215           H   tau( 215) = (  0.0598014  0.8871712  0.8499157  )
       216           H   tau( 216) = (  0.5598014  0.8871712  0.8499157  )
       217           N   tau( 217) = (  0.0945030  0.4892844  0.4761315  )
       218           N   tau( 218) = (  0.5945030  0.4892844  0.4761315  )
       219           N   tau( 219) = (  0.0945030  0.9892844  0.4761315  )
       220           N   tau( 220) = (  0.5945030  0.9892844  0.4761315  )
       221           N   tau( 221) = (  0.0945030  0.4892844  0.9761315  )
       222           N   tau( 222) = (  0.5945030  0.4892844  0.9761315  )
       223           N   tau( 223) = (  0.0945030  0.9892844  0.9761315  )
       224           N   tau( 224) = (  0.5945030  0.9892844  0.9761315  )
       225           C   tau( 225) = (  0.4048157  0.1057201  0.3877612  )
       226           C   tau( 226) = (  0.9048157  0.1057201  0.3877612  )
       227           C   tau( 227) = (  0.4048157  0.6057201  0.3877612  )
       228           C   tau( 228) = (  0.9048157  0.6057201  0.3877612  )
       229           C   tau( 229) = (  0.4048157  0.1057201  0.8877612  )
       230           C   tau( 230) = (  0.9048157  0.1057201  0.8877612  )
       231           C   tau( 231) = (  0.4048157  0.6057201  0.8877612  )
       232           C   tau( 232) = (  0.9048157  0.6057201  0.8877612  )
       233           H   tau( 233) = (  0.2607196  0.0565340  0.1880868  )
       234           H   tau( 234) = (  0.7607196  0.0565340  0.1880868  )
       235           H   tau( 235) = (  0.2607196  0.5565340  0.1880868  )
       236           H   tau( 236) = (  0.7607196  0.5565340  0.1880868  )
       237           H   tau( 237) = (  0.2607196  0.0565340  0.6880868  )
       238           H   tau( 238) = (  0.7607196  0.0565340  0.6880868  )
       239           H   tau( 239) = (  0.2607196  0.5565340  0.6880868  )
       240           H   tau( 240) = (  0.7607196  0.5565340  0.6880868  )
       241           N   tau( 241) = (  0.1494731  0.3339278  0.1527546  )
       242           N   tau( 242) = (  0.6494731  0.3339278  0.1527546  )
       243           N   tau( 243) = (  0.1494731  0.8339278  0.1527546  )
       244           N   tau( 244) = (  0.6494731  0.8339278  0.1527546  )
       245           N   tau( 245) = (  0.1494731  0.3339278  0.6527546  )
       246           N   tau( 246) = (  0.6494731  0.3339278  0.6527546  )
       247           N   tau( 247) = (  0.1494731  0.8339278  0.6527546  )
       248           N   tau( 248) = (  0.6494731  0.8339278  0.6527546  )
       249           N   tau( 249) = (  0.0920393  0.3150651  0.0674878  )
       250           N   tau( 250) = (  0.5920393  0.3150651  0.0674878  )
       251           N   tau( 251) = (  0.0920393  0.8150651  0.0674878  )
       252           N   tau( 252) = (  0.5920393  0.8150651  0.0674878  )
       253           N   tau( 253) = (  0.0920393  0.3150651  0.5674878  )
       254           N   tau( 254) = (  0.5920393  0.3150651  0.5674878  )
       255           N   tau( 255) = (  0.0920393  0.8150651  0.5674878  )
       256           N   tau( 256) = (  0.5920393  0.8150651  0.5674878  )
       257           C   tau( 257) = (  0.2866408  0.3246590  0.2279720  )
       258           C   tau( 258) = (  0.7866408  0.3246590  0.2279720  )
       259           C   tau( 259) = (  0.2866408  0.8246590  0.2279720  )
       260           C   tau( 260) = (  0.7866408  0.8246590  0.2279720  )
       261           C   tau( 261) = (  0.2866408  0.3246590  0.7279720  )
       262           C   tau( 262) = (  0.7866408  0.3246590  0.7279720  )
       263           C   tau( 263) = (  0.2866408  0.8246590  0.7279720  )
       264           C   tau( 264) = (  0.7866408  0.8246590  0.7279720  )
       265           C   tau( 265) = (  0.2124173  0.3143392  0.1499511  )
       266           C   tau( 266) = (  0.7124173  0.3143392  0.1499511  )
       267           C   tau( 267) = (  0.2124173  0.8143392  0.1499511  )
       268           C   tau( 268) = (  0.7124173  0.8143392  0.1499511  )
       269           C   tau( 269) = (  0.2124173  0.3143392  0.6499511  )
       270           C   tau( 270) = (  0.7124173  0.3143392  0.6499511  )
       271           C   tau( 271) = (  0.2124173  0.8143392  0.6499511  )
       272           C   tau( 272) = (  0.7124173  0.8143392  0.6499511  )
       273           C   tau( 273) = (  0.3266389  0.2680019  0.2185785  )
       274           C   tau( 274) = (  0.8266389  0.2680019  0.2185785  )
       275           C   tau( 275) = (  0.3266389  0.7680019  0.2185785  )
       276           C   tau( 276) = (  0.8266389  0.7680019  0.2185785  )
       277           C   tau( 277) = (  0.3266389  0.2680019  0.7185785  )
       278           C   tau( 278) = (  0.8266389  0.2680019  0.7185785  )
       279           C   tau( 279) = (  0.3266389  0.7680019  0.7185785  )
       280           C   tau( 280) = (  0.8266389  0.7680019  0.7185785  )
       281           H   tau( 281) = (  0.3042081  0.2131099  0.1499459  )
       282           H   tau( 282) = (  0.8042081  0.2131099  0.1499459  )
       283           H   tau( 283) = (  0.3042081  0.7131099  0.1499459  )
       284           H   tau( 284) = (  0.8042081  0.7131099  0.1499459  )
       285           H   tau( 285) = (  0.3042081  0.2131099  0.6499459  )
       286           H   tau( 286) = (  0.8042081  0.2131099  0.6499459  )
       287           H   tau( 287) = (  0.3042081  0.7131099  0.6499459  )
       288           H   tau( 288) = (  0.8042081  0.7131099  0.6499459  )
       289           C   tau( 289) = (  0.4190367  0.3506111  0.3856575  )
       290           C   tau( 290) = (  0.9190367  0.3506111  0.3856575  )
       291           C   tau( 291) = (  0.4190367  0.8506111  0.3856575  )
       292           C   tau( 292) = (  0.9190367  0.8506111  0.3856575  )
       293           C   tau( 293) = (  0.4190367  0.3506111  0.8856575  )
       294           C   tau( 294) = (  0.9190367  0.3506111  0.8856575  )
       295           C   tau( 295) = (  0.4190367  0.8506111  0.8856575  )
       296           C   tau( 296) = (  0.9190367  0.8506111  0.8856575  )
       297           H   tau( 297) = (  0.4706894  0.3630042  0.4511775  )
       298           H   tau( 298) = (  0.9706894  0.3630042  0.4511775  )
       299           H   tau( 299) = (  0.4706894  0.8630042  0.4511775  )
       300           H   tau( 300) = (  0.9706894  0.8630042  0.4511775  )
       301           H   tau( 301) = (  0.4706894  0.3630042  0.9511775  )
       302           H   tau( 302) = (  0.9706894  0.3630042  0.9511775  )
       303           H   tau( 303) = (  0.4706894  0.8630042  0.9511775  )
       304           H   tau( 304) = (  0.9706894  0.8630042  0.9511775  )
       305           N   tau( 305) = (  0.1933349  0.2844490  0.0641553  )
       306           N   tau( 306) = (  0.6933349  0.2844490  0.0641553  )
       307           N   tau( 307) = (  0.1933349  0.7844490  0.0641553  )
       308           N   tau( 308) = (  0.6933349  0.7844490  0.0641553  )
       309           N   tau( 309) = (  0.1933349  0.2844490  0.5641553  )
       310           N   tau( 310) = (  0.6933349  0.2844490  0.5641553  )
       311           N   tau( 311) = (  0.1933349  0.7844490  0.5641553  )
       312           N   tau( 312) = (  0.6933349  0.7844490  0.5641553  )
       313           N   tau( 313) = (  0.1179339  0.2854901  0.0148148  )
       314           N   tau( 314) = (  0.6179339  0.2854901  0.0148148  )
       315           N   tau( 315) = (  0.1179339  0.7854901  0.0148148  )
       316           N   tau( 316) = (  0.6179339  0.7854901  0.0148148  )
       317           N   tau( 317) = (  0.1179339  0.2854901  0.5148148  )
       318           N   tau( 318) = (  0.6179339  0.2854901  0.5148148  )
       319           N   tau( 319) = (  0.1179339  0.7854901  0.5148148  )
       320           N   tau( 320) = (  0.6179339  0.7854901  0.5148148  )
       321           C   tau( 321) = (  0.3180302  0.3928509  0.3177296  )
       322           C   tau( 322) = (  0.8180302  0.3928509  0.3177296  )
       323           C   tau( 323) = (  0.3180302  0.8928509  0.3177296  )
       324           C   tau( 324) = (  0.8180302  0.8928509  0.3177296  )
       325           C   tau( 325) = (  0.3180302  0.3928509  0.8177296  )
       326           C   tau( 326) = (  0.8180302  0.3928509  0.8177296  )
       327           C   tau( 327) = (  0.3180302  0.8928509  0.8177296  )
       328           C   tau( 328) = (  0.8180302  0.8928509  0.8177296  )
       329           H   tau( 329) = (  0.2901143  0.4401986  0.3273698  )
       330           H   tau( 330) = (  0.7901143  0.4401986  0.3273698  )
       331           H   tau( 331) = (  0.2901143  0.9401986  0.3273698  )
       332           H   tau( 332) = (  0.7901143  0.9401986  0.3273698  )
       333           H   tau( 333) = (  0.2901143  0.4401986  0.8273698  )
       334           H   tau( 334) = (  0.7901143  0.4401986  0.8273698  )
       335           H   tau( 335) = (  0.2901143  0.9401986  0.8273698  )
       336           H   tau( 336) = (  0.7901143  0.9401986  0.8273698  )
       337           N   tau( 337) = (  0.3816285  0.4054970  0.3947814  )
       338           N   tau( 338) = (  0.8816285  0.4054970  0.3947814  )
       339           N   tau( 339) = (  0.3816285  0.9054970  0.3947814  )
       340           N   tau( 340) = (  0.8816285  0.9054970  0.3947814  )
       341           N   tau( 341) = (  0.3816285  0.4054970  0.8947814  )
       342           N   tau( 342) = (  0.8816285  0.4054970  0.8947814  )
       343           N   tau( 343) = (  0.3816285  0.9054970  0.8947814  )
       344           N   tau( 344) = (  0.8816285  0.9054970  0.8947814  )
       345           C   tau( 345) = (  0.4829455  0.0951843  0.2009044  )
       346           C   tau( 346) = (  0.9829455  0.0951843  0.2009044  )
       347           C   tau( 347) = (  0.4829455  0.5951843  0.2009044  )
       348           C   tau( 348) = (  0.9829455  0.5951843  0.2009044  )
       349           C   tau( 349) = (  0.4829455  0.0951843  0.7009044  )
       350           C   tau( 350) = (  0.9829455  0.0951843  0.7009044  )
       351           C   tau( 351) = (  0.4829455  0.5951843  0.7009044  )
       352           C   tau( 352) = (  0.9829455  0.5951843  0.7009044  )
       353           H   tau( 353) = (  0.4273672  0.2392804  0.2958144  )
       354           H   tau( 354) = (  0.9273672  0.2392804  0.2958144  )
       355           H   tau( 355) = (  0.4273672  0.7392804  0.2958144  )
       356           H   tau( 356) = (  0.9273672  0.7392804  0.2958144  )
       357           H   tau( 357) = (  0.4273672  0.2392804  0.7958144  )
       358           H   tau( 358) = (  0.9273672  0.2392804  0.7958144  )
       359           H   tau( 359) = (  0.4273672  0.7392804  0.7958144  )
       360           H   tau( 360) = (  0.9273672  0.7392804  0.7958144  )
       361           N   tau( 361) = (  0.1811732  0.4967185  0.3472454  )
       362           N   tau( 362) = (  0.6811732  0.4967185  0.3472454  )
       363           N   tau( 363) = (  0.1811732  0.9967185  0.3472454  )
       364           N   tau( 364) = (  0.6811732  0.9967185  0.3472454  )
       365           N   tau( 365) = (  0.1811732  0.4967185  0.8472454  )
       366           N   tau( 366) = (  0.6811732  0.4967185  0.8472454  )
       367           N   tau( 367) = (  0.1811732  0.9967185  0.8472454  )
       368           N   tau( 368) = (  0.6811732  0.9967185  0.8472454  )
       369           N   tau( 369) = (  0.2475773  0.0245515  0.4325122  )
       370           N   tau( 370) = (  0.7475773  0.0245515  0.4325122  )
       371           N   tau( 371) = (  0.2475773  0.5245515  0.4325122  )
       372           N   tau( 372) = (  0.7475773  0.5245515  0.4325122  )
       373           N   tau( 373) = (  0.2475773  0.0245515  0.9325122  )
       374           N   tau( 374) = (  0.7475773  0.0245515  0.9325122  )
       375           N   tau( 375) = (  0.2475773  0.5245515  0.9325122  )
       376           N   tau( 376) = (  0.7475773  0.5245515  0.9325122  )
       377           C   tau( 377) = (  0.0966870  0.0586688  0.2720280  )
       378           C   tau( 378) = (  0.5966870  0.0586688  0.2720280  )
       379           C   tau( 379) = (  0.0966870  0.5586688  0.2720280  )
       380           C   tau( 380) = (  0.5966870  0.5586688  0.2720280  )
       381           C   tau( 381) = (  0.0966870  0.0586688  0.7720280  )
       382           C   tau( 382) = (  0.5966870  0.0586688  0.7720280  )
       383           C   tau( 383) = (  0.0966870  0.5586688  0.7720280  )
       384           C   tau( 384) = (  0.5966870  0.5586688  0.7720280  )
       385           C   tau( 385) = (  0.1643880  0.0624661  0.3500489  )
       386           C   tau( 386) = (  0.6643880  0.0624661  0.3500489  )
       387           C   tau( 387) = (  0.1643880  0.5624661  0.3500489  )
       388           C   tau( 388) = (  0.6643880  0.5624661  0.3500489  )
       389           C   tau( 389) = (  0.1643880  0.0624661  0.8500489  )
       390           C   tau( 390) = (  0.6643880  0.0624661  0.8500489  )
       391           C   tau( 391) = (  0.1643880  0.5624661  0.8500489  )
       392           C   tau( 392) = (  0.6643880  0.5624661  0.8500489  )
       393           C   tau( 393) = (  0.0494234  0.1080604  0.2814215  )
       394           C   tau( 394) = (  0.5494234  0.1080604  0.2814215  )
       395           C   tau( 395) = (  0.0494234  0.6080604  0.2814215  )
       396           C   tau( 396) = (  0.5494234  0.6080604  0.2814215  )
       397           C   tau( 397) = (  0.0494234  0.1080604  0.7814215  )
       398           C   tau( 398) = (  0.5494234  0.1080604  0.7814215  )
       399           C   tau( 399) = (  0.0494234  0.6080604  0.7814215  )
       400           C   tau( 400) = (  0.5494234  0.6080604  0.7814215  )
       401           H   tau( 401) = (  0.0631640  0.1542622  0.3500541  )
       402           H   tau( 402) = (  0.5631640  0.1542622  0.3500541  )
       403           H   tau( 403) = (  0.0631640  0.6542622  0.3500541  )
       404           H   tau( 404) = (  0.5631640  0.6542622  0.3500541  )
       405           H   tau( 405) = (  0.0631640  0.1542622  0.8500541  )
       406           H   tau( 406) = (  0.5631640  0.1542622  0.8500541  )
       407           H   tau( 407) = (  0.0631640  0.6542622  0.8500541  )
       408           H   tau( 408) = (  0.5631640  0.6542622  0.8500541  )
       409           C   tau( 409) = (  0.4649536  0.0333792  0.1143425  )
       410           C   tau( 410) = (  0.9649536  0.0333792  0.1143425  )
       411           C   tau( 411) = (  0.4649536  0.5333792  0.1143425  )
       412           C   tau( 412) = (  0.9649536  0.5333792  0.1143425  )
       413           C   tau( 413) = (  0.4649536  0.0333792  0.6143425  )
       414           C   tau( 414) = (  0.9649536  0.0333792  0.6143425  )
       415           C   tau( 415) = (  0.4649536  0.5333792  0.6143425  )
       416           C   tau( 416) = (  0.9649536  0.5333792  0.6143425  )
       417           H   tau( 417) = (  0.4118266  0.0195119  0.0488225  )
       418           H   tau( 418) = (  0.9118266  0.0195119  0.0488225  )
       419           H   tau( 419) = (  0.4118266  0.5195119  0.0488225  )
       420           H   tau( 420) = (  0.9118266  0.5195119  0.0488225  )
       421           H   tau( 421) = (  0.4118266  0.0195119  0.5488225  )
       422           H   tau( 422) = (  0.9118266  0.0195119  0.5488225  )
       423           H   tau( 423) = (  0.4118266  0.5195119  0.5488225  )
       424           H   tau( 424) = (  0.9118266  0.5195119  0.5488225  )
       425           N   tau( 425) = (  0.2202938  0.1291797  0.4358447  )
       426           N   tau( 426) = (  0.7202938  0.1291797  0.4358447  )
       427           N   tau( 427) = (  0.2202938  0.6291797  0.4358447  )
       428           N   tau( 428) = (  0.7202938  0.6291797  0.4358447  )
       429           N   tau( 429) = (  0.2202938  0.1291797  0.9358447  )
       430           N   tau( 430) = (  0.7202938  0.1291797  0.9358447  )
       431           N   tau( 431) = (  0.2202938  0.6291797  0.9358447  )
       432           N   tau( 432) = (  0.7202938  0.6291797  0.9358447  )
       433           N   tau( 433) = (  0.2706753  0.1031191  0.4851852  )
       434           N   tau( 434) = (  0.7706753  0.1031191  0.4851852  )
       435           N   tau( 435) = (  0.2706753  0.6031191  0.4851852  )
       436           N   tau( 436) = (  0.7706753  0.6031191  0.4851852  )
       437           N   tau( 437) = (  0.2706753  0.1031191  0.9851852  )
       438           N   tau( 438) = (  0.7706753  0.1031191  0.9851852  )
       439           N   tau( 439) = (  0.2706753  0.6031191  0.9851852  )
       440           N   tau( 440) = (  0.7706753  0.6031191  0.9851852  )
       441           C   tau( 441) = (  0.0751213  0.0003006  0.1822704  )
       442           C   tau( 442) = (  0.5751213  0.0003006  0.1822704  )
       443           C   tau( 443) = (  0.0751213  0.5003006  0.1822704  )
       444           C   tau( 444) = (  0.5751213  0.5003006  0.1822704  )
       445           C   tau( 445) = (  0.0751213  0.0003006  0.6822704  )
       446           C   tau( 446) = (  0.5751213  0.0003006  0.6822704  )
       447           C   tau( 447) = (  0.0751213  0.5003006  0.6822704  )
       448           C   tau( 448) = (  0.5751213  0.5003006  0.6822704  )
       449           H   tau( 449) = (  0.1128288  0.4627445  0.1726302  )
       450           H   tau( 450) = (  0.6128288  0.4627445  0.1726302  )
       451           H   tau( 451) = (  0.1128288  0.9627445  0.1726302  )
       452           H   tau( 452) = (  0.6128288  0.9627445  0.1726302  )
       453           H   tau( 453) = (  0.1128288  0.4627445  0.6726302  )
       454           H   tau( 454) = (  0.6128288  0.4627445  0.6726302  )
       455           H   tau( 455) = (  0.1128288  0.9627445  0.6726302  )
       456           H   tau( 456) = (  0.6128288  0.9627445  0.6726302  )
       457           N   tau( 457) = (  0.0107156  0.4868471  0.1052186  )
       458           N   tau( 458) = (  0.5107156  0.4868471  0.1052186  )
       459           N   tau( 459) = (  0.0107156  0.9868471  0.1052186  )
       460           N   tau( 460) = (  0.5107156  0.9868471  0.1052186  )
       461           N   tau( 461) = (  0.0107156  0.4868471  0.6052186  )
       462           N   tau( 462) = (  0.5107156  0.4868471  0.6052186  )
       463           N   tau( 463) = (  0.0107156  0.9868471  0.6052186  )
       464           N   tau( 464) = (  0.5107156  0.9868471  0.6052186  )
       465           C   tau( 465) = (  0.3942799  0.2820411  0.2990956  )
       466           C   tau( 466) = (  0.8942799  0.2820411  0.2990956  )
       467           C   tau( 467) = (  0.3942799  0.7820411  0.2990956  )
       468           C   tau( 468) = (  0.8942799  0.7820411  0.2990956  )
       469           C   tau( 469) = (  0.3942799  0.2820411  0.7990956  )
       470           C   tau( 470) = (  0.8942799  0.2820411  0.7990956  )
       471           C   tau( 471) = (  0.3942799  0.7820411  0.7990956  )
       472           C   tau( 472) = (  0.8942799  0.7820411  0.7990956  )
       473           H   tau( 473) = (  0.4434660  0.1315528  0.2041856  )
       474           H   tau( 474) = (  0.9434660  0.1315528  0.2041856  )
       475           H   tau( 475) = (  0.4434660  0.6315528  0.2041856  )
       476           H   tau( 476) = (  0.9434660  0.6315528  0.2041856  )
       477           H   tau( 477) = (  0.4434660  0.1315528  0.7041856  )
       478           H   tau( 478) = (  0.9434660  0.1315528  0.7041856  )
       479           H   tau( 479) = (  0.4434660  0.6315528  0.7041856  )
       480           H   tau( 480) = (  0.9434660  0.6315528  0.7041856  )
       481           Zn  tau( 481) = (  0.1250000  0.3750000  0.2500000  )
       482           Zn  tau( 482) = (  0.6250000  0.3750000  0.2500000  )
       483           Zn  tau( 483) = (  0.1250000  0.8750000  0.2500000  )
       484           Zn  tau( 484) = (  0.6250000  0.8750000  0.2500000  )
       485           Zn  tau( 485) = (  0.1250000  0.3750000  0.7500000  )
       486           Zn  tau( 486) = (  0.6250000  0.3750000  0.7500000  )
       487           Zn  tau( 487) = (  0.1250000  0.8750000  0.7500000  )
       488           Zn  tau( 488) = (  0.6250000  0.8750000  0.7500000  )
       489           Zn  tau( 489) = (  0.2500000  0.2500000  0.0000000  )
       490           Zn  tau( 490) = (  0.7500000  0.2500000  0.0000000  )
       491           Zn  tau( 491) = (  0.2500000  0.7500000  0.0000000  )
       492           Zn  tau( 492) = (  0.7500000  0.7500000  0.0000000  )
       493           Zn  tau( 493) = (  0.2500000  0.2500000  0.5000000  )
       494           Zn  tau( 494) = (  0.7500000  0.2500000  0.5000000  )
       495           Zn  tau( 495) = (  0.2500000  0.7500000  0.5000000  )
       496           Zn  tau( 496) = (  0.7500000  0.7500000  0.5000000  )

     number of k points=     1
                       cart. coord. in units 2pi/alat
        k(    1) = (   0.0000000   0.0000000   0.0000000), wk =   2.0000000

                       cryst. coord.
        k(    1) = (   0.0000000   0.0000000   0.0000000), wk =   2.0000000

     Dense  grid:  2563819 G-vectors     FFT dimensions: ( 192, 192, 192)

     Smooth grid:  2411581 G-vectors     FFT dimensions: ( 192, 192, 192)

     Dynamical RAM for                 wfc:     144.89 MB

     Dynamical RAM for     wfc (w. buffer):     144.89 MB

     Dynamical RAM for           str. fact:       4.89 MB

     Dynamical RAM for           local pot:       0.00 MB

     Dynamical RAM for          nlocal pot:     482.96 MB

     Dynamical RAM for                qrad:       5.08 MB

     Dynamical RAM for          rho,v,vnew:       8.73 MB

     Dynamical RAM for               rhoin:       2.91 MB

     Dynamical RAM for            rho*nmix:      19.56 MB

     Dynamical RAM for           G-vectors:       5.16 MB

     Dynamical RAM for          h,s,v(r/c):       7.43 MB

     Dynamical RAM for          <psi|beta>:      51.68 MB

     Dynamical RAM for                 psi:     289.78 MB

     Dynamical RAM for                hpsi:     289.78 MB

     Dynamical RAM for                spsi:     289.78 MB

     Dynamical RAM for      wfcinit/wfcrot:     570.99 MB

     Dynamical RAM for           addusdens:     462.11 MB

     Dynamical RAM for          addusforce:     930.48 MB

     Dynamical RAM for         addusstress:     245.73 MB

     Estimated static dynamical RAM per process >     669.17 MB

     Estimated max dynamical RAM per process >       1.58 GB

     Estimated total dynamical RAM >      50.60 GB

     Check: negative core charge=   -0.000014

     Initial potential from superposition of free atoms

     starting charge    2015.9874, renormalised to    2016.0000
     Starting wfcs are 1744 randomized atomic wfcs
     Checking if some PAW data can be deallocated... 
       PAW data deallocated on   10 nodes for type:  2

     total cpu time spent up to now is      157.2 secs

     Self-consistent Calculation

     iteration #  1     ecut=    60.00 Ry     beta= 0.40
     Davidson diagonalization with overlap

---- Real-time Memory Report at c_bands before calling an iterative solver
          1345 MiB given to the printing process from OS
             0 MiB allocation reported by mallinfo(arena+hblkhd)
        163710 MiB available memory on the node where the printing process lives
------------------
     ethr =  1.00E-02,  avg # of iterations =  3.0

     total cpu time spent up to now is      482.8 secs

     total energy              =  -14223.11918632 Ry
     estimated scf accuracy    <      42.09189382 Ry

     iteration #  2     ecut=    60.00 Ry     beta= 0.40
     Davidson diagonalization with overlap

---- Real-time Memory Report at c_bands before calling an iterative solver
          1728 MiB given to the printing process from OS
             0 MiB allocation reported by mallinfo(arena+hblkhd)
        157463 MiB available memory on the node where the printing process lives
------------------
     ethr =  2.09E-03,  avg # of iterations =  2.0

     total cpu time spent up to now is      754.1 secs

     total energy              =  -14223.75178204 Ry
     estimated scf accuracy    <       7.72068058 Ry

     iteration #  3     ecut=    60.00 Ry     beta= 0.40
     Davidson diagonalization with overlap

---- Real-time Memory Report at c_bands before calling an iterative solver
          1746 MiB given to the printing process from OS
             0 MiB allocation reported by mallinfo(arena+hblkhd)
        159372 MiB available memory on the node where the printing process lives
------------------
     ethr =  3.83E-04,  avg # of iterations =  4.0

     total cpu time spent up to now is     1101.7 secs

     total energy              =  -14225.17454984 Ry
     estimated scf accuracy    <       0.85046208 Ry

     iteration #  4     ecut=    60.00 Ry     beta= 0.40
     Davidson diagonalization with overlap

---- Real-time Memory Report at c_bands before calling an iterative solver
          1750 MiB given to the printing process from OS
             0 MiB allocation reported by mallinfo(arena+hblkhd)
        156666 MiB available memory on the node where the printing process lives
------------------
     ethr =  4.22E-05,  avg # of iterations =  4.0

     total cpu time spent up to now is     1418.3 secs

     total energy              =  -14225.24892955 Ry
     estimated scf accuracy    <       0.17078883 Ry

     iteration #  5     ecut=    60.00 Ry     beta= 0.40
     Davidson diagonalization with overlap

---- Real-time Memory Report at c_bands before calling an iterative solver
          1753 MiB given to the printing process from OS
             0 MiB allocation reported by mallinfo(arena+hblkhd)
        151412 MiB available memory on the node where the printing process lives
------------------
     ethr =  8.47E-06,  avg # of iterations =  5.0

     total cpu time spent up to now is     1771.9 secs

     total energy              =  -14225.27762370 Ry
     estimated scf accuracy    <       0.03023940 Ry

     iteration #  6     ecut=    60.00 Ry     beta= 0.40
     Davidson diagonalization with overlap

---- Real-time Memory Report at c_bands before calling an iterative solver
          1764 MiB given to the printing process from OS
             0 MiB allocation reported by mallinfo(arena+hblkhd)
        159425 MiB available memory on the node where the printing process lives
------------------
     ethr =  1.50E-06,  avg # of iterations =  5.0

     total cpu time spent up to now is     2149.3 secs

     total energy              =  -14225.28448927 Ry
     estimated scf accuracy    <       0.00825231 Ry

     iteration #  7     ecut=    60.00 Ry     beta= 0.40
     Davidson diagonalization with overlap

---- Real-time Memory Report at c_bands before calling an iterative solver
          1764 MiB given to the printing process from OS
             0 MiB allocation reported by mallinfo(arena+hblkhd)
        149464 MiB available memory on the node where the printing process lives
------------------
     ethr =  4.09E-07,  avg # of iterations =  5.0

     total cpu time spent up to now is     2528.3 secs

     total energy              =  -14225.28686132 Ry
     estimated scf accuracy    <       0.00179477 Ry

     iteration #  8     ecut=    60.00 Ry     beta= 0.40
     Davidson diagonalization with overlap

---- Real-time Memory Report at c_bands before calling an iterative solver
          1764 MiB given to the printing process from OS
             0 MiB allocation reported by mallinfo(arena+hblkhd)
        138059 MiB available memory on the node where the printing process lives
------------------
     ethr =  8.90E-08,  avg # of iterations =  5.0

     total cpu time spent up to now is     2865.5 secs

     total energy              =  -14225.28727764 Ry
     estimated scf accuracy    <       0.00013764 Ry

     iteration #  9     ecut=    60.00 Ry     beta= 0.40
     Davidson diagonalization with overlap

---- Real-time Memory Report at c_bands before calling an iterative solver
          1768 MiB given to the printing process from OS
             0 MiB allocation reported by mallinfo(arena+hblkhd)
        137928 MiB available memory on the node where the printing process lives
------------------
     ethr =  6.83E-09,  avg # of iterations =  6.0

     total cpu time spent up to now is     3309.7 secs

     total energy              =  -14225.28734361 Ry
     estimated scf accuracy    <       0.00005387 Ry

     iteration # 10     ecut=    60.00 Ry     beta= 0.40
     Davidson diagonalization with overlap

---- Real-time Memory Report at c_bands before calling an iterative solver
          1771 MiB given to the printing process from OS
             0 MiB allocation reported by mallinfo(arena+hblkhd)
        137723 MiB available memory on the node where the printing process lives
------------------
     ethr =  2.67E-09,  avg # of iterations =  4.0

     total cpu time spent up to now is     3575.2 secs

     total energy              =  -14225.28734135 Ry
     estimated scf accuracy    <       0.00001442 Ry

     iteration # 11     ecut=    60.00 Ry     beta= 0.40
     Davidson diagonalization with overlap

---- Real-time Memory Report at c_bands before calling an iterative solver
          1775 MiB given to the printing process from OS
             0 MiB allocation reported by mallinfo(arena+hblkhd)
        137773 MiB available memory on the node where the printing process lives
------------------
     ethr =  7.15E-10,  avg # of iterations =  6.0

     total cpu time spent up to now is     4052.2 secs

     total energy              =  -14225.28734943 Ry
     estimated scf accuracy    <       0.00001815 Ry

     iteration # 12     ecut=    60.00 Ry     beta= 0.40
     Davidson diagonalization with overlap

---- Real-time Memory Report at c_bands before calling an iterative solver
          1775 MiB given to the printing process from OS
             0 MiB allocation reported by mallinfo(arena+hblkhd)
        138064 MiB available memory on the node where the printing process lives
------------------
     ethr =  7.15E-10,  avg # of iterations =  2.0

     total cpu time spent up to now is     4303.7 secs

     total energy              =  -14225.28734628 Ry
     estimated scf accuracy    <       0.00000695 Ry

     iteration # 13     ecut=    60.00 Ry     beta= 0.40
     Davidson diagonalization with overlap

---- Real-time Memory Report at c_bands before calling an iterative solver
          1775 MiB given to the printing process from OS
             0 MiB allocation reported by mallinfo(arena+hblkhd)
        142115 MiB available memory on the node where the printing process lives
------------------
     ethr =  3.45E-10,  avg # of iterations =  6.0

     total cpu time spent up to now is     4731.6 secs

     total energy              =  -14225.28734926 Ry
     estimated scf accuracy    <       0.00000442 Ry

     iteration # 14     ecut=    60.00 Ry     beta= 0.40
     Davidson diagonalization with overlap

---- Real-time Memory Report at c_bands before calling an iterative solver
          1775 MiB given to the printing process from OS
             0 MiB allocation reported by mallinfo(arena+hblkhd)
        135961 MiB available memory on the node where the printing process lives
------------------
     ethr =  2.19E-10,  avg # of iterations =  5.0

     total cpu time spent up to now is     5014.5 secs

     total energy              =  -14225.28734970 Ry
     estimated scf accuracy    <       0.00000036 Ry

     iteration # 15     ecut=    60.00 Ry     beta= 0.40
     Davidson diagonalization with overlap

---- Real-time Memory Report at c_bands before calling an iterative solver
          1775 MiB given to the printing process from OS
             0 MiB allocation reported by mallinfo(arena+hblkhd)
        145526 MiB available memory on the node where the printing process lives
------------------
     ethr =  1.79E-11,  avg # of iterations =  6.0

     total cpu time spent up to now is     5437.1 secs

     total energy              =  -14225.28734990 Ry
     estimated scf accuracy    <       0.00000005 Ry

     iteration # 16     ecut=    60.00 Ry     beta= 0.40
     Davidson diagonalization with overlap

---- Real-time Memory Report at c_bands before calling an iterative solver
          1775 MiB given to the printing process from OS
             0 MiB allocation reported by mallinfo(arena+hblkhd)
        151503 MiB available memory on the node where the printing process lives
------------------
     ethr =  2.29E-12,  avg # of iterations =  6.0

     total cpu time spent up to now is     5833.1 secs

     total energy              =  -14225.28734989 Ry
     estimated scf accuracy    <       0.00000012 Ry

     iteration # 17     ecut=    60.00 Ry     beta= 0.40
     Davidson diagonalization with overlap

---- Real-time Memory Report at c_bands before calling an iterative solver
          1775 MiB given to the printing process from OS
             0 MiB allocation reported by mallinfo(arena+hblkhd)
        138604 MiB available memory on the node where the printing process lives
------------------
     ethr =  2.29E-12,  avg # of iterations =  5.0

     total cpu time spent up to now is     6111.3 secs

     total energy              =  -14225.28734987 Ry
     estimated scf accuracy    <       0.00000004 Ry

     iteration # 18     ecut=    60.00 Ry     beta= 0.40
     Davidson diagonalization with overlap

---- Real-time Memory Report at c_bands before calling an iterative solver
          1775 MiB given to the printing process from OS
             0 MiB allocation reported by mallinfo(arena+hblkhd)
        143420 MiB available memory on the node where the printing process lives
------------------
     ethr =  2.18E-12,  avg # of iterations =  6.0

     total cpu time spent up to now is     6541.0 secs

     total energy              =  -14225.28734989 Ry
     estimated scf accuracy    <       0.00000001 Ry

     iteration # 19     ecut=    60.00 Ry     beta= 0.40
     Davidson diagonalization with overlap

---- Real-time Memory Report at c_bands before calling an iterative solver
          1775 MiB given to the printing process from OS
             0 MiB allocation reported by mallinfo(arena+hblkhd)
        141427 MiB available memory on the node where the printing process lives
------------------
     ethr =  6.87E-13,  avg # of iterations =  2.0

     total cpu time spent up to now is     6793.3 secs

     End of self-consistent calculation

          k = 0.0000 0.0000 0.0000 (301561 PWs)   bands (ev):

  -122.8793-122.8788-122.8788-122.8788-122.8787-122.8787-122.8786-122.8786
  -122.8420-122.8413-122.8413-122.8412-122.8412-122.8412-122.8411-122.8410
   -77.2242 -77.2237 -77.2237 -77.2237 -77.2236 -77.2236 -77.2235 -77.2235
   -77.2195 -77.2195 -77.2190 -77.2190 -77.2190 -77.2190 -77.2189 -77.2189
   -77.2189 -77.2189 -77.2188 -77.2188 -77.2187 -77.2187 -77.2187 -77.2187
   -77.1932 -77.1931 -77.1924 -77.1924 -77.1924 -77.1924 -77.1923 -77.1923
   -77.1923 -77.1923 -77.1923 -77.1923 -77.1922 -77.1922 -77.1921 -77.1921
   -77.1657 -77.1649 -77.1649 -77.1649 -77.1649 -77.1648 -77.1647 -77.1646
   -21.8271 -21.8203 -21.8201 -21.8201 -21.8200 -21.8144 -21.8142 -21.8137
   -21.8136 -21.8120 -21.8098 -21.8061 -21.8060 -21.8059 -21.8059 -21.8012
   -21.8008 -21.8007 -21.8006 -21.8006 -21.8006 -21.8006 -21.8005 -21.7991
   -21.7990 -21.7966 -21.7964 -21.7963 -21.7963 -21.7962 -21.7962 -21.7946
   -16.7492 -16.7476 -16.7474 -16.7466 -16.7466 -16.7465 -16.7438 -16.7402
   -16.7138 -16.7071 -16.7071 -16.7070 -16.7052 -16.7003 -16.6995 -16.6977
   -16.6923 -16.6914 -16.6852 -16.6852 -16.6852 -16.6840 -16.6821 -16.6815
   -16.6803 -16.6798 -16.6785 -16.6785 -16.6784 -16.6784 -16.6783 -16.6633
   -16.5790 -16.5403 -16.5401 -16.5401 -16.5398 -16.5182 -16.5180 -16.5064
   -16.4943 -16.4941 -16.4921 -16.4683 -16.4682 -16.4682 -16.4681 -16.4376
   -16.4374 -16.4366 -16.4364 -16.4364 -16.4363 -16.4349 -16.4348 -16.4336
   -16.4334 -16.4249 -16.4248 -16.4247 -16.4247 -16.4233 -16.4232 -16.4199
   -15.4996 -15.4988 -15.4970 -15.4938 -15.4937 -15.4937 -15.4937 -15.4917
   -15.4878 -15.4878 -15.4877 -15.4877 -15.4875 -15.4874 -15.4871 -15.4870
   -15.4811 -15.4811 -15.4803 -15.4801 -15.4800 -15.4800 -15.4800 -15.4800
   -15.4789 -15.4788 -15.4788 -15.4787 -15.4763 -15.4763 -15.4748 -15.4748
   -13.2306 -13.2197 -13.2123 -13.2122 -13.2122 -13.2122 -13.2097 -13.2096
   -13.2075 -13.2043 -13.2042 -13.2035 -13.2034 -13.2034 -13.2033 -13.1950
   -13.1917 -13.1917 -13.1908 -13.1907 -13.1907 -13.1906 -13.1795 -13.1795
   -13.1794 -13.1794 -13.1781 -13.1781 -13.1778 -13.1778 -13.1777 -13.1776
   -12.1911 -12.1897 -12.1896 -12.1896 -12.1885 -12.1882 -12.1843 -12.1805
   -12.1800 -12.1723 -12.1698 -12.1690 -12.1689 -12.1689 -12.1535 -12.1524
   -12.1522 -12.1521 -12.1509 -12.1501 -12.1500 -12.1500 -12.1498 -12.1497
   -12.1337 -12.1257 -12.1253 -12.1212 -12.1184 -12.1178 -12.1178 -12.1177
    -9.9198  -9.9012  -9.8901  -9.8862  -9.8862  -9.8861  -9.8858  -9.8769
    -9.8609  -9.8609  -9.8609  -9.8603  -9.8574  -9.8571  -9.8498  -9.8495
    -9.8265  -9.8265  -9.8265  -9.8261  -9.8244  -9.8240  -9.8063  -9.8061
    -9.8054  -9.8051  -9.7973  -9.7973  -9.7973  -9.7967  -9.7956  -9.7952
    -9.6804  -9.6662  -9.6659  -9.6647  -9.6644  -9.6644  -9.6643  -9.6487
    -9.6484  -9.6474  -9.6470  -9.6469  -9.6469  -9.6449  -9.6448  -9.6388
    -9.6385  -9.6156  -9.6153  -9.6152  -9.6152  -9.6023  -9.6021  -9.5862
    -9.5828  -9.5599  -9.5596  -9.5460  -9.5456  -9.5455  -9.5455  -9.5261
    -8.5894  -8.5635  -8.5510  -8.5509  -8.5482  -8.5387  -8.5384  -8.5384
    -8.5381  -8.5299  -8.5296  -8.5296  -8.5290  -8.5118  -8.5117  -8.5113
    -8.4961  -8.4956  -8.4955  -8.4953  -8.4931  -8.4929  -8.4635  -8.4628
    -8.4625  -8.4623  -8.4622  -8.4620  -8.4497  -8.4496  -8.4495  -8.4489
    -8.4234  -8.4174  -8.4171  -8.4125  -8.4121  -8.4120  -8.4114  -8.3747
    -8.3706  -8.3698  -8.3698  -8.3696  -8.3638  -8.3631  -8.3625  -8.3623
    -8.3610  -8.3600  -8.3594  -8.3576  -8.3572  -8.3321  -8.3316  -8.3316
    -8.3313  -8.3227  -8.3226  -8.3222  -8.3221  -8.3217  -8.3125  -8.3124
    -7.0586  -6.9057  -6.8991  -6.8983  -6.8980  -6.8980  -6.8979  -6.7924
    -6.7920  -6.7586  -6.7583  -6.7144  -6.7138  -6.7138  -6.7138  -6.6759
    -6.6023  -6.6018  -6.5988  -6.5983  -6.5983  -6.5982  -6.5711  -6.5709
    -6.5614  -6.5610  -6.5610  -6.5610  -6.4884  -6.4881  -6.4862  -6.4859
    -5.8778  -5.8311  -5.8310  -5.8310  -5.8308  -5.8290  -5.7984  -5.7983
    -5.7835  -5.7835  -5.7760  -5.7759  -5.7759  -5.7756  -5.7634  -5.7634
    -5.7373  -5.7373  -5.7373  -5.7370  -5.7301  -5.7299  -5.7279  -5.7244
    -5.6856  -5.6855  -5.6854  -5.6854  -5.6451  -5.6451  -5.6348  -5.6324
    -5.6322  -5.6093  -5.6047  -5.6046  -5.5961  -5.5958  -5.5957  -5.5957
    -5.5809  -5.5602  -5.5453  -5.5453  -5.5422  -5.5421  -5.5421  -5.5421
    -5.5375  -5.5374  -5.5365  -5.5364  -5.5123  -5.5122  -5.5030  -5.5029
    -5.5011  -5.5011  -5.5011  -5.5011  -5.4825  -5.4825  -5.4825  -5.4824
    -5.0614  -5.0609  -5.0475  -5.0474  -5.0474  -5.0466  -5.0443  -5.0437
    -5.0302  -5.0301  -5.0298  -5.0297  -5.0297  -5.0283  -5.0259  -5.0180
    -5.0173  -5.0034  -4.9987  -4.9948  -4.9947  -4.9947  -4.9936  -4.9786
    -4.9781  -4.9661  -4.9660  -4.9660  -4.9654  -4.9569  -4.9536  -4.9533
    -4.9459  -4.8940  -4.8916  -4.8912  -4.8681  -4.8679  -4.8679  -4.8676
    -4.8622  -4.8519  -4.8516  -4.8442  -4.8441  -4.8441  -4.8438  -4.8342
    -4.8341  -4.8301  -4.8299  -4.8298  -4.8297  -4.8266  -4.8260  -4.8259
    -4.8038  -4.8036  -4.7994  -4.7992  -4.7926  -4.7925  -4.7925  -4.7923
    -4.7803  -4.7802  -4.7582  -4.7581  -4.7580  -4.7580  -4.7435  -4.7433
    -4.7411  -4.7410  -4.7218  -4.7217  -4.7216  -4.7215  -4.7133  -4.7131
    -4.7117  -4.7115  -4.7115  -4.7114  -4.6864  -4.6863  -4.6690  -4.6690
    -4.6478  -4.6134  -4.6133  -4.5881  -4.5880  -4.5880  -4.5880  -4.5017
    -4.3231  -4.2812  -4.2810  -4.2810  -4.2809  -4.2189  -4.2128  -4.2079
    -4.2078  -4.1878  -4.1876  -4.1414  -4.1413  -4.1413  -4.1412  -4.1410
    -4.1409  -4.1365  -4.1138  -4.1080  -4.1078  -4.1078  -4.1077  -4.1035
    -4.0977  -4.0975  -4.0855  -4.0854  -4.0854  -4.0853  -4.0653  -4.0572
    -3.9878  -3.9559  -3.9556  -3.8267  -3.8258  -3.8258  -3.8257  -3.7670
    -3.7663  -3.7662  -3.7662  -3.7312  -3.7110  -3.7101  -3.7100  -3.7100
    -3.6721  -3.6563  -3.6558  -3.6271  -3.5760  -3.5756  -3.5735  -3.5732
    -3.5599  -3.5596  -3.5045  -3.5039  -3.4266  -3.4254  -3.4253  -3.4253
    -3.4239  -3.4235  -3.3751  -3.3745  -3.3650  -3.3646  -3.3646  -3.3645
    -3.3631  -3.2783  -3.2779  -3.2779  -3.2776  -3.2413  -3.2411  -3.2410
    -3.2405  -3.2341  -3.2311  -3.2306  -3.2302  -3.2292  -3.2288  -3.2100
    -3.2098  -3.1857  -3.1764  -3.1761  -3.1761  -3.1758  -3.1713  -3.0956
    -3.0953  -3.0948  -3.0946  -3.0899  -3.0897  -3.0871  -3.0868  -3.0868
    -3.0863  -3.0453  -3.0453  -3.0451  -3.0449  -3.0178  -3.0057  -3.0055
    -2.9780  -2.9741  -2.9740  -2.9739  -2.9731  -2.9687  -2.9381  -2.9377
    -2.9352  -2.9349  -2.9348  -2.9348  -2.9293  -2.9291  -2.8982  -2.8834
    -2.8829  -2.7758  -2.7757  -2.7613  -2.7611  -2.7611  -2.7611  -2.7263
    -2.7262  -2.7175  -2.7173  -2.7027  -2.7026  -2.7008  -2.7008  -2.7008
    -2.7006  -2.6120  -2.6120  -2.6119  -2.6116  -2.5572  -2.4829  -2.4417
    -2.4415  -2.3679  -2.3679  -2.2682  -2.2682  -2.2681  -2.2677  -2.1962
    -2.1957  -2.1600  -2.0957  -2.0765  -2.0609  -2.0609  -2.0609  -2.0600
    -2.0133  -2.0133  -2.0133  -2.0122  -2.0063  -2.0061  -2.0054  -1.9944
    -1.9938  -1.9538  -1.9538  -1.9537  -1.9527  -1.9483  -1.9474  -1.9179
    -1.9171  -1.8920  -1.8915  -1.8709  -1.8709  -1.8709  -1.8702  -1.7603
    -1.7599  -1.6296  -1.6296  -1.6296  -1.6288  -1.5896  -1.5893  -1.5191
    -1.4438  -1.4437  -1.4437  -1.4435  -1.4242  -1.4239  -1.4185  -1.4183
    -1.4153  -1.4089  -1.4087  -1.3813  -1.3746  -1.3745  -1.3745  -1.3743
    -1.3635  -1.3634  -1.3634  -1.3630  -1.3625  -1.3623  -1.3484  -1.3483
    -1.3471  -1.3470  -1.3470  -1.3469  -1.3403  -1.3402  -1.3374  -1.3331
    -1.2996  -1.2995  -1.2969  -1.2814  -1.2813  -1.2813  -1.2811  -1.2535
    -1.2534  -1.2417  -1.2416  -1.2416  -1.2412  -1.2337  -1.2300  -1.2299
    -1.2201  -1.2198  -1.2098  -1.2097  -1.2092  -1.2091  -1.2090  -1.2089
    -1.1526  -1.1526  -1.1525  -1.1523  -1.1478  -1.1477  -1.0927  -1.0682
    -1.0405  -0.9020  -0.9020  -0.9019  -0.9019  -0.9013  -0.9012  -0.8037
    -0.8037  -0.8019  -0.7827  -0.7826  -0.7826  -0.7825  -0.7796  -0.7795
    -0.7695  -0.7626  -0.7626  -0.7287  -0.7286  -0.7285  -0.7285  -0.7179
    -0.7179  -0.7144  -0.7125  -0.7124  -0.7124  -0.7123  -0.6637  -0.6637
    -0.6294  -0.6294  -0.5997  -0.5996  -0.5995  -0.5995  -0.5723  -0.5722
    -0.4878  -0.4241  -0.4241  -0.4241  -0.4237  -0.4158  -0.4158  -0.4000
    -0.3839  -0.3838  -0.3634  -0.3633  -0.3633  -0.3628  -0.3472  -0.3408
    -0.3405  -0.3362  -0.3361  -0.3361  -0.3357  -0.3312  -0.3308  -0.3287
    -0.3287  -0.3267  -0.2970  -0.2968  -0.2847  -0.2846  -0.2846  -0.2844
    -0.2801  -0.2797  -0.2761  -0.2760  -0.2760  -0.2751  -0.2725  -0.2432
    -0.2431  -0.2431  -0.2422  -0.2400  -0.2400  -0.2391  -0.2215  -0.2213
    -0.2210  -0.2209  -0.2209  -0.2197  -0.2181  -0.2081  -0.2078  -0.2070
    -0.2036  -0.2028  -0.1909  -0.1908  -0.1907  -0.1907  -0.1907  -0.1883
     0.3859   0.4164   0.4184   0.4185   0.4185   0.4341   0.4350   0.4844
     0.4860   0.4865   0.4933   0.4948   0.4948   0.4948   0.5115   0.5127
     0.5140   0.5145   0.5236   0.5260   0.5272   0.5272   0.5273   0.5729
     0.5738   0.5756   0.5763   0.6087   0.6100   0.6100   0.6101   0.6259
     1.0977   1.0983   1.1041   1.1047   1.1148   1.1159   1.1159   1.1160
     1.1365   1.1374   1.1374   1.1375   1.1544   1.1611   1.1618   1.1631
     1.1636   1.1644   1.1730   1.1736   1.1737   1.1737   1.1842   1.1846
     1.2167   1.2204   1.2416   1.2420   1.2421   1.2421   1.2425   1.2426

     occupation numbers 
     1.0000   1.0000   1.0000   1.0000   1.0000   1.0000   1.0000   1.0000
     1.0000   1.0000   1.0000   1.0000   1.0000   1.0000   1.0000   1.0000
     1.0000   1.0000   1.0000   1.0000   1.0000   1.0000   1.0000   1.0000
     1.0000   1.0000   1.0000   1.0000   1.0000   1.0000   1.0000   1.0000
     1.0000   1.0000   1.0000   1.0000   1.0000   1.0000   1.0000   1.0000
     1.0000   1.0000   1.0000   1.0000   1.0000   1.0000   1.0000   1.0000
     1.0000   1.0000   1.0000   1.0000   1.0000   1.0000   1.0000   1.0000
     1.0000   1.0000   1.0000   1.0000   1.0000   1.0000   1.0000   1.0000
     1.0000   1.0000   1.0000   1.0000   1.0000   1.0000   1.0000   1.0000
     1.0000   1.0000   1.0000   1.0000   1.0000   1.0000   1.0000   1.0000
     1.0000   1.0000   1.0000   1.0000   1.0000   1.0000   1.0000   1.0000
     1.0000   1.0000   1.0000   1.0000   1.0000   1.0000   1.0000   1.0000
     1.0000   1.0000   1.0000   1.0000   1.0000   1.0000   1.0000   1.0000
     1.0000   1.0000   1.0000   1.0000   1.0000   1.0000   1.0000   1.0000
     1.0000   1.0000   1.0000   1.0000   1.0000   1.0000   1.0000   1.0000
     1.0000   1.0000   1.0000   1.0000   1.0000   1.0000   1.0000   1.0000
     1.0000   1.0000   1.0000   1.0000   1.0000   1.0000   1.0000   1.0000
     1.0000   1.0000   1.0000   1.0000   1.0000   1.0000   1.0000   1.0000
     1.0000   1.0000   1.0000   1.0000   1.0000   1.0000   1.0000   1.0000
     1.0000   1.0000   1.0000   1.0000   1.0000   1.0000   1.0000   1.0000
     1.0000   1.0000   1.0000   1.0000   1.0000   1.0000   1.0000   1.0000
     1.0000   1.0000   1.0000   1.0000   1.0000   1.0000   1.0000   1.0000
     1.0000   1.0000   1.0000   1.0000   1.0000   1.0000   1.0000   1.0000
     1.0000   1.0000   1.0000   1.0000   1.0000   1.0000   1.0000   1.0000
     1.0000   1.0000   1.0000   1.0000   1.0000   1.0000   1.0000   1.0000
     1.0000   1.0000   1.0000   1.0000   1.0000   1.0000   1.0000   1.0000
     1.0000   1.0000   1.0000   1.0000   1.0000   1.0000   1.0000   1.0000
     1.0000   1.0000   1.0000   1.0000   1.0000   1.0000   1.0000   1.0000
     1.0000   1.0000   1.0000   1.0000   1.0000   1.0000   1.0000   1.0000
     1.0000   1.0000   1.0000   1.0000   1.0000   1.0000   1.0000   1.0000
     1.0000   1.0000   1.0000   1.0000   1.0000   1.0000   1.0000   1.0000
     1.0000   1.0000   1.0000   1.0000   1.0000   1.0000   1.0000   1.0000
     1.0000   1.0000   1.0000   1.0000   1.0000   1.0000   1.0000   1.0000
     1.0000   1.0000   1.0000   1.0000   1.0000   1.0000   1.0000   1.0000
     1.0000   1.0000   1.0000   1.0000   1.0000   1.0000   1.0000   1.0000
     1.0000   1.0000   1.0000   1.0000   1.0000   1.0000   1.0000   1.0000
     1.0000   1.0000   1.0000   1.0000   1.0000   1.0000   1.0000   1.0000
     1.0000   1.0000   1.0000   1.0000   1.0000   1.0000   1.0000   1.0000
     1.0000   1.0000   1.0000   1.0000   1.0000   1.0000   1.0000   1.0000
     1.0000   1.0000   1.0000   1.0000   1.0000   1.0000   1.0000   1.0000
     1.0000   1.0000   1.0000   1.0000   1.0000   1.0000   1.0000   1.0000
     1.0000   1.0000   1.0000   1.0000   1.0000   1.0000   1.0000   1.0000
     1.0000   1.0000   1.0000   1.0000   1.0000   1.0000   1.0000   1.0000
     1.0000   1.0000   1.0000   1.0000   1.0000   1.0000   1.0000   1.0000
     1.0000   1.0000   1.0000   1.0000   1.0000   1.0000   1.0000   1.0000
     1.0000   1.0000   1.0000   1.0000   1.0000   1.0000   1.0000   1.0000
     1.0000   1.0000   1.0000   1.0000   1.0000   1.0000   1.0000   1.0000
     1.0000   1.0000   1.0000   1.0000   1.0000   1.0000   1.0000   1.0000
     1.0000   1.0000   1.0000   1.0000   1.0000   1.0000   1.0000   1.0000
     1.0000   1.0000   1.0000   1.0000   1.0000   1.0000   1.0000   1.0000
     1.0000   1.0000   1.0000   1.0000   1.0000   1.0000   1.0000   1.0000
     1.0000   1.0000   1.0000   1.0000   1.0000   1.0000   1.0000   1.0000
     1.0000   1.0000   1.0000   1.0000   1.0000   1.0000   1.0000   1.0000
     1.0000   1.0000   1.0000   1.0000   1.0000   1.0000   1.0000   1.0000
     1.0000   1.0000   1.0000   1.0000   1.0000   1.0000   1.0000   1.0000
     1.0000   1.0000   1.0000   1.0000   1.0000   1.0000   1.0000   1.0000
     1.0000   1.0000   1.0000   1.0000   1.0000   1.0000   1.0000   1.0000
     1.0000   1.0000   1.0000   1.0000   1.0000   1.0000   1.0000   1.0000
     1.0000   1.0000   1.0000   1.0000   1.0000   1.0000   1.0000   1.0000
     1.0000   1.0000   1.0000   1.0000   1.0000   1.0000   1.0000   1.0000
     1.0000   1.0000   1.0000   1.0000   1.0000   1.0000   1.0000   1.0000
     1.0000   1.0000   1.0000   1.0000   1.0000   1.0000   1.0000   1.0000
     1.0000   1.0000   1.0000   1.0000   1.0000   1.0000   1.0000   1.0000
     1.0000   1.0000   1.0000   1.0000   1.0000   1.0000   1.0000   1.0000
     1.0000   1.0000   1.0000   1.0000   1.0000   1.0000   1.0000   1.0000
     1.0000   1.0000   1.0000   1.0000   1.0000   1.0000   1.0000   1.0000
     1.0000   1.0000   1.0000   1.0000   1.0000   1.0000   1.0000   1.0000
     1.0000   1.0000   1.0000   1.0000   1.0000   1.0000   1.0000   1.0000
     1.0000   1.0000   1.0000   1.0000   1.0000   1.0000   1.0000   1.0000
     1.0000   1.0000   1.0000   1.0000   1.0000   1.0000   1.0000   1.0000
     1.0000   1.0000   1.0000   1.0000   1.0000   1.0000   1.0000   1.0000
     1.0000   1.0000   1.0000   1.0000   1.0000   1.0000   1.0000   1.0000
     1.0000   1.0000   1.0000   1.0000   1.0000   1.0000   1.0000   1.0000
     1.0000   1.0000   1.0000   1.0000   1.0000   1.0000   1.0000   1.0000
     1.0000   1.0000   1.0000   1.0000   1.0000   1.0000   1.0000   1.0000
     1.0000   1.0000   1.0000   1.0000   1.0000   1.0000   1.0000   1.0000
     1.0000   1.0000   1.0000   1.0000   1.0000   1.0000   1.0000   1.0000
     1.0000   1.0000   1.0000   1.0000   1.0000   1.0000   1.0000   1.0000
     1.0000   1.0000   1.0000   1.0000   1.0000   1.0000   1.0000   1.0000
     1.0000   1.0000   1.0000   1.0000   1.0000   1.0000   1.0000   1.0000
     1.0000   1.0000   1.0000   1.0000   1.0000   1.0000   1.0000   1.0000
     1.0000   1.0000   1.0000   1.0000   1.0000   1.0000   1.0000   1.0000
     1.0000   1.0000   1.0000   1.0000   1.0000   1.0000   1.0000   1.0000
     1.0000   1.0000   1.0000   1.0000   1.0000   1.0000   1.0000   1.0000
     1.0000   1.0000   1.0000   1.0000   1.0000   1.0000   1.0000   1.0000
     1.0000   1.0000   1.0000   1.0000   1.0000   1.0000   1.0000   1.0000
     1.0000   1.0000   1.0000   1.0000   1.0000   1.0000   1.0000   1.0000
     1.0000   1.0000   1.0000   1.0000   1.0000   1.0000   1.0000   1.0000
     1.0000   1.0000   1.0000   1.0000   1.0000   1.0000   1.0000   1.0000
     1.0000   1.0000   1.0000   1.0000   1.0000   1.0000   1.0000   1.0000
     1.0000   1.0000   1.0000   1.0000   1.0000   1.0000   1.0000   1.0000
     1.0000   1.0000   1.0000   1.0000   1.0000   1.0000   1.0000   1.0000
     1.0000   1.0000   1.0000   1.0000   1.0000   1.0000   1.0000   1.0000
     1.0000   1.0000   1.0000   1.0000   1.0000   1.0000   1.0000   1.0000
     1.0000   1.0000   1.0000   1.0000   1.0000   1.0000   1.0000   1.0000
     1.0000   1.0000   1.0000   1.0000   1.0000   1.0000   1.0000   1.0000
     1.0000   1.0000   1.0000   1.0000   1.0000   1.0000   1.0000   1.0000
     1.0000   1.0000   1.0000   1.0000   1.0000   1.0000   1.0000   1.0000
     1.0000   1.0000   1.0000   1.0000   1.0000   1.0000   1.0000   1.0000
     1.0000   1.0000   1.0000   1.0000   1.0000   1.0000   1.0000   1.0000
     1.0000   1.0000   1.0000   1.0000   1.0000   1.0000   1.0000   1.0000
     1.0000   1.0000   1.0000   1.0000   1.0000   1.0000   1.0000   1.0000
     1.0000   1.0000   1.0000   1.0000   1.0000   1.0000   1.0000   1.0000
     1.0000   1.0000   1.0000   1.0000   1.0000   1.0000   1.0000   1.0000
     1.0000   1.0000   1.0000   1.0000   1.0000   1.0000   1.0000   1.0000
     1.0000   1.0000   1.0000   1.0000   1.0000   1.0000   1.0000   1.0000
     1.0000   1.0000   1.0000   1.0000   1.0000   1.0000   1.0000   1.0000
     1.0000   1.0000   1.0000   1.0000   1.0000   1.0000   1.0000   1.0000
     1.0000   1.0000   1.0000   1.0000   1.0000   1.0000   1.0000   1.0000
     1.0000   1.0000   1.0000   1.0000   1.0000   1.0000   1.0000   1.0000
     1.0000   1.0000   1.0000   1.0000   1.0000   1.0000   1.0000   1.0000
     1.0000   1.0000   1.0000   1.0000   1.0000   1.0000   1.0000   1.0000
     1.0000   1.0000   1.0000   1.0000   1.0000   1.0000   1.0000   1.0000
     1.0000   1.0000   1.0000   1.0000   1.0000   1.0000   1.0000   1.0000
     1.0000   1.0000   1.0000   1.0000   1.0000   1.0000   1.0000   1.0000
     1.0000   1.0000   1.0000   1.0000   1.0000   1.0000   1.0000   1.0000
     1.0000   1.0000   1.0000   1.0000   1.0000   1.0000   1.0000   1.0000
     1.0000   1.0000   1.0000   1.0000   1.0000   1.0000   1.0000   1.0000
     1.0000   1.0000   1.0000   1.0000   1.0000   1.0000   1.0000   1.0000
     1.0000   1.0000   1.0000   1.0000   1.0000   1.0000   1.0000   1.0000
     1.0000   1.0000   1.0000   1.0000   1.0000   1.0000   1.0000   1.0000
     1.0000   1.0000   1.0000   1.0000   1.0000   1.0000   1.0000   1.0000
     1.0000   1.0000   1.0000   1.0000   1.0000   1.0000   1.0000   1.0000
     1.0000   1.0000   1.0000   1.0000   1.0000   1.0000   1.0000   1.0000
     1.0000   1.0000   1.0000   1.0000   1.0000   1.0000   1.0000   1.0000
     1.0000   1.0000   1.0000   1.0000   1.0000   1.0000   1.0000   1.0000

     highest occupied level (ev):     1.2426

!    total energy              =  -14225.28734989 Ry
     estimated scf accuracy    <          5.2E-09 Ry

     The total energy is the sum of the following terms:
     one-electron contribution =  -15719.93913725 Ry
     hartree contribution      =    8487.42133353 Ry
     xc contribution           =   -2486.47754737 Ry
     ewald contribution        =   -3375.09260694 Ry
     one-center paw contrib.   =   -1131.19939186 Ry
      -> PAW hartree energy AE =       0.00000000 Ry
      -> PAW hartree energy PS =       0.00000000 Ry
      -> PAW xc energy AE      =       0.00000000 Ry
      -> PAW xc energy PS      =       0.00000000 Ry
      -> total E_H with PAW    =    8487.42133353 Ry
      -> total E_XC with PAW   =   -2486.47754737 Ry

     convergence has been achieved in  19 iterations

     Forces acting on atoms (cartesian axes, Ry/au):

     atom    1 type  1   force =    -0.00000489   -0.00023479   -0.00013321
     atom    2 type  1   force =    -0.00011270   -0.00041058   -0.00017757
     atom    3 type  1   force =    -0.00000515   -0.00023583   -0.00013388
     atom    4 type  1   force =    -0.00000395   -0.00023652   -0.00013545
     atom    5 type  1   force =    -0.00000401   -0.00023574   -0.00013455
     atom    6 type  1   force =    -0.00000378   -0.00023632   -0.00013405
     atom    7 type  1   force =    -0.00000361   -0.00023579   -0.00013361
     atom    8 type  1   force =    -0.00000320   -0.00023788   -0.00013440
     atom    9 type  1   force =    -0.00024508   -0.00011295   -0.00019330
     atom   10 type  1   force =    -0.00019916   -0.00013059   -0.00017358
     atom   11 type  1   force =    -0.00020000   -0.00013084   -0.00017499
     atom   12 type  1   force =    -0.00019980   -0.00013158   -0.00017445
     atom   13 type  1   force =    -0.00019941   -0.00013082   -0.00017405
     atom   14 type  1   force =    -0.00019886   -0.00013109   -0.00017453
     atom   15 type  1   force =    -0.00020179   -0.00013053   -0.00017333
     atom   16 type  1   force =    -0.00019940   -0.00013145   -0.00017423
     atom   17 type  2   force =     0.00388938   -0.00552525   -0.00128081
     atom   18 type  2   force =    -0.00001708    0.00000187    0.00001175
     atom   19 type  2   force =    -0.00001669    0.00000137    0.00001168
     atom   20 type  2   force =    -0.00001649    0.00000122    0.00001186
     atom   21 type  2   force =    -0.00001668    0.00000165    0.00001161
     atom   22 type  2   force =    -0.00001621    0.00000162    0.00001186
     atom   23 type  2   force =    -0.00001753    0.00000080    0.00001203
     atom   24 type  2   force =    -0.00001662    0.00000166    0.00001154
     atom   25 type  2   force =     0.00123910   -0.00067502    0.00009799
     atom   26 type  2   force =     0.00019943   -0.00004637    0.00002646
     atom   27 type  2   force =     0.00019948   -0.00004526    0.00002764
     atom   28 type  2   force =     0.00019932   -0.00004627    0.00002680
     atom   29 type  2   force =     0.00019805   -0.00004522    0.00002725
     atom   30 type  2   force =     0.00019659   -0.00004536    0.00002681
     atom   31 type  2   force =     0.00020158   -0.00004556    0.00002745
     atom   32 type  2   force =     0.00019731   -0.00004509    0.00002740
     atom   33 type  2   force =    -0.00008399    0.00015406    0.00008233
     atom   34 type  2   force =    -0.00008390    0.00015398    0.00008246
     atom   35 type  2   force =    -0.00008283    0.00015374    0.00008246
     atom   36 type  2   force =    -0.00008387    0.00015365    0.00008207
     atom   37 type  2   force =    -0.00193097   -0.00078353    0.00052064
     atom   38 type  2   force =    -0.00008384    0.00015416    0.00008289
     atom   39 type  2   force =    -0.00008378    0.00015395    0.00008248
     atom   40 type  2   force =    -0.00008341    0.00015376    0.00008270
     atom   41 type  3   force =     0.00002330    0.00004658   -0.00005453
     atom   42 type  3   force =     0.00002266    0.00004691   -0.00005435
     atom   43 type  3   force =     0.00002329    0.00004658   -0.00005436
     atom   44 type  3   force =     0.00002327    0.00004651   -0.00005413
     atom   45 type  3   force =     0.00000959    0.00012612    0.00013011
     atom   46 type  3   force =     0.00002334    0.00004661   -0.00005468
     atom   47 type  3   force =     0.00002336    0.00004679   -0.00005418
     atom   48 type  3   force =     0.00002354    0.00004642   -0.00005448
     atom   49 type  2   force =     0.00014250   -0.00000585   -0.00000082
     atom   50 type  2   force =     0.00014286   -0.00000635   -0.00000056
     atom   51 type  2   force =     0.00014501   -0.00000689   -0.00000074
     atom   52 type  2   force =     0.00014256   -0.00000535   -0.00000051
     atom   53 type  2   force =     0.00136529    0.00193726   -0.00011227
     atom   54 type  2   force =     0.00014291   -0.00000619   -0.00000099
     atom   55 type  2   force =     0.00014264   -0.00000631   -0.00000066
     atom   56 type  2   force =     0.00014265   -0.00000651   -0.00000100
     atom   57 type  3   force =     0.00003584   -0.00007025   -0.00004806
     atom   58 type  3   force =     0.00003583   -0.00007014   -0.00004835
     atom   59 type  3   force =     0.00003665   -0.00006975   -0.00004860
     atom   60 type  3   force =     0.00003579   -0.00007013   -0.00004847
     atom   61 type  3   force =     0.00001413    0.00002597    0.00023083
     atom   62 type  3   force =     0.00003578   -0.00007009   -0.00004852
     atom   63 type  3   force =     0.00003579   -0.00007006   -0.00004829
     atom   64 type  3   force =     0.00003579   -0.00007043   -0.00004835
     atom   65 type  1   force =     0.00001153    0.00032161    0.00033084
     atom   66 type  1   force =     0.00005223    0.00020337    0.00017780
     atom   67 type  1   force =     0.00005166    0.00020159    0.00017581
     atom   68 type  1   force =     0.00005186    0.00020343    0.00017669
     atom   69 type  1   force =     0.00005267    0.00020202    0.00017619
     atom   70 type  1   force =     0.00005263    0.00020165    0.00017710
     atom   71 type  1   force =     0.00005216    0.00020069    0.00017496
     atom   72 type  1   force =     0.00005260    0.00020300    0.00017632
     atom   73 type  1   force =    -0.00012648    0.00022544    0.00007988
     atom   74 type  1   force =    -0.00015941    0.00025077    0.00011235
     atom   75 type  1   force =    -0.00015766    0.00025078    0.00011188
     atom   76 type  1   force =    -0.00015861    0.00025065    0.00011135
     atom   77 type  1   force =    -0.00015783    0.00025056    0.00011212
     atom   78 type  1   force =    -0.00015773    0.00025044    0.00011270
     atom   79 type  1   force =    -0.00015908    0.00025053    0.00011139
     atom   80 type  1   force =    -0.00015747    0.00025035    0.00011202
     atom   81 type  2   force =    -0.01382699    0.01106040    0.00327256
     atom   82 type  2   force =    -0.00009781   -0.00007699   -0.00003143
     atom   83 type  2   force =    -0.00009779   -0.00007770   -0.00003187
     atom   84 type  2   force =    -0.00009686   -0.00007781   -0.00003165
     atom   85 type  2   force =    -0.00009776   -0.00007709   -0.00003161
     atom   86 type  2   force =    -0.00009836   -0.00007804   -0.00003103
     atom   87 type  2   force =    -0.00009650   -0.00007649   -0.00003197
     atom   88 type  2   force =    -0.00009755   -0.00007702   -0.00003167
     atom   89 type  3   force =    -0.00000413   -0.00002010    0.00001381
     atom   90 type  3   force =     0.00073525   -0.00129836   -0.00090861
     atom   91 type  3   force =    -0.00000407   -0.00002014    0.00001403
     atom   92 type  3   force =    -0.00000392   -0.00002012    0.00001433
     atom   93 type  3   force =    -0.00000394   -0.00002027    0.00001378
     atom   94 type  3   force =    -0.00000416   -0.00002002    0.00001396
     atom   95 type  3   force =    -0.00000409   -0.00001998    0.00001399
     atom   96 type  3   force =    -0.00000431   -0.00001990    0.00001426
     atom   97 type  1   force =     0.00013339   -0.00020395    0.00002271
     atom   98 type  1   force =     0.00785302   -0.00358636   -0.00169757
     atom   99 type  1   force =     0.00013339   -0.00020414    0.00002217
     atom  100 type  1   force =     0.00013351   -0.00020409    0.00002124
     atom  101 type  1   force =     0.00013512   -0.00020366    0.00002170
     atom  102 type  1   force =     0.00013389   -0.00020453    0.00002199
     atom  103 type  1   force =     0.00013422   -0.00020446    0.00002198
     atom  104 type  1   force =     0.00013209   -0.00020498    0.00002227
     atom  105 type  2   force =    -0.00006772   -0.00004136    0.00007186
     atom  106 type  2   force =    -0.00008285   -0.00004144    0.00007200
     atom  107 type  2   force =    -0.00006846   -0.00003875    0.00007338
     atom  108 type  2   force =    -0.00006805   -0.00004154    0.00007308
     atom  109 type  2   force =    -0.00006653   -0.00003994    0.00007335
     atom  110 type  2   force =    -0.00006820   -0.00004057    0.00007342
     atom  111 type  2   force =    -0.00006811   -0.00004087    0.00007323
     atom  112 type  2   force =    -0.00006928   -0.00004035    0.00007332
     atom  113 type  3   force =    -0.00006664   -0.00002201   -0.00002910
     atom  114 type  3   force =    -0.00006614   -0.00002257   -0.00002947
     atom  115 type  3   force =    -0.00006625   -0.00002280   -0.00002930
     atom  116 type  3   force =    -0.00006659   -0.00002222   -0.00002936
     atom  117 type  3   force =    -0.00003045   -0.00008878   -0.00004263
     atom  118 type  3   force =    -0.00006651   -0.00002236   -0.00002945
     atom  119 type  3   force =    -0.00006656   -0.00002222   -0.00002924
     atom  120 type  3   force =    -0.00006649   -0.00002221   -0.00002930
     atom  121 type  1   force =     0.00000376    0.00023555   -0.00013322
     atom  122 type  1   force =     0.00001305    0.00021358   -0.00013657
     atom  123 type  1   force =     0.00000349    0.00023658   -0.00013422
     atom  124 type  1   force =     0.00000339    0.00023706   -0.00013479
     atom  125 type  1   force =     0.00000306    0.00024120   -0.00013826
     atom  126 type  1   force =     0.00000388    0.00023537   -0.00013371
     atom  127 type  1   force =     0.00000457    0.00023597   -0.00013376
     atom  128 type  1   force =     0.00000229    0.00023559   -0.00013323
     atom  129 type  1   force =     0.00019932    0.00013095   -0.00017362
     atom  130 type  1   force =     0.00018432    0.00009295   -0.00018822
     atom  131 type  1   force =     0.00019949    0.00013106   -0.00017414
     atom  132 type  1   force =     0.00019995    0.00013054   -0.00017429
     atom  133 type  1   force =     0.00019962    0.00013379   -0.00017546
     atom  134 type  1   force =     0.00019920    0.00013028   -0.00017357
     atom  135 type  1   force =     0.00019916    0.00013085   -0.00017385
     atom  136 type  1   force =     0.00019658    0.00013183   -0.00017547
     atom  137 type  2   force =     0.00001719   -0.00000160    0.00001152
     atom  138 type  2   force =     0.00001527   -0.00000284    0.00001101
     atom  139 type  2   force =     0.00001626   -0.00000103    0.00001190
     atom  140 type  2   force =     0.00001690   -0.00000127    0.00001161
     atom  141 type  2   force =     0.00001557   -0.00000052    0.00001196
     atom  142 type  2   force =     0.00001724   -0.00000166    0.00001202
     atom  143 type  2   force =     0.00001712   -0.00000185    0.00001132
     atom  144 type  2   force =     0.00001089   -0.00000077    0.00001144
     atom  145 type  2   force =    -0.00019775    0.00004557    0.00002715
     atom  146 type  2   force =    -0.00018509    0.00005036    0.00001640
     atom  147 type  2   force =    -0.00019787    0.00004545    0.00002743
     atom  148 type  2   force =    -0.00019791    0.00004478    0.00002774
     atom  149 type  2   force =    -0.00019339    0.00004219    0.00002849
     atom  150 type  2   force =    -0.00019913    0.00004643    0.00002633
     atom  151 type  2   force =    -0.00019889    0.00004613    0.00002640
     atom  152 type  2   force =    -0.00018865    0.00004553    0.00002642
     atom  153 type  2   force =     0.00008393   -0.00015476    0.00008189
     atom  154 type  2   force =     0.00008327   -0.00015366    0.00008234
     atom  155 type  2   force =     0.00008345   -0.00015311    0.00008135
     atom  156 type  2   force =     0.00008485   -0.00014916    0.00008212
     atom  157 type  2   force =     0.00008361   -0.00015367    0.00008226
     atom  158 type  2   force =     0.00008438   -0.00015317    0.00008237
     atom  159 type  2   force =     0.00008392   -0.00015465    0.00008210
     atom  160 type  2   force =     0.00008376   -0.00015365    0.00008252
     atom  161 type  3   force =    -0.00002241   -0.00004750   -0.00005407
     atom  162 type  3   force =    -0.00002331   -0.00004669   -0.00005476
     atom  163 type  3   force =    -0.00002325   -0.00004645   -0.00005390
     atom  164 type  3   force =    -0.00002474   -0.00004667   -0.00005407
     atom  165 type  3   force =    -0.00002325   -0.00004647   -0.00005436
     atom  166 type  3   force =    -0.00002335   -0.00004651   -0.00005440
     atom  167 type  3   force =    -0.00002338   -0.00004666   -0.00005418
     atom  168 type  3   force =    -0.00002328   -0.00004652   -0.00005439
     atom  169 type  2   force =    -0.00014256    0.00000607   -0.00000149
     atom  170 type  2   force =    -0.00011776    0.00000525   -0.00000121
     atom  171 type  2   force =    -0.00014284    0.00000547   -0.00000106
     atom  172 type  2   force =    -0.00014330    0.00000626   -0.00000125
     atom  173 type  2   force =    -0.00014488    0.00000636   -0.00000092
     atom  174 type  2   force =    -0.00014284    0.00000586   -0.00000094
     atom  175 type  2   force =    -0.00014302    0.00000604   -0.00000074
     atom  176 type  2   force =    -0.00014147    0.00000597   -0.00000140
     atom  177 type  3   force =    -0.00003579    0.00007003   -0.00004858
     atom  178 type  3   force =    -0.00002798    0.00004191   -0.00004640
     atom  179 type  3   force =    -0.00003563    0.00007005   -0.00004825
     atom  180 type  3   force =    -0.00003577    0.00007004   -0.00004803
     atom  181 type  3   force =    -0.00003601    0.00007002   -0.00004825
     atom  182 type  3   force =    -0.00003583    0.00007020   -0.00004839
     atom  183 type  3   force =    -0.00003586    0.00007021   -0.00004824
     atom  184 type  3   force =    -0.00003573    0.00007015   -0.00004830
     atom  185 type  1   force =    -0.00005308   -0.00020284    0.00017666
     atom  186 type  1   force =    -0.00005801   -0.00021452    0.00019704
     atom  187 type  1   force =    -0.00005277   -0.00020186    0.00017605
     atom  188 type  1   force =    -0.00005260   -0.00020116    0.00017526
     atom  189 type  1   force =    -0.00005011   -0.00019523    0.00017546
     atom  190 type  1   force =    -0.00005302   -0.00020264    0.00017743
     atom  191 type  1   force =    -0.00005261   -0.00020298    0.00017633
     atom  192 type  1   force =    -0.00005421   -0.00020155    0.00017543
     atom  193 type  1   force =     0.00015808   -0.00025029    0.00011219
     atom  194 type  1   force =     0.00015501   -0.00025096    0.00010005
     atom  195 type  1   force =     0.00015785   -0.00025002    0.00011202
     atom  196 type  1   force =     0.00015719   -0.00025023    0.00011164
     atom  197 type  1   force =     0.00015432   -0.00024727    0.00011468
     atom  198 type  1   force =     0.00015904   -0.00025027    0.00011210
     atom  199 type  1   force =     0.00015853   -0.00025100    0.00011199
     atom  200 type  1   force =     0.00015512   -0.00024971    0.00011303
     atom  201 type  2   force =     0.00009750    0.00007699   -0.00003148
     atom  202 type  2   force =     0.00010011    0.00007977   -0.00003066
     atom  203 type  2   force =     0.00009751    0.00007701   -0.00003154
     atom  204 type  2   force =     0.00009772    0.00007668   -0.00003174
     atom  205 type  2   force =     0.00009764    0.00007657   -0.00003195
     atom  206 type  2   force =     0.00009747    0.00007731   -0.00003136
     atom  207 type  2   force =     0.00009752    0.00007739   -0.00003136
     atom  208 type  2   force =     0.00010414    0.00007938   -0.00003014
     atom  209 type  3   force =     0.00000422    0.00002008    0.00001384
     atom  210 type  3   force =     0.00000435    0.00002158    0.00001231
     atom  211 type  3   force =     0.00000409    0.00002000    0.00001399
     atom  212 type  3   force =     0.00000417    0.00002001    0.00001421
     atom  213 type  3   force =     0.00000408    0.00002002    0.00001394
     atom  214 type  3   force =     0.00000414    0.00002021    0.00001396
     atom  215 type  3   force =     0.00000412    0.00002004    0.00001385
     atom  216 type  3   force =     0.00000177    0.00001998    0.00001341
     atom  217 type  1   force =    -0.00013384    0.00020471    0.00002234
     atom  218 type  1   force =    -0.00013741    0.00020343    0.00002223
     atom  219 type  1   force =    -0.00013383    0.00020408    0.00002183
     atom  220 type  1   force =    -0.00013397    0.00020480    0.00002164
     atom  221 type  1   force =    -0.00013496    0.00020553    0.00002203
     atom  222 type  1   force =    -0.00013350    0.00020430    0.00002163
     atom  223 type  1   force =    -0.00013381    0.00020392    0.00002252
     atom  224 type  1   force =    -0.00014654    0.00020534    0.00001944
     atom  225 type  2   force =     0.00006812    0.00004045    0.00007298
     atom  226 type  2   force =     0.00006764    0.00003998    0.00007311
     atom  227 type  2   force =     0.00006753    0.00004157    0.00007318
     atom  228 type  2   force =     0.00006797    0.00004075    0.00007320
     atom  229 type  2   force =     0.00120361   -0.00124262   -0.00011492
     atom  230 type  2   force =     0.00006795    0.00004121    0.00007333
     atom  231 type  2   force =     0.00006784    0.00004119    0.00007320
     atom  232 type  2   force =     0.00006818    0.00004114    0.00007310
     atom  233 type  3   force =     0.00006633    0.00002247   -0.00002931
     atom  234 type  3   force =     0.00006687    0.00002229   -0.00002936
     atom  235 type  3   force =     0.00006656    0.00002221   -0.00002929
     atom  236 type  3   force =     0.00006651    0.00002244   -0.00002921
     atom  237 type  3   force =     0.00006693    0.00002398   -0.00002935
     atom  238 type  3   force =     0.00006657    0.00002234   -0.00002942
     atom  239 type  3   force =     0.00006649    0.00002238   -0.00002924
     atom  240 type  3   force =     0.00006635    0.00002207   -0.00002932
     atom  241 type  1   force =    -0.00023917    0.00000518    0.00013633
     atom  242 type  1   force =    -0.00024084   -0.00001490    0.00010002
     atom  243 type  1   force =    -0.00023616    0.00000427    0.00013423
     atom  244 type  1   force =    -0.00023692    0.00000487    0.00013408
     atom  245 type  1   force =    -0.00023578    0.00000475    0.00013370
     atom  246 type  1   force =    -0.00023689    0.00000400    0.00013435
     atom  247 type  1   force =    -0.00023536    0.00000417    0.00013401
     atom  248 type  1   force =    -0.00023697    0.00000341    0.00013471
     atom  249 type  1   force =    -0.00013427    0.00020171    0.00017615
     atom  250 type  1   force =    -0.00013548    0.00021983    0.00013186
     atom  251 type  1   force =    -0.00013055    0.00019964    0.00017391
     atom  252 type  1   force =    -0.00013236    0.00020006    0.00017359
     atom  253 type  1   force =    -0.00013091    0.00019920    0.00017403
     atom  254 type  1   force =    -0.00013122    0.00019997    0.00017468
     atom  255 type  1   force =    -0.00013143    0.00019895    0.00017449
     atom  256 type  1   force =    -0.00013103    0.00020034    0.00017413
     atom  257 type  2   force =     0.00000106    0.00001520   -0.00001199
     atom  258 type  2   force =     0.00000227    0.00001522   -0.00001301
     atom  259 type  2   force =     0.00000144    0.00001682   -0.00001153
     atom  260 type  2   force =     0.00000102    0.00001676   -0.00001158
     atom  261 type  2   force =     0.00000267    0.00001697   -0.00001154
     atom  262 type  2   force =     0.00000118    0.00001719   -0.00001178
     atom  263 type  2   force =    -0.00000212    0.00001173   -0.00000731
     atom  264 type  2   force =     0.00000123    0.00001725   -0.00001148
     atom  265 type  2   force =    -0.00004247   -0.00019661   -0.00002902
     atom  266 type  2   force =    -0.00005120   -0.00020881   -0.00003369
     atom  267 type  2   force =    -0.00004524   -0.00019874   -0.00002697
     atom  268 type  2   force =    -0.00004578   -0.00019993   -0.00002672
     atom  269 type  2   force =    -0.00004549   -0.00019857   -0.00002669
     atom  270 type  2   force =    -0.00004566   -0.00019818   -0.00002727
     atom  271 type  2   force =    -0.00004709   -0.00019741   -0.00002688
     atom  272 type  2   force =    -0.00004454   -0.00019810   -0.00002756
     atom  273 type  2   force =     0.00015506    0.00008400   -0.00008129
     atom  274 type  2   force =     0.00015276    0.00008191   -0.00008280
     atom  275 type  2   force =     0.00015354    0.00008377   -0.00008198
     atom  276 type  2   force =     0.00015383    0.00008330   -0.00008237
     atom  277 type  2   force =     0.00015398    0.00008504   -0.00008150
     atom  278 type  2   force =     0.00015341    0.00008325   -0.00008230
     atom  279 type  2   force =     0.00015299    0.00008315   -0.00008353
     atom  280 type  2   force =     0.00015402    0.00008380   -0.00008200
     atom  281 type  3   force =     0.00004592   -0.00002286    0.00005230
     atom  282 type  3   force =     0.00004787   -0.00002407    0.00005288
     atom  283 type  3   force =     0.00004658   -0.00002341    0.00005462
     atom  284 type  3   force =     0.00004666   -0.00002335    0.00005450
     atom  285 type  3   force =     0.00004645   -0.00002308    0.00005446
     atom  286 type  3   force =     0.00004627   -0.00002333    0.00005439
     atom  287 type  3   force =     0.00004686   -0.00002362    0.00005361
     atom  288 type  3   force =     0.00004679   -0.00002315    0.00005447
     atom  289 type  2   force =    -0.00000482   -0.00014294    0.00000091
     atom  290 type  2   force =    -0.00000706   -0.00014228    0.00000085
     atom  291 type  2   force =    -0.00000581   -0.00014269    0.00000102
     atom  292 type  2   force =    -0.00000653   -0.00014274    0.00000064
     atom  293 type  2   force =    -0.00000698   -0.00014508    0.00000087
     atom  294 type  2   force =    -0.00000645   -0.00014330    0.00000068
     atom  295 type  2   force =    -0.00000566   -0.00014459    0.00000099
     atom  296 type  2   force =    -0.00000569   -0.00014320    0.00000076
     atom  297 type  3   force =    -0.00006993   -0.00003554    0.00004811
     atom  298 type  3   force =    -0.00007031   -0.00003594    0.00004855
     atom  299 type  3   force =    -0.00006992   -0.00003572    0.00004847
     atom  300 type  3   force =    -0.00007052   -0.00003582    0.00004847
     atom  301 type  3   force =    -0.00007142   -0.00003596    0.00004988
     atom  302 type  3   force =    -0.00006998   -0.00003585    0.00004825
     atom  303 type  3   force =    -0.00006831   -0.00003552    0.00004818
     atom  304 type  3   force =    -0.00007008   -0.00003572    0.00004832
     atom  305 type  1   force =     0.00020000   -0.00004815   -0.00017251
     atom  306 type  1   force =     0.00021775   -0.00006700   -0.00017891
     atom  307 type  1   force =     0.00020184   -0.00005222   -0.00017611
     atom  308 type  1   force =     0.00020207   -0.00005140   -0.00017665
     atom  309 type  1   force =     0.00020279   -0.00005217   -0.00017647
     atom  310 type  1   force =     0.00020214   -0.00005325   -0.00017501
     atom  311 type  1   force =     0.00020240   -0.00005291   -0.00017662
     atom  312 type  1   force =     0.00020106   -0.00005223   -0.00017589
     atom  313 type  1   force =     0.00024935    0.00015420   -0.00011139
     atom  314 type  1   force =     0.00024621    0.00016406   -0.00011259
     atom  315 type  1   force =     0.00025059    0.00015830   -0.00011212
     atom  316 type  1   force =     0.00025005    0.00015861   -0.00011274
     atom  317 type  1   force =     0.00025114    0.00015829   -0.00011210
     atom  318 type  1   force =     0.00025071    0.00015769   -0.00011103
     atom  319 type  1   force =     0.00025056    0.00015798   -0.00011221
     atom  320 type  1   force =     0.00024939    0.00015732   -0.00011206
     atom  321 type  2   force =    -0.00007618    0.00009769    0.00003191
     atom  322 type  2   force =    -0.00008122    0.00009758    0.00003171
     atom  323 type  2   force =    -0.00007714    0.00009789    0.00003191
     atom  324 type  2   force =    -0.00007731    0.00009660    0.00003233
     atom  325 type  2   force =    -0.00007710    0.00009610    0.00003204
     atom  326 type  2   force =    -0.00007733    0.00009752    0.00003180
     atom  327 type  2   force =    -0.00007954    0.00010573    0.00003461
     atom  328 type  2   force =    -0.00007662    0.00009779    0.00003201
     atom  329 type  3   force =    -0.00001997    0.00000415   -0.00001409
     atom  330 type  3   force =    -0.00002024    0.00000393   -0.00001356
     atom  331 type  3   force =    -0.00002011    0.00000418   -0.00001392
     atom  332 type  3   force =    -0.00002021    0.00000408   -0.00001402
     atom  333 type  3   force =    -0.00002021    0.00000424   -0.00001378
     atom  334 type  3   force =    -0.00001999    0.00000424   -0.00001400
     atom  335 type  3   force =    -0.00001693    0.00000061   -0.00001686
     atom  336 type  3   force =    -0.00001993    0.00000428   -0.00001422
     atom  337 type  1   force =    -0.00020534   -0.00013468   -0.00002133
     atom  338 type  1   force =    -0.00020236   -0.00013281   -0.00002271
     atom  339 type  1   force =    -0.00020479   -0.00013377   -0.00002193
     atom  340 type  1   force =    -0.00020437   -0.00013299   -0.00002222
     atom  341 type  1   force =    -0.00020335   -0.00013262   -0.00002316
     atom  342 type  1   force =    -0.00020491   -0.00013372   -0.00002173
     atom  343 type  1   force =    -0.00020489   -0.00013257   -0.00003484
     atom  344 type  1   force =    -0.00020507   -0.00013351   -0.00002140
     atom  345 type  2   force =    -0.00004080    0.00008134   -0.00008503
     atom  346 type  2   force =    -0.00004022    0.00006779   -0.00007315
     atom  347 type  2   force =    -0.00004061    0.00006803   -0.00007342
     atom  348 type  2   force =    -0.00004059    0.00006853   -0.00007290
     atom  349 type  2   force =    -0.00004144    0.00006735   -0.00007298
     atom  350 type  2   force =    -0.00003945    0.00006872   -0.00007297
     atom  351 type  2   force =    -0.00004085    0.00006787   -0.00007327
     atom  352 type  2   force =    -0.00004082    0.00006815   -0.00007306
     atom  353 type  3   force =    -0.00002283    0.00006619    0.00002940
     atom  354 type  3   force =    -0.00002235    0.00006650    0.00002921
     atom  355 type  3   force =    -0.00002225    0.00006669    0.00002950
     atom  356 type  3   force =    -0.00002236    0.00006658    0.00002938
     atom  357 type  3   force =    -0.00002090    0.00006652    0.00002772
     atom  358 type  3   force =    -0.00002245    0.00006643    0.00002918
     atom  359 type  3   force =    -0.00002290    0.00006652    0.00002977
     atom  360 type  3   force =    -0.00002236    0.00006668    0.00002937
     atom  361 type  1   force =     0.00023550   -0.00000406    0.00013450
     atom  362 type  1   force =     0.00023581   -0.00000735    0.00012981
     atom  363 type  1   force =     0.00023611   -0.00000375    0.00013439
     atom  364 type  1   force =     0.00023664   -0.00000229    0.00013332
     atom  365 type  1   force =     0.00023523   -0.00000342    0.00013327
     atom  366 type  1   force =     0.00023619   -0.00000391    0.00013435
     atom  367 type  1   force =     0.00024857   -0.00000056    0.00013730
     atom  368 type  1   force =     0.00023543   -0.00000470    0.00013446
     atom  369 type  1   force =     0.00013121   -0.00019944    0.00017450
     atom  370 type  1   force =     0.00013256   -0.00019737    0.00017568
     atom  371 type  1   force =     0.00013098   -0.00019920    0.00017461
     atom  372 type  1   force =     0.00013114   -0.00019786    0.00017251
     atom  373 type  1   force =     0.00012705   -0.00020149    0.00017602
     atom  374 type  1   force =     0.00013044   -0.00019943    0.00017448
     atom  375 type  1   force =     0.00013075   -0.00019922    0.00017379
     atom  376 type  1   force =     0.00013094   -0.00019937    0.00017422
     atom  377 type  2   force =    -0.00000169   -0.00001663   -0.00001213
     atom  378 type  2   force =    -0.00000541   -0.00000968   -0.00000873
     atom  379 type  2   force =    -0.00000167   -0.00001641   -0.00001155
     atom  380 type  2   force =    -0.00000178   -0.00001700   -0.00001098
     atom  381 type  2   force =    -0.00000104   -0.00001557   -0.00001085
     atom  382 type  2   force =    -0.00000212   -0.00001627   -0.00001177
     atom  383 type  2   force =    -0.00000172   -0.00001714   -0.00001143
     atom  384 type  2   force =    -0.00000151   -0.00001671   -0.00001160
     atom  385 type  2   force =     0.00004496    0.00019787   -0.00002662
     atom  386 type  2   force =     0.00004357    0.00018825   -0.00002655
     atom  387 type  2   force =     0.00004571    0.00019805   -0.00002669
     atom  388 type  2   force =     0.00004759    0.00019932   -0.00002520
     atom  389 type  2   force =     0.00004002    0.00019033   -0.00003185
     atom  390 type  2   force =     0.00004746    0.00020155   -0.00002726
     atom  391 type  2   force =     0.00004566    0.00019810   -0.00002693
     atom  392 type  2   force =     0.00004641    0.00019915   -0.00002617
     atom  393 type  2   force =    -0.00015416   -0.00008358   -0.00008175
     atom  394 type  2   force =    -0.00015146   -0.00009507   -0.00008261
     atom  395 type  2   force =    -0.00015373   -0.00008356   -0.00008236
     atom  396 type  2   force =    -0.00015243   -0.00008371   -0.00008275
     atom  397 type  2   force =    -0.00015341   -0.00008363   -0.00008191
     atom  398 type  2   force =    -0.00015286   -0.00008349   -0.00008326
     atom  399 type  2   force =    -0.00015361   -0.00008347   -0.00008228
     atom  400 type  2   force =    -0.00015375   -0.00008332   -0.00008267
     atom  401 type  3   force =    -0.00004657    0.00002325    0.00005432
     atom  402 type  3   force =    -0.00004658    0.00002374    0.00005332
     atom  403 type  3   force =    -0.00004665    0.00002334    0.00005445
     atom  404 type  3   force =    -0.00004614    0.00002334    0.00005469
     atom  405 type  3   force =    -0.00004632    0.00002302    0.00005389
     atom  406 type  3   force =    -0.00004557    0.00002486    0.00005524
     atom  407 type  3   force =    -0.00004650    0.00002331    0.00005446
     atom  408 type  3   force =    -0.00004643    0.00002330    0.00005473
     atom  409 type  2   force =    -0.00000296    0.00014285    0.00000129
     atom  410 type  2   force =     0.00000590    0.00014236    0.00000101
     atom  411 type  2   force =     0.00000622    0.00014123    0.00000170
     atom  412 type  2   force =     0.00000628    0.00014247    0.00000107
     atom  413 type  2   force =     0.00000561    0.00014262    0.00000101
     atom  414 type  2   force =     0.00000574    0.00014269    0.00000119
     atom  415 type  2   force =     0.00000667    0.00014316    0.00000093
     atom  416 type  2   force =     0.00000629    0.00014334    0.00000083
     atom  417 type  3   force =     0.00006910    0.00003932    0.00005228
     atom  418 type  3   force =     0.00007040    0.00003586    0.00004807
     atom  419 type  3   force =     0.00006982    0.00003562    0.00004867
     atom  420 type  3   force =     0.00007018    0.00003586    0.00004834
     atom  421 type  3   force =     0.00007017    0.00003587    0.00004846
     atom  422 type  3   force =     0.00006994    0.00003558    0.00004831
     atom  423 type  3   force =     0.00007060    0.00003595    0.00004835
     atom  424 type  3   force =     0.00006956    0.00003582    0.00004860
     atom  425 type  1   force =    -0.00020219    0.00005261   -0.00017612
     atom  426 type  1   force =    -0.00020095    0.00005320   -0.00017431
     atom  427 type  1   force =    -0.00020260    0.00005258   -0.00017661
     atom  428 type  1   force =    -0.00020449    0.00005196   -0.00017729
     atom  429 type  1   force =    -0.00019932    0.00004699   -0.00016467
     atom  430 type  1   force =    -0.00020381    0.00005290   -0.00017518
     atom  431 type  1   force =    -0.00020296    0.00005330   -0.00017676
     atom  432 type  1   force =    -0.00020278    0.00005272   -0.00017671
     atom  433 type  1   force =    -0.00025029   -0.00015758   -0.00011197
     atom  434 type  1   force =    -0.00024989   -0.00015420   -0.00011302
     atom  435 type  1   force =    -0.00025049   -0.00015803   -0.00011191
     atom  436 type  1   force =    -0.00025313   -0.00015954   -0.00011258
     atom  437 type  1   force =    -0.00025513   -0.00015166   -0.00010676
     atom  438 type  1   force =    -0.00025172   -0.00015994   -0.00011050
     atom  439 type  1   force =    -0.00025021   -0.00015823   -0.00011200
     atom  440 type  1   force =    -0.00025003   -0.00015878   -0.00011156
     atom  441 type  2   force =     0.00007696   -0.00009772    0.00003183
     atom  442 type  2   force =     0.00007868   -0.00010178    0.00003224
     atom  443 type  2   force =     0.00007819   -0.00009768    0.00003140
     atom  444 type  2   force =     0.00007767   -0.00009548    0.00003286
     atom  445 type  2   force =     0.00007583   -0.00009702    0.00003159
     atom  446 type  2   force =     0.00007836   -0.00009715    0.00003197
     atom  447 type  2   force =     0.00007710   -0.00009786    0.00003184
     atom  448 type  2   force =     0.00007825   -0.00009689    0.00003188
     atom  449 type  3   force =     0.00002031   -0.00000397   -0.00001392
     atom  450 type  3   force =     0.00001900   -0.00000380   -0.00001346
     atom  451 type  3   force =     0.00002011   -0.00000402   -0.00001395
     atom  452 type  3   force =     0.00001996   -0.00000348   -0.00001317
     atom  453 type  3   force =     0.00001999   -0.00000412   -0.00001386
     atom  454 type  3   force =     0.00002006   -0.00000395   -0.00001407
     atom  455 type  3   force =     0.00001999   -0.00000402   -0.00001363
     atom  456 type  3   force =     0.00002028   -0.00000406   -0.00001395
     atom  457 type  1   force =     0.00020418    0.00013477   -0.00002161
     atom  458 type  1   force =     0.00020328    0.00013325   -0.00002520
     atom  459 type  1   force =     0.00020401    0.00013426   -0.00002151
     atom  460 type  1   force =     0.00020748    0.00013511   -0.00002992
     atom  461 type  1   force =     0.00020477    0.00013405   -0.00002195
     atom  462 type  1   force =     0.00020377    0.00013365   -0.00002157
     atom  463 type  1   force =     0.00020524    0.00013511   -0.00002202
     atom  464 type  1   force =     0.00020414    0.00013305   -0.00002215
     atom  465 type  2   force =     0.00003776   -0.00006672   -0.00007277
     atom  466 type  2   force =     0.00004260   -0.00006790   -0.00007264
     atom  467 type  2   force =     0.00004100   -0.00006836   -0.00007340
     atom  468 type  2   force =     0.00004098   -0.00006798   -0.00007318
     atom  469 type  2   force =     0.00003931   -0.00006711   -0.00007218
     atom  470 type  2   force =     0.00004090   -0.00006815   -0.00007275
     atom  471 type  2   force =     0.00004015   -0.00006852   -0.00007150
     atom  472 type  2   force =     0.00004059   -0.00006799   -0.00007326
     atom  473 type  3   force =     0.00002117   -0.00006607    0.00003247
     atom  474 type  3   force =     0.00002204   -0.00006659    0.00002896
     atom  475 type  3   force =     0.00002224   -0.00006637    0.00002963
     atom  476 type  3   force =     0.00002226   -0.00006642    0.00002941
     atom  477 type  3   force =     0.00002246   -0.00006646    0.00002935
     atom  478 type  3   force =     0.00002214   -0.00006634    0.00002930
     atom  479 type  3   force =     0.00002236   -0.00006629    0.00002947
     atom  480 type  3   force =     0.00002252   -0.00006640    0.00002945
     atom  481 type  4   force =     0.00000492   -0.00000080   -0.00000324
     atom  482 type  4   force =    -0.00001394    0.00001871    0.00003117
     atom  483 type  4   force =     0.00000422   -0.00000109   -0.00000127
     atom  484 type  4   force =     0.00000238   -0.00000403    0.00000503
     atom  485 type  4   force =    -0.00000070   -0.00000443    0.00000249
     atom  486 type  4   force =     0.00000072    0.00000098    0.00000052
     atom  487 type  4   force =    -0.00000485   -0.00000110   -0.00000196
     atom  488 type  4   force =     0.00000417    0.00000500   -0.00000229
     atom  489 type  4   force =     0.00000440   -0.00003341   -0.00002071
     atom  490 type  4   force =     0.00000289   -0.00000077   -0.00000750
     atom  491 type  4   force =     0.00000148   -0.00000009    0.00000082
     atom  492 type  4   force =     0.00000337   -0.00000473    0.00000150
     atom  493 type  4   force =    -0.00000088    0.00000027    0.00000036
     atom  494 type  4   force =    -0.00000371    0.00000566   -0.00000630
     atom  495 type  4   force =     0.00000088   -0.00000055   -0.00000003
     atom  496 type  4   force =     0.00000239   -0.00000180    0.00000233
     The non-local contrib.  to forces
     atom    1 type  1   force =     0.42449929   -0.94526110   -0.55498768
     atom    2 type  1   force =     0.42445515   -0.94559967   -0.55505334
     atom    3 type  1   force =     0.42450001   -0.94526838   -0.55499387
     atom    4 type  1   force =     0.42450277   -0.94527561   -0.55500581
     atom    5 type  1   force =     0.42450590   -0.94526577   -0.55499687
     atom    6 type  1   force =     0.42450554   -0.94527496   -0.55499719
     atom    7 type  1   force =     0.42450509   -0.94526951   -0.55499341
     atom    8 type  1   force =     0.42450814   -0.94529403   -0.55500340
     atom    9 type  1   force =    -1.90188850   -0.92021146   -0.83648744
     atom   10 type  1   force =    -1.90170005   -0.92017931   -0.83651037
     atom   11 type  1   force =    -1.90170927   -0.92018950   -0.83651971
     atom   12 type  1   force =    -1.90170093   -0.92018210   -0.83651086
     atom   13 type  1   force =    -1.90170171   -0.92018551   -0.83651340
     atom   14 type  1   force =    -1.90170008   -0.92018389   -0.83651321
     atom   15 type  1   force =    -1.90170773   -0.92019353   -0.83651786
     atom   16 type  1   force =    -1.90169812   -0.92018320   -0.83651048
     atom   17 type  2   force =     0.21251691   -0.05078639    0.00483960
     atom   18 type  2   force =     0.20916952   -0.04486466    0.00802296
     atom   19 type  2   force =     0.20916796   -0.04486534    0.00801846
     atom   20 type  2   force =     0.20916844   -0.04486530    0.00802052
     atom   21 type  2   force =     0.20917298   -0.04486711    0.00802123
     atom   22 type  2   force =     0.20917694   -0.04486328    0.00802076
     atom   23 type  2   force =     0.20916714   -0.04486829    0.00802050
     atom   24 type  2   force =     0.20917406   -0.04486682    0.00801993
     atom   25 type  2   force =     0.18148798   -0.01014269    0.01193851
     atom   26 type  2   force =     0.18057578   -0.00954005    0.01138502
     atom   27 type  2   force =     0.18057390   -0.00954544    0.01138153
     atom   28 type  2   force =     0.18057363   -0.00954188    0.01138406
     atom   29 type  2   force =     0.18058011   -0.00954417    0.01138293
     atom   30 type  2   force =     0.18058390   -0.00954371    0.01138341
     atom   31 type  2   force =     0.18057373   -0.00954659    0.01138126
     atom   32 type  2   force =     0.18058084   -0.00954312    0.01138325
     atom   33 type  2   force =     0.03834137    0.04943034   -0.02158845
     atom   34 type  2   force =     0.03834475    0.04943455   -0.02158840
     atom   35 type  2   force =     0.03833324    0.04943388   -0.02159038
     atom   36 type  2   force =     0.03834146    0.04943300   -0.02159035
     atom   37 type  2   force =     0.03830662    0.04962582   -0.02075133
     atom   38 type  2   force =     0.03833752    0.04943548   -0.02158765
     atom   39 type  2   force =     0.03833787    0.04943273   -0.02159140
     atom   40 type  2   force =     0.03833589    0.04943600   -0.02159007
     atom   41 type  3   force =    -0.02448908    0.07095358   -0.00853842
     atom   42 type  3   force =    -0.02448892    0.07095366   -0.00853848
     atom   43 type  3   force =    -0.02448920    0.07095369   -0.00853849
     atom   44 type  3   force =    -0.02448908    0.07095364   -0.00853855
     atom   45 type  3   force =    -0.02447690    0.07096373   -0.00852302
     atom   46 type  3   force =    -0.02448915    0.07095370   -0.00853840
     atom   47 type  3   force =    -0.02448913    0.07095362   -0.00853856
     atom   48 type  3   force =    -0.02448920    0.07095371   -0.00853848
     atom   49 type  2   force =     0.19564889    0.10406708   -0.02183274
     atom   50 type  2   force =     0.19564931    0.10407177   -0.02183209
     atom   51 type  2   force =     0.19562790    0.10406940   -0.02183084
     atom   52 type  2   force =     0.19564921    0.10406725   -0.02183179
     atom   53 type  2   force =     0.19473983    0.10294564   -0.02116638
     atom   54 type  2   force =     0.19564358    0.10406890   -0.02183057
     atom   55 type  2   force =     0.19564549    0.10406819   -0.02183202
     atom   56 type  2   force =     0.19564218    0.10406883   -0.02183157
     atom   57 type  3   force =     0.07447327   -0.02094775   -0.00102139
     atom   58 type  3   force =     0.07447328   -0.02094774   -0.00102133
     atom   59 type  3   force =     0.07447270   -0.02094784   -0.00102127
     atom   60 type  3   force =     0.07447330   -0.02094777   -0.00102125
     atom   61 type  3   force =     0.07446688   -0.02095302   -0.00099801
     atom   62 type  3   force =     0.07447315   -0.02094775   -0.00102124
     atom   63 type  3   force =     0.07447319   -0.02094778   -0.00102134
     atom   64 type  3   force =     0.07447314   -0.02094772   -0.00102132
     atom   65 type  1   force =     0.46076297    0.90171927    0.60848470
     atom   66 type  1   force =     0.46059706    0.90172007    0.60855413
     atom   67 type  1   force =     0.46058855    0.90169734    0.60853092
     atom   68 type  1   force =     0.46059209    0.90171499    0.60854308
     atom   69 type  1   force =     0.46059490    0.90170319    0.60853879
     atom   70 type  1   force =     0.46059623    0.90170091    0.60854131
     atom   71 type  1   force =     0.46059677    0.90170349    0.60853810
     atom   72 type  1   force =     0.46059444    0.90170542    0.60853806
     atom   73 type  1   force =    -1.81432928    1.18910981    0.50388343
     atom   74 type  1   force =    -1.81427907    1.18902770    0.50399290
     atom   75 type  1   force =    -1.81427557    1.18901823    0.50398682
     atom   76 type  1   force =    -1.81428500    1.18903120    0.50399164
     atom   77 type  1   force =    -1.81427400    1.18902070    0.50398815
     atom   78 type  1   force =    -1.81427218    1.18902053    0.50398897
     atom   79 type  1   force =    -1.81425854    1.18900889    0.50397883
     atom   80 type  1   force =    -1.81427825    1.18902446    0.50399020
     atom   81 type  2   force =    -0.13604894    0.01186600    0.01300496
     atom   82 type  2   force =    -0.12228756    0.00072278    0.01061009
     atom   83 type  2   force =    -0.12228710    0.00072445    0.01060729
     atom   84 type  2   force =    -0.12228899    0.00072262    0.01060877
     atom   85 type  2   force =    -0.12228630    0.00072044    0.01060906
     atom   86 type  2   force =    -0.12228079    0.00072813    0.01060768
     atom   87 type  2   force =    -0.12229584    0.00071521    0.01060922
     atom   88 type  2   force =    -0.12228535    0.00072099    0.01060840
     atom   89 type  3   force =    -0.04392403   -0.06010585    0.00989239
     atom   90 type  3   force =    -0.04343851   -0.06055390    0.00931725
     atom   91 type  3   force =    -0.04392404   -0.06010586    0.00989228
     atom   92 type  3   force =    -0.04392402   -0.06010581    0.00989215
     atom   93 type  3   force =    -0.04392387   -0.06010567    0.00989228
     atom   94 type  3   force =    -0.04392401   -0.06010592    0.00989233
     atom   95 type  3   force =    -0.04392397   -0.06010590    0.00989229
     atom   96 type  3   force =    -0.04392420   -0.06010608    0.00989228
     atom   97 type  1   force =     0.67099651   -1.73657452    0.15450062
     atom   98 type  1   force =     0.67326552   -1.74710287    0.14513588
     atom   99 type  1   force =     0.67099365   -1.73657143    0.15449727
     atom  100 type  1   force =     0.67099679   -1.73657257    0.15449429
     atom  101 type  1   force =     0.67100183   -1.73657080    0.15449689
     atom  102 type  1   force =     0.67099977   -1.73657836    0.15449819
     atom  103 type  1   force =     0.67100109   -1.73657873    0.15449756
     atom  104 type  1   force =     0.67098716   -1.73658046    0.15449788
     atom  105 type  2   force =    -0.02521877    0.04108902   -0.00104185
     atom  106 type  2   force =    -0.02524269    0.04114687   -0.00103987
     atom  107 type  2   force =    -0.02522763    0.04109541   -0.00104366
     atom  108 type  2   force =    -0.02521599    0.04109247   -0.00104316
     atom  109 type  2   force =    -0.02523390    0.04107376   -0.00104575
     atom  110 type  2   force =    -0.02521988    0.04109355   -0.00104293
     atom  111 type  2   force =    -0.02522011    0.04109204   -0.00104349
     atom  112 type  2   force =    -0.02522709    0.04108571   -0.00104316
     atom  113 type  3   force =     0.05071371    0.05410620   -0.00605710
     atom  114 type  3   force =     0.05071381    0.05410662   -0.00605703
     atom  115 type  3   force =     0.05071335    0.05410618   -0.00605703
     atom  116 type  3   force =     0.05071368    0.05410628   -0.00605703
     atom  117 type  3   force =     0.05071068    0.05410766   -0.00605824
     atom  118 type  3   force =     0.05071359    0.05410627   -0.00605696
     atom  119 type  3   force =     0.05071358    0.05410621   -0.00605705
     atom  120 type  3   force =     0.05071354    0.05410616   -0.00605703
     atom  121 type  1   force =    -0.42450568    0.94527028   -0.55499157
     atom  122 type  1   force =    -0.42446821    0.94513078   -0.55503588
     atom  123 type  1   force =    -0.42450832    0.94527657   -0.55499872
     atom  124 type  1   force =    -0.42450946    0.94528607   -0.55500650
     atom  125 type  1   force =    -0.42451367    0.94530167   -0.55502038
     atom  126 type  1   force =    -0.42450379    0.94526826   -0.55499344
     atom  127 type  1   force =    -0.42450078    0.94526454   -0.55499185
     atom  128 type  1   force =    -0.42451976    0.94525688   -0.55499198
     atom  129 type  1   force =     1.90169570    0.92018126   -0.83650854
     atom  130 type  1   force =     1.90166136    0.92004642   -0.83659025
     atom  131 type  1   force =     1.90169824    0.92018460   -0.83651265
     atom  132 type  1   force =     1.90170238    0.92018898   -0.83651537
     atom  133 type  1   force =     1.90171736    0.92020457   -0.83653371
     atom  134 type  1   force =     1.90169820    0.92018113   -0.83651069
     atom  135 type  1   force =     1.90170293    0.92018327   -0.83651302
     atom  136 type  1   force =     1.90168150    0.92017784   -0.83650569
     atom  137 type  2   force =    -0.20917379    0.04486715    0.00802131
     atom  138 type  2   force =    -0.20918214    0.04485790    0.00802065
     atom  139 type  2   force =    -0.20917522    0.04486613    0.00802037
     atom  140 type  2   force =    -0.20917350    0.04486791    0.00801980
     atom  141 type  2   force =    -0.20917890    0.04487390    0.00802090
     atom  142 type  2   force =    -0.20917033    0.04486478    0.00802212
     atom  143 type  2   force =    -0.20917164    0.04486328    0.00802151
     atom  144 type  2   force =    -0.20919788    0.04487344    0.00802137
     atom  145 type  2   force =    -0.18058133    0.00954237    0.01138395
     atom  146 type  2   force =    -0.18058662    0.00953646    0.01138651
     atom  147 type  2   force =    -0.18058190    0.00954443    0.01138278
     atom  148 type  2   force =    -0.18058068    0.00954642    0.01138166
     atom  149 type  2   force =    -0.18058717    0.00955329    0.01137567
     atom  150 type  2   force =    -0.18057752    0.00954132    0.01138448
     atom  151 type  2   force =    -0.18057810    0.00954237    0.01138397
     atom  152 type  2   force =    -0.18060865    0.00954502    0.01138473
     atom  153 type  2   force =    -0.03834973   -0.04941610   -0.02158796
     atom  154 type  2   force =    -0.03833694   -0.04943524   -0.02158769
     atom  155 type  2   force =    -0.03833743   -0.04944043   -0.02159022
     atom  156 type  2   force =    -0.03837008   -0.04941102   -0.02158334
     atom  157 type  2   force =    -0.03834018   -0.04943321   -0.02158920
     atom  158 type  2   force =    -0.03834493   -0.04944323   -0.02158839
     atom  159 type  2   force =    -0.03834453   -0.04943078   -0.02158953
     atom  160 type  2   force =    -0.03834076   -0.04943015   -0.02158927
     atom  161 type  3   force =     0.02448874   -0.07095318   -0.00853848
     atom  162 type  3   force =     0.02448915   -0.07095370   -0.00853836
     atom  163 type  3   force =     0.02448915   -0.07095382   -0.00853862
     atom  164 type  3   force =     0.02448870   -0.07095314   -0.00853841
     atom  165 type  3   force =     0.02448909   -0.07095367   -0.00853848
     atom  166 type  3   force =     0.02448905   -0.07095385   -0.00853848
     atom  167 type  3   force =     0.02448906   -0.07095354   -0.00853852
     atom  168 type  3   force =     0.02448909   -0.07095358   -0.00853848
     atom  169 type  2   force =    -0.19564538   -0.10406943   -0.02183036
     atom  170 type  2   force =    -0.19583076   -0.10400432   -0.02184034
     atom  171 type  2   force =    -0.19565372   -0.10406304   -0.02183247
     atom  172 type  2   force =    -0.19564231   -0.10406843   -0.02183219
     atom  173 type  2   force =    -0.19564070   -0.10407301   -0.02183231
     atom  174 type  2   force =    -0.19564666   -0.10406678   -0.02183171
     atom  175 type  2   force =    -0.19564543   -0.10406754   -0.02183211
     atom  176 type  2   force =    -0.19565970   -0.10407148   -0.02183282
     atom  177 type  3   force =    -0.07447320    0.02094778   -0.00102121
     atom  178 type  3   force =    -0.07447751    0.02095350   -0.00102189
     atom  179 type  3   force =    -0.07447338    0.02094786   -0.00102133
     atom  180 type  3   force =    -0.07447312    0.02094778   -0.00102144
     atom  181 type  3   force =    -0.07447305    0.02094775   -0.00102137
     atom  182 type  3   force =    -0.07447321    0.02094778   -0.00102130
     atom  183 type  3   force =    -0.07447320    0.02094777   -0.00102133
     atom  184 type  3   force =    -0.07447351    0.02094775   -0.00102131
     atom  185 type  1   force =    -0.46059730   -0.90170907    0.60854262
     atom  186 type  1   force =    -0.46060197   -0.90173559    0.60862754
     atom  187 type  1   force =    -0.46059659   -0.90170332    0.60853761
     atom  188 type  1   force =    -0.46059413   -0.90169755    0.60853172
     atom  189 type  1   force =    -0.46057454   -0.90163721    0.60851363
     atom  190 type  1   force =    -0.46059946   -0.90171744    0.60855197
     atom  191 type  1   force =    -0.46059561   -0.90171060    0.60853892
     atom  192 type  1   force =    -0.46060753   -0.90168983    0.60853305
     atom  193 type  1   force =     1.81427621   -1.18902466    0.50399049
     atom  194 type  1   force =     1.81432660   -1.18905316    0.50404483
     atom  195 type  1   force =     1.81427051   -1.18901858    0.50398738
     atom  196 type  1   force =     1.81426953   -1.18901602    0.50398476
     atom  197 type  1   force =     1.81425874   -1.18899659    0.50397693
     atom  198 type  1   force =     1.81427323   -1.18902374    0.50399058
     atom  199 type  1   force =     1.81427629   -1.18902438    0.50398894
     atom  200 type  1   force =     1.81425713   -1.18901392    0.50398430
     atom  201 type  2   force =     0.12228730   -0.00071944    0.01060943
     atom  202 type  2   force =     0.12226811   -0.00074324    0.01060824
     atom  203 type  2   force =     0.12228676   -0.00072070    0.01060843
     atom  204 type  2   force =     0.12228719   -0.00071947    0.01060780
     atom  205 type  2   force =     0.12228506   -0.00071363    0.01060919
     atom  206 type  2   force =     0.12228807   -0.00072321    0.01060906
     atom  207 type  2   force =     0.12228643   -0.00072350    0.01060981
     atom  208 type  2   force =     0.12223772   -0.00073519    0.01060513
     atom  209 type  3   force =     0.04392400    0.06010595    0.00989238
     atom  210 type  3   force =     0.04392349    0.06010513    0.00989265
     atom  211 type  3   force =     0.04392399    0.06010591    0.00989230
     atom  212 type  3   force =     0.04392400    0.06010593    0.00989222
     atom  213 type  3   force =     0.04392399    0.06010606    0.00989229
     atom  214 type  3   force =     0.04392402    0.06010583    0.00989229
     atom  215 type  3   force =     0.04392398    0.06010583    0.00989236
     atom  216 type  3   force =     0.04392336    0.06010530    0.00989217
     atom  217 type  1   force =    -0.67099859    1.73658030    0.15449898
     atom  218 type  1   force =    -0.67101279    1.73656772    0.15449648
     atom  219 type  1   force =    -0.67099674    1.73657568    0.15449738
     atom  220 type  1   force =    -0.67099887    1.73658045    0.15449654
     atom  221 type  1   force =    -0.67100445    1.73658991    0.15449821
     atom  222 type  1   force =    -0.67099570    1.73657504    0.15449638
     atom  223 type  1   force =    -0.67099876    1.73657585    0.15450092
     atom  224 type  1   force =    -0.67107770    1.73659177    0.15449238
     atom  225 type  2   force =     0.02522176   -0.04109224   -0.00104390
     atom  226 type  2   force =     0.02522760   -0.04108221   -0.00104324
     atom  227 type  2   force =     0.02521066   -0.04109446   -0.00104303
     atom  228 type  2   force =     0.02522225   -0.04109163   -0.00104340
     atom  229 type  2   force =     0.02555710   -0.04173209   -0.00104220
     atom  230 type  2   force =     0.02521774   -0.04109106   -0.00104098
     atom  231 type  2   force =     0.02521782   -0.04109251   -0.00104436
     atom  232 type  2   force =     0.02521539   -0.04109368   -0.00104307
     atom  233 type  3   force =    -0.05071361   -0.05410632   -0.00605699
     atom  234 type  3   force =    -0.05071341   -0.05410553   -0.00605695
     atom  235 type  3   force =    -0.05071376   -0.05410622   -0.00605704
     atom  236 type  3   force =    -0.05071354   -0.05410621   -0.00605706
     atom  237 type  3   force =    -0.05071401   -0.05410690   -0.00605709
     atom  238 type  3   force =    -0.05071362   -0.05410620   -0.00605700
     atom  239 type  3   force =    -0.05071363   -0.05410626   -0.00605707
     atom  240 type  3   force =    -0.05071383   -0.05410641   -0.00605704
     atom  241 type  1   force =    -0.94529766   -0.42450646    0.55501362
     atom  242 type  1   force =    -0.94514708   -0.42451386    0.55497320
     atom  243 type  1   force =    -0.94527610   -0.42450457    0.55499853
     atom  244 type  1   force =    -0.94527426   -0.42449855    0.55499217
     atom  245 type  1   force =    -0.94526488   -0.42450042    0.55499101
     atom  246 type  1   force =    -0.94527924   -0.42450635    0.55500015
     atom  247 type  1   force =    -0.94526210   -0.42450407    0.55499549
     atom  248 type  1   force =    -0.94528738   -0.42450999    0.55500452
     atom  249 type  1   force =    -0.92019994    1.90171586    0.83652335
     atom  250 type  1   force =    -0.92004331    1.90150936    0.83639380
     atom  251 type  1   force =    -0.92018546    1.90170268    0.83651373
     atom  252 type  1   force =    -0.92018836    1.90170836    0.83651439
     atom  253 type  1   force =    -0.92018411    1.90170495    0.83651360
     atom  254 type  1   force =    -0.92018584    1.90170005    0.83651231
     atom  255 type  1   force =    -0.92018311    1.90170032    0.83651272
     atom  256 type  1   force =    -0.92018785    1.90169979    0.83651407
     atom  257 type  2   force =    -0.04487300   -0.20917446   -0.00801585
     atom  258 type  2   force =    -0.04485345   -0.20915477   -0.00801207
     atom  259 type  2   force =    -0.04486754   -0.20917115   -0.00802139
     atom  260 type  2   force =    -0.04486667   -0.20916617   -0.00802122
     atom  261 type  2   force =    -0.04486161   -0.20917301   -0.00802221
     atom  262 type  2   force =    -0.04486682   -0.20917213   -0.00801991
     atom  263 type  2   force =    -0.04486962   -0.20918071   -0.00801774
     atom  264 type  2   force =    -0.04487002   -0.20917293   -0.00802010
     atom  265 type  2   force =    -0.00955209   -0.18057998   -0.01137763
     atom  266 type  2   force =    -0.00952945   -0.18057370   -0.01138096
     atom  267 type  2   force =    -0.00954387   -0.18057827   -0.01138294
     atom  268 type  2   force =    -0.00954286   -0.18057194   -0.01138206
     atom  269 type  2   force =    -0.00954255   -0.18057850   -0.01138415
     atom  270 type  2   force =    -0.00954533   -0.18057889   -0.01138279
     atom  271 type  2   force =    -0.00954221   -0.18058294   -0.01138300
     atom  272 type  2   force =    -0.00954580   -0.18058006   -0.01138117
     atom  273 type  2   force =     0.04941981   -0.03835042    0.02159586
     atom  274 type  2   force =     0.04944617   -0.03832683    0.02159893
     atom  275 type  2   force =     0.04943033   -0.03833898    0.02158807
     atom  276 type  2   force =     0.04943152   -0.03833668    0.02158948
     atom  277 type  2   force =     0.04943717   -0.03834251    0.02158896
     atom  278 type  2   force =     0.04943558   -0.03833702    0.02159051
     atom  279 type  2   force =     0.04943395   -0.03834759    0.02158796
     atom  280 type  2   force =     0.04942654   -0.03834126    0.02158920
     atom  281 type  3   force =     0.07095332    0.02448879    0.00853907
     atom  282 type  3   force =     0.07095385    0.02448953    0.00853899
     atom  283 type  3   force =     0.07095358    0.02448912    0.00853841
     atom  284 type  3   force =     0.07095361    0.02448915    0.00853846
     atom  285 type  3   force =     0.07095371    0.02448907    0.00853850
     atom  286 type  3   force =     0.07095371    0.02448916    0.00853852
     atom  287 type  3   force =     0.07095356    0.02448900    0.00853841
     atom  288 type  3   force =     0.07095349    0.02448905    0.00853845
     atom  289 type  2   force =     0.10406524   -0.19565378    0.02183417
     atom  290 type  2   force =     0.10407387   -0.19563896    0.02183027
     atom  291 type  2   force =     0.10406567   -0.19564668    0.02183140
     atom  292 type  2   force =     0.10406829   -0.19564142    0.02183129
     atom  293 type  2   force =     0.10407762   -0.19563611    0.02183098
     atom  294 type  2   force =     0.10406766   -0.19564204    0.02183241
     atom  295 type  2   force =     0.10405044   -0.19566098    0.02183932
     atom  296 type  2   force =     0.10406526   -0.19564564    0.02183220
     atom  297 type  3   force =    -0.02094783   -0.07447337    0.00102138
     atom  298 type  3   force =    -0.02094769   -0.07447305    0.00102132
     atom  299 type  3   force =    -0.02094782   -0.07447320    0.00102129
     atom  300 type  3   force =    -0.02094770   -0.07447310    0.00102130
     atom  301 type  3   force =    -0.02094738   -0.07447297    0.00102090
     atom  302 type  3   force =    -0.02094781   -0.07447309    0.00102137
     atom  303 type  3   force =    -0.02094817   -0.07447340    0.00102091
     atom  304 type  3   force =    -0.02094782   -0.07447319    0.00102134
     atom  305 type  1   force =     0.90164935   -0.46056836   -0.60849334
     atom  306 type  1   force =     0.90174258   -0.46062175   -0.60847713
     atom  307 type  1   force =     0.90170442   -0.46059399   -0.60853989
     atom  308 type  1   force =     0.90170237   -0.46058796   -0.60854080
     atom  309 type  1   force =     0.90170884   -0.46059369   -0.60854070
     atom  310 type  1   force =     0.90170381   -0.46059466   -0.60853157
     atom  311 type  1   force =     0.90170648   -0.46059627   -0.60853875
     atom  312 type  1   force =     0.90169540   -0.46059290   -0.60853529
     atom  313 type  1   force =     1.18901521    1.81428883   -0.50398457
     atom  314 type  1   force =     1.18907241    1.81427031   -0.50394976
     atom  315 type  1   force =     1.18902056    1.81427402   -0.50398810
     atom  316 type  1   force =     1.18902273    1.81428026   -0.50399097
     atom  317 type  1   force =     1.18902550    1.81427909   -0.50399037
     atom  318 type  1   force =     1.18902334    1.81427577   -0.50398651
     atom  319 type  1   force =     1.18902360    1.81427606   -0.50399071
     atom  320 type  1   force =     1.18901545    1.81427049   -0.50398681
     atom  321 type  2   force =     0.00071314    0.12228686   -0.01060796
     atom  322 type  2   force =     0.00073983    0.12228518   -0.01060923
     atom  323 type  2   force =     0.00072033    0.12228734   -0.01060915
     atom  324 type  2   force =     0.00071960    0.12229145   -0.01060965
     atom  325 type  2   force =     0.00072378    0.12228836   -0.01060961
     atom  326 type  2   force =     0.00072042    0.12228837   -0.01060839
     atom  327 type  2   force =     0.00074704    0.12224933   -0.01057811
     atom  328 type  2   force =     0.00071632    0.12228891   -0.01060827
     atom  329 type  3   force =    -0.06010610    0.04392405   -0.00989224
     atom  330 type  3   force =    -0.06010544    0.04392388   -0.00989246
     atom  331 type  3   force =    -0.06010591    0.04392400   -0.00989229
     atom  332 type  3   force =    -0.06010593    0.04392416   -0.00989231
     atom  333 type  3   force =    -0.06010581    0.04392400   -0.00989237
     atom  334 type  3   force =    -0.06010593    0.04392403   -0.00989228
     atom  335 type  3   force =    -0.06010524    0.04392372   -0.00989120
     atom  336 type  3   force =    -0.06010605    0.04392405   -0.00989221
     atom  337 type  1   force =    -1.73659110   -0.67100462   -0.15449571
     atom  338 type  1   force =    -1.73655621   -0.67099260   -0.15449932
     atom  339 type  1   force =    -1.73658186   -0.67099928   -0.15449846
     atom  340 type  1   force =    -1.73657266   -0.67099218   -0.15449777
     atom  341 type  1   force =    -1.73656294   -0.67099118   -0.15450161
     atom  342 type  1   force =    -1.73658011   -0.67099637   -0.15449702
     atom  343 type  1   force =    -1.73674251   -0.67107358   -0.15452093
     atom  344 type  1   force =    -1.73658420   -0.67099832   -0.15449590
     atom  345 type  2   force =     0.04111129    0.02523545    0.00099823
     atom  346 type  2   force =     0.04108873    0.02522447    0.00104576
     atom  347 type  2   force =     0.04108522    0.02522451    0.00103819
     atom  348 type  2   force =     0.04109032    0.02522106    0.00104361
     atom  349 type  2   force =     0.04108985    0.02521628    0.00104064
     atom  350 type  2   force =     0.04109245    0.02522662    0.00104404
     atom  351 type  2   force =     0.04108794    0.02521802    0.00104287
     atom  352 type  2   force =     0.04109303    0.02521874    0.00104251
     atom  353 type  3   force =     0.05410665   -0.05071394    0.00605715
     atom  354 type  3   force =     0.05410624   -0.05071348    0.00605711
     atom  355 type  3   force =     0.05410610   -0.05071354    0.00605698
     atom  356 type  3   force =     0.05410620   -0.05071356    0.00605701
     atom  357 type  3   force =     0.05410643   -0.05071406    0.00605746
     atom  358 type  3   force =     0.05410619   -0.05071352    0.00605706
     atom  359 type  3   force =     0.05410612   -0.05071377    0.00605696
     atom  360 type  3   force =     0.05410616   -0.05071360    0.00605703
     atom  361 type  1   force =     0.94526737    0.42450444    0.55499791
     atom  362 type  1   force =     0.94524163    0.42448592    0.55496061
     atom  363 type  1   force =     0.94527266    0.42450550    0.55499772
     atom  364 type  1   force =     0.94526617    0.42451871    0.55499413
     atom  365 type  1   force =     0.94526888    0.42450633    0.55499208
     atom  366 type  1   force =     0.94527077    0.42450418    0.55499664
     atom  367 type  1   force =     0.94532259    0.42452268    0.55500698
     atom  368 type  1   force =     0.94526090    0.42449693    0.55499580
     atom  369 type  1   force =     0.92018542   -1.90170131    0.83651339
     atom  370 type  1   force =     0.92018355   -1.90168817    0.83650966
     atom  371 type  1   force =     0.92018284   -1.90169972    0.83651228
     atom  372 type  1   force =     0.92017986   -1.90171326    0.83651312
     atom  373 type  1   force =     0.92022049   -1.90173105    0.83652563
     atom  374 type  1   force =     0.92018318   -1.90170616    0.83651594
     atom  375 type  1   force =     0.92017976   -1.90169356    0.83650822
     atom  376 type  1   force =     0.92018329   -1.90169971    0.83651254
     atom  377 type  2   force =     0.04486536    0.20917398   -0.00801975
     atom  378 type  2   force =     0.04487470    0.20919520   -0.00801916
     atom  379 type  2   force =     0.04486442    0.20917278   -0.00801989
     atom  380 type  2   force =     0.04486334    0.20917044   -0.00802800
     atom  381 type  2   force =     0.04487197    0.20918517   -0.00802048
     atom  382 type  2   force =     0.04486269    0.20916308   -0.00801932
     atom  383 type  2   force =     0.04486682    0.20917346   -0.00802118
     atom  384 type  2   force =     0.04486344    0.20917071   -0.00802076
     atom  385 type  2   force =     0.00954428    0.18058052   -0.01138293
     atom  386 type  2   force =     0.00954760    0.18060476   -0.01138325
     atom  387 type  2   force =     0.00954300    0.18057926   -0.01138376
     atom  388 type  2   force =     0.00953755    0.18057577   -0.01138598
     atom  389 type  2   force =     0.00955902    0.18059730   -0.01137641
     atom  390 type  2   force =     0.00954175    0.18056938   -0.01138335
     atom  391 type  2   force =     0.00954190    0.18058084   -0.01138413
     atom  392 type  2   force =     0.00954260    0.18057649   -0.01138398
     atom  393 type  2   force =    -0.04943203    0.03834240    0.02158975
     atom  394 type  2   force =    -0.04940859    0.03835596    0.02158696
     atom  395 type  2   force =    -0.04943467    0.03834033    0.02158964
     atom  396 type  2   force =    -0.04944189    0.03833877    0.02158544
     atom  397 type  2   force =    -0.04942969    0.03834666    0.02158973
     atom  398 type  2   force =    -0.04943604    0.03833294    0.02158750
     atom  399 type  2   force =    -0.04943426    0.03833935    0.02158920
     atom  400 type  2   force =    -0.04943865    0.03833708    0.02158891
     atom  401 type  3   force =    -0.07095361   -0.02448906    0.00853848
     atom  402 type  3   force =    -0.07095301   -0.02448874    0.00853849
     atom  403 type  3   force =    -0.07095370   -0.02448909    0.00853848
     atom  404 type  3   force =    -0.07095386   -0.02448914    0.00853839
     atom  405 type  3   force =    -0.07095358   -0.02448891    0.00853859
     atom  406 type  3   force =    -0.07095384   -0.02448952    0.00853827
     atom  407 type  3   force =    -0.07095368   -0.02448911    0.00853848
     atom  408 type  3   force =    -0.07095378   -0.02448915    0.00853842
     atom  409 type  2   force =    -0.10406114    0.19568596    0.02182083
     atom  410 type  2   force =    -0.10406881    0.19565028    0.02183329
     atom  411 type  2   force =    -0.10406797    0.19565343    0.02182946
     atom  412 type  2   force =    -0.10406911    0.19564850    0.02183215
     atom  413 type  2   force =    -0.10406973    0.19564352    0.02183116
     atom  414 type  2   force =    -0.10406429    0.19565409    0.02183273
     atom  415 type  2   force =    -0.10407136    0.19564176    0.02183155
     atom  416 type  2   force =    -0.10406697    0.19564507    0.02183136
     atom  417 type  3   force =     0.02094827    0.07447355    0.00101854
     atom  418 type  3   force =     0.02094770    0.07447333    0.00102145
     atom  419 type  3   force =     0.02094780    0.07447339    0.00102115
     atom  420 type  3   force =     0.02094776    0.07447326    0.00102132
     atom  421 type  3   force =     0.02094773    0.07447313    0.00102133
     atom  422 type  3   force =     0.02094783    0.07447342    0.00102132
     atom  423 type  3   force =     0.02094766    0.07447313    0.00102135
     atom  424 type  3   force =     0.02094788    0.07447315    0.00102126
     atom  425 type  1   force =    -0.90170205    0.46059408   -0.60853702
     atom  426 type  1   force =    -0.90167321    0.46059919   -0.60852222
     atom  427 type  1   force =    -0.90170875    0.46059555   -0.60854124
     atom  428 type  1   force =    -0.90172484    0.46059536   -0.60855141
     atom  429 type  1   force =    -0.90166864    0.46057958   -0.60848652
     atom  430 type  1   force =    -0.90171653    0.46059457   -0.60852670
     atom  431 type  1   force =    -0.90171229    0.46059895   -0.60854520
     atom  432 type  1   force =    -0.90171569    0.46059751   -0.60854629
     atom  433 type  1   force =    -1.18902139   -1.81427540   -0.50398872
     atom  434 type  1   force =    -1.18901180   -1.81426207   -0.50398361
     atom  435 type  1   force =    -1.18902449   -1.81427708   -0.50399020
     atom  436 type  1   force =    -1.18903523   -1.81428563   -0.50399353
     atom  437 type  1   force =    -1.18899580   -1.81424079   -0.50394859
     atom  438 type  1   force =    -1.18902508   -1.81427741   -0.50398663
     atom  439 type  1   force =    -1.18902444   -1.81427496   -0.50399053
     atom  440 type  1   force =    -1.18902299   -1.81427386   -0.50398947
     atom  441 type  2   force =    -0.00072302   -0.12228472   -0.01060820
     atom  442 type  2   force =    -0.00072409   -0.12226428   -0.01060886
     atom  443 type  2   force =    -0.00072689   -0.12228316   -0.01060749
     atom  444 type  2   force =    -0.00071476   -0.12228926   -0.01061531
     atom  445 type  2   force =    -0.00071296   -0.12228479   -0.01060933
     atom  446 type  2   force =    -0.00072571   -0.12228902   -0.01060868
     atom  447 type  2   force =    -0.00072087   -0.12228620   -0.01060907
     atom  448 type  2   force =    -0.00072509   -0.12228766   -0.01060803
     atom  449 type  3   force =     0.06010572   -0.04392393   -0.00989226
     atom  450 type  3   force =     0.06010613   -0.04392416   -0.00989276
     atom  451 type  3   force =     0.06010584   -0.04392396   -0.00989226
     atom  452 type  3   force =     0.06010572   -0.04392360   -0.00989253
     atom  453 type  3   force =     0.06010591   -0.04392397   -0.00989232
     atom  454 type  3   force =     0.06010577   -0.04392403   -0.00989221
     atom  455 type  3   force =     0.06010606   -0.04392404   -0.00989243
     atom  456 type  3   force =     0.06010576   -0.04392404   -0.00989227
     atom  457 type  1   force =     1.73657296    0.67100029   -0.15449593
     atom  458 type  1   force =     1.73657466    0.67100135   -0.15451256
     atom  459 type  1   force =     1.73657360    0.67100034   -0.15449627
     atom  460 type  1   force =     1.73657765    0.67102284   -0.15453516
     atom  461 type  1   force =     1.73658401    0.67100053   -0.15449852
     atom  462 type  1   force =     1.73656606    0.67099325   -0.15449585
     atom  463 type  1   force =     1.73659045    0.67100511   -0.15449829
     atom  464 type  1   force =     1.73657226    0.67099524   -0.15449765
     atom  465 type  2   force =    -0.04108436   -0.02523487    0.00104841
     atom  466 type  2   force =    -0.04108866   -0.02520953    0.00104430
     atom  467 type  2   force =    -0.04109675   -0.02521685    0.00104174
     atom  468 type  2   force =    -0.04109332   -0.02521622    0.00104270
     atom  469 type  2   force =    -0.04107590   -0.02522990    0.00105052
     atom  470 type  2   force =    -0.04109367   -0.02521622    0.00104419
     atom  471 type  2   force =    -0.04110559   -0.02522879    0.00104262
     atom  472 type  2   force =    -0.04109542   -0.02521952    0.00104369
     atom  473 type  3   force =    -0.05410561    0.05071346    0.00605651
     atom  474 type  3   force =    -0.05410630    0.05071375    0.00605712
     atom  475 type  3   force =    -0.05410645    0.05071377    0.00605696
     atom  476 type  3   force =    -0.05410630    0.05071368    0.00605705
     atom  477 type  3   force =    -0.05410632    0.05071361    0.00605708
     atom  478 type  3   force =    -0.05410628    0.05071377    0.00605708
     atom  479 type  3   force =    -0.05410634    0.05071360    0.00605702
     atom  480 type  3   force =    -0.05410624    0.05071356    0.00605700
     atom  481 type  4   force =    -0.00003267    0.00000594    0.00003381
     atom  482 type  4   force =     0.00014940   -0.00019652   -0.00033700
     atom  483 type  4   force =    -0.00000390    0.00000901    0.00000197
     atom  484 type  4   force =    -0.00001155    0.00001779   -0.00003224
     atom  485 type  4   force =     0.00000049    0.00004041   -0.00002958
     atom  486 type  4   force =    -0.00000724   -0.00000844    0.00000968
     atom  487 type  4   force =     0.00005283    0.00000047    0.00003393
     atom  488 type  4   force =    -0.00003492   -0.00004592    0.00000676
     atom  489 type  4   force =    -0.00001272    0.00031120    0.00018731
     atom  490 type  4   force =    -0.00002977    0.00000911    0.00006989
     atom  491 type  4   force =    -0.00001102   -0.00001484   -0.00001684
     atom  492 type  4   force =    -0.00001777    0.00003148   -0.00001691
     atom  493 type  4   force =     0.00000661   -0.00000766    0.00000468
     atom  494 type  4   force =     0.00002671   -0.00007799    0.00007371
     atom  495 type  4   force =    -0.00000412    0.00000134   -0.00000520
     atom  496 type  4   force =    -0.00003205    0.00001088   -0.00001969
     The ionic contribution  to forces
     atom    1 type  1   force =    -0.12021401   -1.15083570   -2.54628846
     atom    2 type  1   force =    -0.11789461   -1.14931026   -2.54141552
     atom    3 type  1   force =    -0.12031053   -1.15069775   -2.54602951
     atom    4 type  1   force =    -0.12046704   -1.15049371   -2.54586755
     atom    5 type  1   force =    -0.12042367   -1.15080051   -2.54592586
     atom    6 type  1   force =    -0.12029010   -1.15046649   -2.54603928
     atom    7 type  1   force =    -0.12054373   -1.15081977   -2.54614801
     atom    8 type  1   force =    -0.11998449   -1.15047396   -2.54587095
     atom    9 type  1   force =    14.27488458    1.63994330    2.01399791
     atom   10 type  1   force =    14.27351308    1.63954844    2.01222888
     atom   11 type  1   force =    14.27333539    1.63996369    2.01258924
     atom   12 type  1   force =    14.27352010    1.63962569    2.01253637
     atom   13 type  1   force =    14.27350457    1.63986653    2.01254257
     atom   14 type  1   force =    14.27340126    1.63961820    2.01259929
     atom   15 type  1   force =    14.27397297    1.64007583    2.01277158
     atom   16 type  1   force =    14.27336268    1.63951468    2.01236868
     atom   17 type  2   force =    -2.68129159   -1.16096210   -0.84790375
     atom   18 type  2   force =    -2.68716385   -1.12183847   -0.87847226
     atom   19 type  2   force =    -2.68741936   -1.12160230   -0.87811023
     atom   20 type  2   force =    -2.68732322   -1.12169034   -0.87824321
     atom   21 type  2   force =    -2.68727036   -1.12150599   -0.87828682
     atom   22 type  2   force =    -2.68742456   -1.12185354   -0.87813096
     atom   23 type  2   force =    -2.68718773   -1.12160533   -0.87814387
     atom   24 type  2   force =    -2.68751299   -1.12173011   -0.87827112
     atom   25 type  2   force =    -5.24888488   -0.26433478   -0.96025335
     atom   26 type  2   force =    -5.25554558   -0.26050447   -0.96618342
     atom   27 type  2   force =    -5.25579107   -0.26023033   -0.96580691
     atom   28 type  2   force =    -5.25565750   -0.26037713   -0.96590634
     atom   29 type  2   force =    -5.25563018   -0.26019919   -0.96593068
     atom   30 type  2   force =    -5.25577955   -0.26048188   -0.96580973
     atom   31 type  2   force =    -5.25551708   -0.26022825   -0.96579101
     atom   32 type  2   force =    -5.25582655   -0.26041911   -0.96594966
     atom   33 type  2   force =    -3.27847130   -5.22854320    2.50191981
     atom   34 type  2   force =    -3.27866006   -5.22897947    2.50216158
     atom   35 type  2   force =    -3.27842709   -5.22867641    2.50211137
     atom   36 type  2   force =    -3.27875351   -5.22875262    2.50198841
     atom   37 type  2   force =    -3.28315059   -5.23250038    2.50753774
     atom   38 type  2   force =    -3.27840047   -5.22884412    2.50182133
     atom   39 type  2   force =    -3.27865232   -5.22865742    2.50214427
     atom   40 type  2   force =    -3.27855262   -5.22872697    2.50202824
     atom   41 type  3   force =    -0.74068980   -2.14437473    1.26065493
     atom   42 type  3   force =    -0.74076251   -2.14450167    1.26073726
     atom   43 type  3   force =    -0.74069642   -2.14440012    1.26070825
     atom   44 type  3   force =    -0.74076513   -2.14441288    1.26068749
     atom   45 type  3   force =    -0.74102404   -2.14488965    1.26118980
     atom   46 type  3   force =    -0.74068325   -2.14442778    1.26063789
     atom   47 type  3   force =    -0.74075335   -2.14439204    1.26071424
     atom   48 type  3   force =    -0.74071511   -2.14441204    1.26069330
     atom   49 type  2   force =    -6.17626754   -1.54827611    0.63322325
     atom   50 type  2   force =    -6.17633896   -1.54864399    0.63336465
     atom   51 type  2   force =    -6.17606796   -1.54841004    0.63341662
     atom   52 type  2   force =    -6.17647808   -1.54856137    0.63317831
     atom   53 type  2   force =    -6.17249441   -1.54163436    0.63833531
     atom   54 type  2   force =    -6.17617298   -1.54865852    0.63307962
     atom   55 type  2   force =    -6.17635485   -1.54841122    0.63339489
     atom   56 type  2   force =    -6.17630229   -1.54849407    0.63328206
     atom   57 type  3   force =    -1.97452480    0.04606096    0.18329306
     atom   58 type  3   force =    -1.97453106    0.04597831    0.18331825
     atom   59 type  3   force =    -1.97444356    0.04603876    0.18335240
     atom   60 type  3   force =    -1.97456041    0.04598389    0.18326571
     atom   61 type  3   force =    -1.97393812    0.04650366    0.18373466
     atom   62 type  3   force =    -1.97450584    0.04596474    0.18324963
     atom   63 type  3   force =    -1.97453764    0.04603383    0.18332403
     atom   64 type  3   force =    -1.97452672    0.04600442    0.18330461
     atom   65 type  1   force =    -0.87059450    0.57147173    1.98765154
     atom   66 type  1   force =    -0.87341677    0.57375341    1.98589170
     atom   67 type  1   force =    -0.87372773    0.57410847    1.98642389
     atom   68 type  1   force =    -0.87351024    0.57387173    1.98643601
     atom   69 type  1   force =    -0.87351682    0.57406014    1.98639330
     atom   70 type  1   force =    -0.87372065    0.57382670    1.98654974
     atom   71 type  1   force =    -0.87343848    0.57411921    1.98657753
     atom   72 type  1   force =    -0.87368278    0.57386966    1.98637591
     atom   73 type  1   force =    14.19391422   -5.31530077    0.05399994
     atom   74 type  1   force =    14.19228336   -5.31490636    0.05263330
     atom   75 type  1   force =    14.19211729   -5.31448240    0.05305169
     atom   76 type  1   force =    14.19233814   -5.31484697    0.05313928
     atom   77 type  1   force =    14.19229719   -5.31461871    0.05312351
     atom   78 type  1   force =    14.19216352   -5.31479634    0.05319393
     atom   79 type  1   force =    14.19247720   -5.31438792    0.05338234
     atom   80 type  1   force =    14.19220776   -5.31485189    0.05301733
     atom   81 type  2   force =    -0.28118578    2.81603650   -3.60255365
     atom   82 type  2   force =    -0.21517991    2.77162407   -3.53188793
     atom   83 type  2   force =    -0.21542195    2.77186612   -3.53153183
     atom   84 type  2   force =    -0.21534826    2.77179243   -3.53167675
     atom   85 type  2   force =    -0.21529895    2.77198516   -3.53170988
     atom   86 type  2   force =    -0.21542564    2.77163748   -3.53157129
     atom   87 type  2   force =    -0.21519332    2.77186981   -3.53157129
     atom   88 type  2   force =    -0.21554099    2.77174311   -3.53170988
     atom   89 type  3   force =     0.26888164    1.65177994   -1.78773214
     atom   90 type  3   force =     0.25937239    1.66051072   -1.77519766
     atom   91 type  3   force =     0.26884092    1.65182056   -1.78768118
     atom   92 type  3   force =     0.26882339    1.65183814   -1.78764645
     atom   93 type  3   force =     0.26882312    1.65177791   -1.78765478
     atom   94 type  3   force =     0.26885444    1.65187031   -1.78769358
     atom   95 type  3   force =     0.26879247    1.65180839   -1.78769230
     atom   96 type  3   force =     0.26888145    1.65183800   -1.78765481
     atom   97 type  1   force =    -5.25671310    6.86247996   -1.77986997
     atom   98 type  1   force =    -5.19227068    6.86982978   -1.74565827
     atom   99 type  1   force =    -5.25690234    6.86268827   -1.77958626
     atom  100 type  1   force =    -5.25700111    6.86280075   -1.77942221
     atom  101 type  1   force =    -5.25699756    6.86251665   -1.77946486
     atom  102 type  1   force =    -5.25685323    6.86293035   -1.77962342
     atom  103 type  1   force =    -5.25713054    6.86262133   -1.77964633
     atom  104 type  1   force =    -5.25669093    6.86280893   -1.77944266
     atom  105 type  2   force =     5.12463203    4.86163495    1.83918726
     atom  106 type  2   force =     5.12509975    4.86091441    1.84000867
     atom  107 type  2   force =     5.12472045    4.86149395    1.83976066
     atom  108 type  2   force =     5.12440395    4.86174050    1.83952039
     atom  109 type  2   force =     5.12438454    4.86161067    1.83987837
     atom  110 type  2   force =     5.12463971    4.86161578    1.83966328
     atom  111 type  2   force =     5.12455224    4.86157584    1.83969824
     atom  112 type  2   force =     5.12458030    4.86171974    1.83980115
     atom  113 type  3   force =    -1.67843253   -1.91354032    0.71614219
     atom  114 type  3   force =    -1.67844322   -1.91367814    0.71622866
     atom  115 type  3   force =    -1.67839267   -1.91360468    0.71622907
     atom  116 type  3   force =    -1.67849985   -1.91360794    0.71615959
     atom  117 type  3   force =    -1.67866686   -1.91338742    0.71649623
     atom  118 type  3   force =    -1.67842200   -1.91362844    0.71616652
     atom  119 type  3   force =    -1.67845899   -1.91359118    0.71622122
     atom  120 type  3   force =    -1.67845210   -1.91359855    0.71620356
     atom  121 type  1   force =     0.12059307    1.15049040   -2.54619699
     atom  122 type  1   force =     0.11793933    1.15039369   -2.54471855
     atom  123 type  1   force =     0.12039869    1.15063006   -2.54600161
     atom  124 type  1   force =     0.12032142    1.15062837   -2.54589778
     atom  125 type  1   force =     0.12036499    1.15030515   -2.54580196
     atom  126 type  1   force =     0.12045333    1.15078990   -2.54619137
     atom  127 type  1   force =     0.12000064    1.15055528   -2.54623869
     atom  128 type  1   force =     0.12068996    1.15057387   -2.54593476
     atom  129 type  1   force =   -14.27316545   -1.63985919    2.01227281
     atom  130 type  1   force =   -14.27606606   -1.64244944    2.01360884
     atom  131 type  1   force =   -14.27339928   -1.63974571    2.01254131
     atom  132 type  1   force =   -14.27352596   -1.63973317    2.01262992
     atom  133 type  1   force =   -14.27354011   -1.64012508    2.01280970
     atom  134 type  1   force =   -14.27332368   -1.63961624    2.01235552
     atom  135 type  1   force =   -14.27374117   -1.63975667    2.01245934
     atom  136 type  1   force =   -14.27324326   -1.63976408    2.01259216
     atom  137 type  2   force =     2.68742404    1.12156534   -0.87828873
     atom  138 type  2   force =     2.68721097    1.12195954   -0.87786609
     atom  139 type  2   force =     2.68732489    1.12166557   -0.87816123
     atom  140 type  2   force =     2.68737483    1.12165938   -0.87818325
     atom  141 type  2   force =     2.68749070    1.12140740   -0.87811399
     atom  142 type  2   force =     2.68732492    1.12184667   -0.87847883
     atom  143 type  2   force =     2.68720010    1.12160948   -0.87862105
     atom  144 type  2   force =     2.68780121    1.12144940   -0.87804328
     atom  145 type  2   force =     5.25583136    0.26023863   -0.96599724
     atom  146 type  2   force =     5.25508189    0.26052857   -0.96528107
     atom  147 type  2   force =     5.25571534    0.26033972   -0.96586147
     atom  148 type  2   force =     5.25568848    0.26032004   -0.96583248
     atom  149 type  2   force =     5.25579868    0.25996662   -0.96571942
     atom  150 type  2   force =     5.25576992    0.26048607   -0.96616144
     atom  151 type  2   force =     5.25546693    0.26031141   -0.96614171
     atom  152 type  2   force =     5.25598093    0.26023092   -0.96580201
     atom  153 type  2   force =     3.27880007    5.22847398    2.50217008
     atom  154 type  2   force =     3.27849122    5.22882667    2.50173940
     atom  155 type  2   force =     3.27849648    5.22876161    2.50155860
     atom  156 type  2   force =     3.27897490    5.22835478    2.50221105
     atom  157 type  2   force =     3.27862830    5.22865314    2.50202594
     atom  158 type  2   force =     3.27851055    5.22881898    2.50220994
     atom  159 type  2   force =     3.27850443    5.22876148    2.50217356
     atom  160 type  2   force =     3.27862988    5.22867523    2.50204105
     atom  161 type  3   force =     0.74081204    2.14433122    1.26075074
     atom  162 type  3   force =     0.74071305    2.14441573    1.26060343
     atom  163 type  3   force =     0.74069372    2.14444986    1.26059383
     atom  164 type  3   force =     0.74078895    2.14434088    1.26071729
     atom  165 type  3   force =     0.74074253    2.14440160    1.26069385
     atom  166 type  3   force =     0.74070145    2.14441341    1.26072645
     atom  167 type  3   force =     0.74071825    2.14444279    1.26073526
     atom  168 type  3   force =     0.74073583    2.14438973    1.26069006
     atom  169 type  2   force =     6.17643537    1.54833548    0.63284938
     atom  170 type  2   force =     6.17769271    1.54717202    0.63403971
     atom  171 type  2   force =     6.17641490    1.54836395    0.63331904
     atom  172 type  2   force =     6.17619074    1.54859594    0.63324733
     atom  173 type  2   force =     6.17620038    1.54836589    0.63341233
     atom  174 type  2   force =     6.17639259    1.54851022    0.63327413
     atom  175 type  2   force =     6.17627418    1.54838390    0.63326837
     atom  176 type  2   force =     6.17642138    1.54859296    0.63342232
     atom  177 type  3   force =     1.97457633   -0.04605171    0.18321002
     atom  178 type  3   force =     1.97505754   -0.04682168    0.18367157
     atom  179 type  3   force =     1.97454834   -0.04603207    0.18330598
     atom  180 type  3   force =     1.97450205   -0.04599257    0.18331148
     atom  181 type  3   force =     1.97449873   -0.04605610    0.18333722
     atom  182 type  3   force =     1.97455258   -0.04599690    0.18329282
     atom  183 type  3   force =     1.97450757   -0.04603245    0.18329958
     atom  184 type  3   force =     1.97456092   -0.04599570    0.18332739
     atom  185 type  1   force =     0.87375738   -0.57402553    1.98628964
     atom  186 type  1   force =     0.87295298   -0.57405048    1.98704603
     atom  187 type  1   force =     0.87363488   -0.57393766    1.98646425
     atom  188 type  1   force =     0.87354715   -0.57397040    1.98648476
     atom  189 type  1   force =     0.87376819   -0.57479482    1.98672518
     atom  190 type  1   force =     0.87379355   -0.57381123    1.98594839
     atom  191 type  1   force =     0.87336583   -0.57392393    1.98626951
     atom  192 type  1   force =     0.87380917   -0.57404392    1.98650030
     atom  193 type  1   force =   -14.19201516    5.31465393    0.05288973
     atom  194 type  1   force =   -14.19325174    5.31372378    0.05401924
     atom  195 type  1   force =   -14.19217329    5.31470603    0.05313200
     atom  196 type  1   force =   -14.19234299    5.31471752    0.05317851
     atom  197 type  1   force =   -14.19235339    5.31396778    0.05349986
     atom  198 type  1   force =   -14.19204084    5.31480870    0.05281384
     atom  199 type  1   force =   -14.19247048    5.31472407    0.05305784
     atom  200 type  1   force =   -14.19207426    5.31467330    0.05316151
     atom  201 type  2   force =     0.21540412   -2.77195851   -3.53175132
     atom  202 type  2   force =     0.21554191   -2.77136045   -3.53125082
     atom  203 type  2   force =     0.21534279   -2.77186457   -3.53160805
     atom  204 type  2   force =     0.21539445   -2.77177669   -3.53161047
     atom  205 type  2   force =     0.21545003   -2.77198546   -3.53160194
     atom  206 type  2   force =     0.21531931   -2.77161954   -3.53176587
     atom  207 type  2   force =     0.21530017   -2.77197043   -3.53201083
     atom  208 type  2   force =     0.21611063   -2.77198670   -3.53130897
     atom  209 type  3   force =    -0.26882240   -1.65187224   -1.78771480
     atom  210 type  3   force =    -0.26868807   -1.65161667   -1.78750369
     atom  211 type  3   force =    -0.26883617   -1.65184047   -1.78767052
     atom  212 type  3   force =    -0.26883476   -1.65181207   -1.78766130
     atom  213 type  3   force =    -0.26882472   -1.65186657   -1.78766435
     atom  214 type  3   force =    -0.26883929   -1.65177797   -1.78769301
     atom  215 type  3   force =    -0.26885770   -1.65186604   -1.78773914
     atom  216 type  3   force =    -0.26869210   -1.65182135   -1.78760088
     atom  217 type  1   force =     5.25689632   -6.86288591   -1.77965897
     atom  218 type  1   force =     5.25719382   -6.86243207   -1.77928477
     atom  219 type  1   force =     5.25686753   -6.86283603   -1.77947970
     atom  220 type  1   force =     5.25698889   -6.86264125   -1.77954723
     atom  221 type  1   force =     5.25702353   -6.86286882   -1.77953413
     atom  222 type  1   force =     5.25682582   -6.86253274   -1.77959410
     atom  223 type  1   force =     5.25699079   -6.86295979   -1.78003253
     atom  224 type  1   force =     5.25888114   -6.86333042   -1.77860632
     atom  225 type  2   force =    -5.12447478   -4.86142169    1.83954912
     atom  226 type  2   force =    -5.12457473   -4.86188562    1.83979209
     atom  227 type  2   force =    -5.12434415   -4.86161419    1.83979027
     atom  228 type  2   force =    -5.12474385   -4.86168763    1.83957952
     atom  229 type  2   force =    -5.12708141   -4.85936699    1.84300289
     atom  230 type  2   force =    -5.12440492   -4.86177965    1.83951296
     atom  231 type  2   force =    -5.12459631   -4.86159041    1.83979322
     atom  232 type  2   force =    -5.12454487   -4.86164170    1.83968615
     atom  233 type  3   force =     1.67848676    1.91362050    0.71608695
     atom  234 type  3   force =     1.67852600    1.91341775    0.71626583
     atom  235 type  3   force =     1.67849663    1.91357388    0.71621851
     atom  236 type  3   force =     1.67840945    1.91361222    0.71616361
     atom  237 type  3   force =     1.67837247    1.91359528    0.71628347
     atom  238 type  3   force =     1.67847981    1.91358831    0.71618331
     atom  239 type  3   force =     1.67844732    1.91359194    0.71620989
     atom  240 type  3   force =     1.67845905    1.91360779    0.71621580
     atom  241 type  1   force =    -1.15025560    0.12009635    2.54571353
     atom  242 type  1   force =    -1.15386869    0.12050171    2.54214657
     atom  243 type  1   force =    -1.15059214    0.12036587    2.54583017
     atom  244 type  1   force =    -1.15062449    0.12031647    2.54615024
     atom  245 type  1   force =    -1.15066947    0.12021828    2.54600627
     atom  246 type  1   force =    -1.15055241    0.12051958    2.54591119
     atom  247 type  1   force =    -1.15097862    0.12025518    2.54592057
     atom  248 type  1   force =    -1.15040603    0.12037940    2.54593159
     atom  249 type  1   force =     1.64003356  -14.27375194   -2.01280608
     atom  250 type  1   force =     1.63748367  -14.27093814   -2.01582175
     atom  251 type  1   force =     1.63976876  -14.27348274   -2.01273483
     atom  252 type  1   force =     1.63977229  -14.27347781   -2.01232647
     atom  253 type  1   force =     1.63970276  -14.27364723   -2.01258787
     atom  254 type  1   force =     1.63985829  -14.27320846   -2.01261868
     atom  255 type  1   force =     1.63951593  -14.27356271   -2.01261860
     atom  256 type  1   force =     1.63992793  -14.27341182   -2.01258133
     atom  257 type  2   force =    -1.12098547    2.68718248    0.87789116
     atom  258 type  2   force =    -1.12207315    2.68644262    0.87706734
     atom  259 type  2   force =    -1.12163204    2.68740969    0.87812353
     atom  260 type  2   force =    -1.12166016    2.68729449    0.87823055
     atom  261 type  2   force =    -1.12171117    2.68734798    0.87828793
     atom  262 type  2   force =    -1.12162634    2.68737919    0.87814255
     atom  263 type  2   force =    -1.12192128    2.68747905    0.87834436
     atom  264 type  2   force =    -1.12156047    2.68731558    0.87812127
     atom  265 type  2   force =    -0.25983370    5.25539569    0.96560723
     atom  266 type  2   force =    -0.26096138    5.25498555    0.96347725
     atom  267 type  2   force =    -0.26031307    5.25573309    0.96575952
     atom  268 type  2   force =    -0.26029942    5.25564421    0.96595200
     atom  269 type  2   force =    -0.26035090    5.25563902    0.96589941
     atom  270 type  2   force =    -0.26029890    5.25579290    0.96584357
     atom  271 type  2   force =    -0.26055644    5.25571929    0.96591428
     atom  272 type  2   force =    -0.26021156    5.25569523    0.96582704
     atom  273 type  2   force =    -5.22764135    3.27849190   -2.50273844
     atom  274 type  2   force =    -5.22866501    3.27771140   -2.50281200
     atom  275 type  2   force =    -5.22867120    3.27862708   -2.50209440
     atom  276 type  2   force =    -5.22871990    3.27854855   -2.50208189
     atom  277 type  2   force =    -5.22878047    3.27866845   -2.50196234
     atom  278 type  2   force =    -5.22867252    3.27855975   -2.50211926
     atom  279 type  2   force =    -5.22877419    3.27870068   -2.50192154
     atom  280 type  2   force =    -5.22866871    3.27855187   -2.50213503
     atom  281 type  3   force =    -2.14409382    0.74062458   -1.26101001
     atom  282 type  3   force =    -2.14430906    0.74051278   -1.26090199
     atom  283 type  3   force =    -2.14439979    0.74073290   -1.26070309
     atom  284 type  3   force =    -2.14440787    0.74072433   -1.26070864
     atom  285 type  3   force =    -2.14441718    0.74074794   -1.26068618
     atom  286 type  3   force =    -2.14440330    0.74072205   -1.26070626
     atom  287 type  3   force =    -2.14440846    0.74074396   -1.26068284
     atom  288 type  3   force =    -2.14440691    0.74072596   -1.26070846
     atom  289 type  2   force =    -1.54794091    6.17653956   -0.63349212
     atom  290 type  2   force =    -1.54863061    6.17589099   -0.63354044
     atom  291 type  2   force =    -1.54838848    6.17639070   -0.63334401
     atom  292 type  2   force =    -1.54851847    6.17624091   -0.63333632
     atom  293 type  2   force =    -1.54866112    6.17653987   -0.63306376
     atom  294 type  2   force =    -1.54838672    6.17624276   -0.63342953
     atom  295 type  2   force =    -1.54860069    6.17656922   -0.63288650
     atom  296 type  2   force =    -1.54839128    6.17623788   -0.63346027
     atom  297 type  3   force =     0.04610463    1.97459253   -0.18333495
     atom  298 type  3   force =     0.04598703    1.97445511   -0.18334136
     atom  299 type  3   force =     0.04604103    1.97454824   -0.18331600
     atom  300 type  3   force =     0.04599479    1.97450631   -0.18331708
     atom  301 type  3   force =     0.04593012    1.97464034   -0.18323891
     atom  302 type  3   force =     0.04604116    1.97450167   -0.18334229
     atom  303 type  3   force =     0.04600286    1.97457536   -0.18318651
     atom  304 type  3   force =     0.04603154    1.97450983   -0.18335099
     atom  305 type  1   force =     0.57457110    0.87295245   -1.98675953
     atom  306 type  1   force =     0.57415695    0.87358172   -1.98897347
     atom  307 type  1   force =     0.57393620    0.87362160   -1.98660498
     atom  308 type  1   force =     0.57404980    0.87352319   -1.98634740
     atom  309 type  1   force =     0.57397043    0.87351127   -1.98647669
     atom  310 type  1   force =     0.57394335    0.87376500   -1.98639748
     atom  311 type  1   force =     0.57382436    0.87361212   -1.98641456
     atom  312 type  1   force =     0.57404570    0.87360232   -1.98646375
     atom  313 type  1   force =    -5.31437045  -14.19268893   -0.05336264
     atom  314 type  1   force =    -5.31484123  -14.19088618   -0.05580810
     atom  315 type  1   force =    -5.31472227  -14.19226156   -0.05331872
     atom  316 type  1   force =    -5.31460096  -14.19229615   -0.05295334
     atom  317 type  1   force =    -5.31470251  -14.19241607   -0.05319617
     atom  318 type  1   force =    -5.31464415  -14.19191448   -0.05311342
     atom  319 type  1   force =    -5.31485435  -14.19229523   -0.05316270
     atom  320 type  1   force =    -5.31458685  -14.19221432   -0.05313080
     atom  321 type  2   force =     2.77228480    0.21533840    3.53147921
     atom  322 type  2   force =     2.77126481    0.21485248    3.53110126
     atom  323 type  2   force =     2.77186491    0.21545102    3.53154998
     atom  324 type  2   force =     2.77180285    0.21528591    3.53166796
     atom  325 type  2   force =     2.77176408    0.21536088    3.53175929
     atom  326 type  2   force =     2.77186457    0.21538503    3.53154298
     atom  327 type  2   force =     2.77114052    0.21560125    3.53184646
     atom  328 type  2   force =     2.77197186    0.21529550    3.53150659
     atom  329 type  3   force =     1.65191058   -0.26884916    1.78764488
     atom  330 type  3   force =     1.65166086   -0.26890198    1.78756934
     atom  331 type  3   force =     1.65183899   -0.26881566    1.78764424
     atom  332 type  3   force =     1.65182300   -0.26886153    1.78768965
     atom  333 type  3   force =     1.65181849   -0.26884456    1.78769309
     atom  334 type  3   force =     1.65183750   -0.26882694    1.78765007
     atom  335 type  3   force =     1.65154184   -0.26884334    1.78766405
     atom  336 type  3   force =     1.65188082   -0.26885563    1.78763460
     atom  337 type  1   force =     6.86324669    5.25703398    1.77939222
     atom  338 type  1   force =     6.86232343    5.25645230    1.77922152
     atom  339 type  1   force =     6.86281320    5.25705153    1.77946519
     atom  340 type  1   force =     6.86267940    5.25681724    1.77954066
     atom  341 type  1   force =     6.86260876    5.25699412    1.77980308
     atom  342 type  1   force =     6.86280292    5.25690035    1.77939251
     atom  343 type  1   force =     6.86187279    5.25752547    1.78011505
     atom  344 type  1   force =     6.86289795    5.25680763    1.77934537
     atom  345 type  2   force =     4.86107177   -5.12263490   -1.84026229
     atom  346 type  2   force =     4.86177287   -5.12478512   -1.83988163
     atom  347 type  2   force =     4.86165791   -5.12453424   -1.83952377
     atom  348 type  2   force =     4.86162779   -5.12460669   -1.83984181
     atom  349 type  2   force =     4.86183122   -5.12419303   -1.83983040
     atom  350 type  2   force =     4.86160028   -5.12481442   -1.83978363
     atom  351 type  2   force =     4.86173445   -5.12452446   -1.83969609
     atom  352 type  2   force =     4.86151459   -5.12463027   -1.83977420
     atom  353 type  3   force =    -1.91337013    1.67863104   -0.71637431
     atom  354 type  3   force =    -1.91358227    1.67833762   -0.71626572
     atom  355 type  3   force =    -1.91358021    1.67846146   -0.71619978
     atom  356 type  3   force =    -1.91360874    1.67844339   -0.71622219
     atom  357 type  3   force =    -1.91362907    1.67856771   -0.71618468
     atom  358 type  3   force =    -1.91358082    1.67841934   -0.71622876
     atom  359 type  3   force =    -1.91358295    1.67847271   -0.71616553
     atom  360 type  3   force =    -1.91360033    1.67844147   -0.71623208
     atom  361 type  1   force =     1.15078304   -0.12045809    2.54583939
     atom  362 type  1   force =     1.15000962   -0.12010805    2.54624402
     atom  363 type  1   force =     1.15067719   -0.12036340    2.54586911
     atom  364 type  1   force =     1.15053640   -0.12037907    2.54615170
     atom  365 type  1   force =     1.15059647   -0.12046765    2.54601235
     atom  366 type  1   force =     1.15067370   -0.12028498    2.54588928
     atom  367 type  1   force =     1.14996941   -0.12119450    2.54521531
     atom  368 type  1   force =     1.15127962   -0.12041840    2.54573032
     atom  369 type  1   force =    -1.63970431   14.27351619   -2.01263593
     atom  370 type  1   force =    -1.63980061   14.27339027   -2.01247665
     atom  371 type  1   force =    -1.63958547   14.27341005   -2.01265513
     atom  372 type  1   force =    -1.64018076   14.27352296   -2.01246383
     atom  373 type  1   force =    -1.64075559   14.27232683   -2.01441510
     atom  374 type  1   force =    -1.63910544   14.27320905   -2.01287084
     atom  375 type  1   force =    -1.63974451   14.27336716   -2.01248795
     atom  376 type  1   force =    -1.63971623   14.27350727   -2.01268505
     atom  377 type  2   force =     1.12174411   -2.68744766    0.87805985
     atom  378 type  2   force =     1.12135844   -2.68710543    0.87862789
     atom  379 type  2   force =     1.12171557   -2.68742723    0.87808782
     atom  380 type  2   force =     1.12152206   -2.68720101    0.87844523
     atom  381 type  2   force =     1.12150019   -2.68787322    0.87802794
     atom  382 type  2   force =     1.12211771   -2.68713337    0.87794157
     atom  383 type  2   force =     1.12158319   -2.68742754    0.87816344
     atom  384 type  2   force =     1.12173943   -2.68731006    0.87818809
     atom  385 type  2   force =     0.26038260   -5.25573572    0.96576281
     atom  386 type  2   force =     0.26018272   -5.25567219    0.96610379
     atom  387 type  2   force =     0.26040301   -5.25576309    0.96578290
     atom  388 type  2   force =     0.26010458   -5.25555684    0.96603811
     atom  389 type  2   force =     0.26004061   -5.25658810    0.96540047
     atom  390 type  2   force =     0.26092720   -5.25565202    0.96551217
     atom  391 type  2   force =     0.26027790   -5.25576045    0.96585893
     atom  392 type  2   force =     0.26037648   -5.25566410    0.96583730
     atom  393 type  2   force =     5.22880138   -3.27874827   -2.50219664
     atom  394 type  2   force =     5.22837038   -3.27777577   -2.50185437
     atom  395 type  2   force =     5.22870995   -3.27864265   -2.50217515
     atom  396 type  2   force =     5.22871707   -3.27852008   -2.50187249
     atom  397 type  2   force =     5.22868384   -3.27898899   -2.50219756
     atom  398 type  2   force =     5.22915725   -3.27812157   -2.50237658
     atom  399 type  2   force =     5.22862227   -3.27864715   -2.50212568
     atom  400 type  2   force =     5.22879376   -3.27855684   -2.50204334
     atom  401 type  3   force =     2.14442273   -0.74077072   -1.26072584
     atom  402 type  3   force =     2.14437721   -0.74057340   -1.26068030
     atom  403 type  3   force =     2.14439923   -0.74074082   -1.26072234
     atom  404 type  3   force =     2.14441796   -0.74071635   -1.26066828
     atom  405 type  3   force =     2.14442362   -0.74083639   -1.26074420
     atom  406 type  3   force =     2.14456798   -0.74053710   -1.26086314
     atom  407 type  3   force =     2.14439077   -0.74073983   -1.26071984
     atom  408 type  3   force =     2.14442548   -0.74072467   -1.26068782
     atom  409 type  2   force =     1.54702004   -6.17448616   -0.63339164
     atom  410 type  2   force =     1.54862492   -6.17650204   -0.63349430
     atom  411 type  2   force =     1.54844123   -6.17628140   -0.63305126
     atom  412 type  2   force =     1.54849625   -6.17636809   -0.63345504
     atom  413 type  2   force =     1.54861544   -6.17610585   -0.63338676
     atom  414 type  2   force =     1.54839921   -6.17652242   -0.63335145
     atom  415 type  2   force =     1.54860876   -6.17626548   -0.63332794
     atom  416 type  2   force =     1.54830770   -6.17642773   -0.63336952
     atom  417 type  3   force =    -0.04660204   -1.97407729   -0.18363968
     atom  418 type  3   force =    -0.04596443   -1.97457888   -0.18335654
     atom  419 type  3   force =    -0.04601882   -1.97453187   -0.18325473
     atom  420 type  3   force =    -0.04600835   -1.97453680   -0.18334413
     atom  421 type  3   force =    -0.04599271   -1.97448865   -0.18332298
     atom  422 type  3   force =    -0.04602819   -1.97456760   -0.18331254
     atom  423 type  3   force =    -0.04597236   -1.97451926   -0.18331672
     atom  424 type  3   force =    -0.04607026   -1.97456073   -0.18332458
     atom  425 type  1   force =    -0.57390238   -0.87359701   -1.98655374
     atom  426 type  1   force =    -0.57411181   -0.87361174   -1.98624237
     atom  427 type  1   force =    -0.57388813   -0.87361834   -1.98649544
     atom  428 type  1   force =    -0.57412807   -0.87352600   -1.98637475
     atom  429 type  1   force =    -0.57391450   -0.87558069   -1.98753302
     atom  430 type  1   force =    -0.57317674   -0.87371906   -1.98718942
     atom  431 type  1   force =    -0.57401893   -0.87362197   -1.98646967
     atom  432 type  1   force =    -0.57390681   -0.87358481   -1.98648303
     atom  433 type  1   force =     5.31474232   14.19231519   -0.05320463
     atom  434 type  1   force =     5.31463269   14.19217242   -0.05304486
     atom  435 type  1   force =     5.31481601   14.19223797   -0.05317218
     atom  436 type  1   force =     5.31448209   14.19228187   -0.05310143
     atom  437 type  1   force =     5.31460175   14.18979189   -0.05606868
     atom  438 type  1   force =     5.31540340   14.19189205   -0.05369567
     atom  439 type  1   force =     5.31468801   14.19221167   -0.05310259
     atom  440 type  1   force =     5.31473114   14.19226290   -0.05321932
     atom  441 type  2   force =    -2.77172889   -0.21545928    3.53145596
     atom  442 type  2   force =    -2.77209768   -0.21523322    3.53227974
     atom  443 type  2   force =    -2.77172750   -0.21546812    3.53150328
     atom  444 type  2   force =    -2.77213161   -0.21510302    3.53192289
     atom  445 type  2   force =    -2.77202111   -0.21570540    3.53155563
     atom  446 type  2   force =    -2.77154703   -0.21523390    3.53150599
     atom  447 type  2   force =    -2.77190899   -0.21547886    3.53159516
     atom  448 type  2   force =    -2.77171394   -0.21529451    3.53160901
     atom  449 type  3   force =    -1.65179092    0.26880399    1.78764019
     atom  450 type  3   force =    -1.65199085    0.26894281    1.78768465
     atom  451 type  3   force =    -1.65181022    0.26882369    1.78762400
     atom  452 type  3   force =    -1.65184481    0.26881500    1.78779259
     atom  453 type  3   force =    -1.65184399    0.26880766    1.78766442
     atom  454 type  3   force =    -1.65180392    0.26885980    1.78766374
     atom  455 type  3   force =    -1.65189992    0.26876143    1.78765731
     atom  456 type  3   force =    -1.65176812    0.26885205    1.78764423
     atom  457 type  1   force =    -6.86264081   -5.25703787    1.77936180
     atom  458 type  1   force =    -6.86295596   -5.25671111    1.77995955
     atom  459 type  1   force =    -6.86258549   -5.25709115    1.77930513
     atom  460 type  1   force =    -6.86346235   -5.25622879    1.78063428
     atom  461 type  1   force =    -6.86289341   -5.25711059    1.77946437
     atom  462 type  1   force =    -6.86253501   -5.25682404    1.77950437
     atom  463 type  1   force =    -6.86287756   -5.25720697    1.77948679
     atom  464 type  1   force =    -6.86250644   -5.25674751    1.77943818
     atom  465 type  2   force =    -4.86071773    5.12489016   -1.84021156
     atom  466 type  2   force =    -4.86165771    5.12397845   -1.84005788
     atom  467 type  2   force =    -4.86156733    5.12460776   -1.83972326
     atom  468 type  2   force =    -4.86166551    5.12451232   -1.83975267
     atom  469 type  2   force =    -4.86177356    5.12480788   -1.83955507
     atom  470 type  2   force =    -4.86156499    5.12447757   -1.83980302
     atom  471 type  2   force =    -4.86163953    5.12469592   -1.83948905
     atom  472 type  2   force =    -4.86159916    5.12450572   -1.83982373
     atom  473 type  3   force =     1.91368120   -1.67795356   -0.71663280
     atom  474 type  3   force =     1.91364059   -1.67853236   -0.71625434
     atom  475 type  3   force =     1.91361068   -1.67845223   -0.71617535
     atom  476 type  3   force =     1.91359232   -1.67846180   -0.71623497
     atom  477 type  3   force =     1.91362076   -1.67835528   -0.71621944
     atom  478 type  3   force =     1.91359880   -1.67850271   -0.71622186
     atom  479 type  3   force =     1.91362165   -1.67844488   -0.71619558
     atom  480 type  3   force =     1.91357303   -1.67846675   -0.71622204
     atom  481 type  4   force =     0.00090203   -0.00068387   -0.00091240
     atom  482 type  4   force =    -0.01193274    0.00377198    0.00401009
     atom  483 type  4   force =     0.00017429   -0.00006820   -0.00034134
     atom  484 type  4   force =    -0.00023752    0.00007342    0.00058889
     atom  485 type  4   force =    -0.00013848   -0.00070749    0.00027875
     atom  486 type  4   force =     0.00027694    0.00056706   -0.00041788
     atom  487 type  4   force =    -0.00165235   -0.00099885   -0.00111015
     atom  488 type  4   force =     0.00162556    0.00007162   -0.00007980
     atom  489 type  4   force =     0.00341464   -0.00668228   -0.00066526
     atom  490 type  4   force =     0.00161194   -0.00020622   -0.00386601
     atom  491 type  4   force =    -0.00042944    0.00020502   -0.00040777
     atom  492 type  4   force =     0.00044761   -0.00025605    0.00011063
     atom  493 type  4   force =     0.00030497   -0.00003874   -0.00034647
     atom  494 type  4   force =    -0.00077146    0.00001653    0.00087175
     atom  495 type  4   force =     0.00011245    0.00019809    0.00016367
     atom  496 type  4   force =    -0.00018730   -0.00003365    0.00000880
     The local contribution  to forces
     atom    1 type  1   force =    -0.30118130    2.09148230    3.09853527
     atom    2 type  1   force =    -0.30356140    2.09011543    3.09368270
     atom    3 type  1   force =    -0.30108777    2.09134884    3.09828054
     atom    4 type  1   force =    -0.30092936    2.09115252    3.09812957
     atom    5 type  1   force =    -0.30097592    2.09145143    3.09818009
     atom    6 type  1   force =    -0.30110721    2.09112568    3.09829479
     atom    7 type  1   force =    -0.30085460    2.09147301    3.09839923
     atom    8 type  1   force =    -0.30141619    2.09115005    3.09813230
     atom    9 type  1   force =   -12.38664992   -0.72466268   -1.18260161
     atom   10 type  1   force =   -12.38542292   -0.72431393   -1.18078855
     atom   11 type  1   force =   -12.38523541   -0.72472042   -1.18114216
     atom   12 type  1   force =   -12.38542873   -0.72439157   -1.18109783
     atom   13 type  1   force =   -12.38541118   -0.72462583   -1.18109978
     atom   14 type  1   force =   -12.38530989   -0.72437940   -1.18115763
     atom   15 type  1   force =   -12.38587640   -0.72482741   -1.18132395
     atom   16 type  1   force =   -12.38527261   -0.72427915   -1.18093056
     atom   17 type  2   force =     2.47922265    1.20406401    0.84174623
     atom   18 type  2   force =     2.48440863    1.16490201    0.87039214
     atom   19 type  2   force =     2.48466556    1.16466585    0.87003451
     atom   20 type  2   force =     2.48457093    1.16475346    0.87016534
     atom   21 type  2   force =     2.48451112    1.16457252    0.87020813
     atom   22 type  2   force =     2.48466312    1.16491672    0.87005237
     atom   23 type  2   force =     2.48443396    1.16467157    0.87006622
     atom   24 type  2   force =     2.48475380    1.16479551    0.87019350
     atom   25 type  2   force =     5.06563339    0.27398199    0.94814924
     atom   26 type  2   force =     5.07214947    0.27018983    0.95454889
     atom   27 type  2   force =     5.07239664    0.26992189    0.95417717
     atom   28 type  2   force =     5.07226180    0.27006337    0.95427232
     atom   29 type  2   force =     5.07222952    0.26989030    0.95429892
     atom   30 type  2   force =     5.07237306    0.27017205    0.95417686
     atom   31 type  2   force =     5.07212514    0.26992090    0.95416162
     atom   32 type  2   force =     5.07242353    0.27010775    0.95431675
     atom   33 type  2   force =     3.24238820    5.17648530   -2.48057935
     atom   34 type  2   force =     3.24257484    5.17691786   -2.48082142
     atom   35 type  2   force =     3.24235372    5.17661486   -2.48076870
     atom   36 type  2   force =     3.24267210    5.17669204   -2.48064604
     atom   37 type  2   force =     3.24526382    5.17931766   -2.48657915
     atom   38 type  2   force =     3.24232261    5.17678103   -2.48048138
     atom   39 type  2   force =     3.24257375    5.17659765   -2.48080096
     atom   40 type  2   force =     3.24247795    5.17666356   -2.48068621
     atom   41 type  3   force =     0.76520253    2.07346851   -1.25217199
     atom   42 type  3   force =     0.76527459    2.07359573   -1.25225410
     atom   43 type  3   force =     0.76520933    2.07349390   -1.25222504
     atom   44 type  3   force =     0.76527799    2.07350669   -1.25220405
     atom   45 type  3   force =     0.76551106    2.07405269   -1.25253759
     atom   46 type  3   force =     0.76519616    2.07352162   -1.25215508
     atom   47 type  3   force =     0.76526627    2.07348619   -1.25223079
     atom   48 type  3   force =     0.76522847    2.07350579   -1.25221031
     atom   49 type  2   force =     5.97988362    1.44577111   -0.61177489
     atom   50 type  2   force =     5.97995577    1.44613385   -0.61191685
     atom   51 type  2   force =     5.97970706    1.44590053   -0.61196936
     atom   52 type  2   force =     5.98009387    1.44605499   -0.61173033
     atom   53 type  2   force =     5.97821748    1.44215630   -0.61764707
     atom   54 type  2   force =     5.97979473    1.44615036   -0.61163288
     atom   55 type  2   force =     5.97997427    1.44590333   -0.61194637
     atom   56 type  2   force =     5.97992542    1.44598483   -0.61183417
     atom   57 type  3   force =     1.90008616   -0.02518405   -0.18231921
     atom   58 type  3   force =     1.90009239   -0.02510129   -0.18234473
     atom   59 type  3   force =     1.90000623   -0.02516146   -0.18237909
     atom   60 type  3   force =     1.90012153   -0.02510695   -0.18229226
     atom   61 type  3   force =     1.89948423   -0.02552510   -0.18250530
     atom   62 type  3   force =     1.90006718   -0.02508777   -0.18227629
     atom   63 type  3   force =     1.90009894   -0.02515682   -0.18235034
     atom   64 type  3   force =     1.90008798   -0.02512786   -0.18233103
     atom   65 type  1   force =     0.41310353   -1.46875397   -2.59283831
     atom   66 type  1   force =     0.41612654   -1.47115333   -2.59129957
     atom   67 type  1   force =     0.41644680   -1.47148778   -2.59181069
     atom   68 type  1   force =     0.41622394   -1.47126571   -2.59183410
     atom   69 type  1   force =     0.41623099   -1.47144504   -2.59178799
     atom   70 type  1   force =     0.41643268   -1.47120927   -2.59194619
     atom   71 type  1   force =     0.41614966   -1.47150533   -2.59197220
     atom   72 type  1   force =     0.41639782   -1.47125582   -2.59176983
     atom   73 type  1   force =   -12.39256322    4.13307050   -0.55525319
     atom   74 type  1   force =   -12.39101726    4.13278285   -0.55396246
     atom   75 type  1   force =   -12.39085166    4.13236884   -0.55437500
     atom   76 type  1   force =   -12.39106576    4.13271891   -0.55446924
     atom   77 type  1   force =   -12.39103256    4.13250362   -0.55444733
     atom   78 type  1   force =   -12.39090175    4.13268044   -0.55451882
     atom   79 type  1   force =   -12.39122990    4.13228393   -0.55469797
     atom   80 type  1   force =   -12.39093948    4.13273102   -0.55434472
     atom   81 type  2   force =     0.40446660   -2.81407143    3.59244313
     atom   82 type  2   force =     0.33909949   -2.77010610    3.52102405
     atom   83 type  2   force =     0.33934066   -2.77035031    3.52067076
     atom   84 type  2   force =     0.33927104   -2.77027553    3.52081422
     atom   85 type  2   force =     0.33921570   -2.77046322    3.52084685
     atom   86 type  2   force =     0.33933731   -2.77012455    3.52070978
     atom   87 type  2   force =     0.33912165   -2.77034318    3.52070790
     atom   88 type  2   force =     0.33945855   -2.77022340    3.52084764
     atom   89 type  3   force =    -0.22496035   -1.59169459    1.77785410
     atom   90 type  3   force =    -0.21519750   -1.60125537    1.76497205
     atom   91 type  3   force =    -0.22491945   -1.59173539    1.77780342
     atom   92 type  3   force =    -0.22490182   -1.59175277    1.77776905
     atom   93 type  3   force =    -0.22490181   -1.59169294    1.77777664
     atom   94 type  3   force =    -0.22493334   -1.59178469    1.77781561
     atom   95 type  3   force =    -0.22487114   -1.59172291    1.77781438
     atom   96 type  3   force =    -0.22496020   -1.59175223    1.77777722
     atom   97 type  1   force =     4.58989642   -5.13694136    1.62637284
     atom   98 type  1   force =     4.53108617   -5.13726203    1.59974574
     atom   99 type  1   force =     4.59008985   -5.13715325    1.62609176
     atom  100 type  1   force =     4.59018382   -5.13726453    1.62592977
     atom  101 type  1   force =     4.59017739   -5.13698097    1.62596983
     atom  102 type  1   force =     4.59003305   -5.13738796    1.62612738
     atom  103 type  1   force =     4.59031089   -5.13707903    1.62615139
     atom  104 type  1   force =     4.58988245   -5.13726568    1.62594774
     atom  105 type  2   force =    -5.09719695   -4.89895827   -1.83807003
     atom  106 type  2   force =    -5.09765566   -4.89829535   -1.83889512
     atom  107 type  2   force =    -5.09727815   -4.89882035   -1.83864219
     atom  108 type  2   force =    -5.09697156   -4.89906758   -1.83840217
     atom  109 type  2   force =    -5.09693323   -4.89891757   -1.83875742
     atom  110 type  2   force =    -5.09720344   -4.89894306   -1.83854551
     atom  111 type  2   force =    -5.09711609   -4.89890094   -1.83857999
     atom  112 type  2   force =    -5.09713854   -4.89903859   -1.83868299
     atom  113 type  3   force =     1.62765230    1.85941112   -0.71011422
     atom  114 type  3   force =     1.62766337    1.85954792   -0.71020113
     atom  115 type  3   force =     1.62761319    1.85947466   -0.71020133
     atom  116 type  3   force =     1.62771979    1.85947829   -0.71013186
     atom  117 type  3   force =     1.62792585    1.85919012   -0.71048062
     atom  118 type  3   force =     1.62764208    1.85949878   -0.71013899
     atom  119 type  3   force =     1.62767911    1.85946181   -0.71019341
     atom  120 type  3   force =     1.62767237    1.85946909   -0.71017582
     atom  121 type  1   force =     0.30080476   -2.09114599    3.09844836
     atom  122 type  1   force =     0.30343277   -2.09093182    3.09700908
     atom  123 type  1   force =     0.30100078   -2.09129038    3.09825883
     atom  124 type  1   force =     0.30108055   -2.09129794    3.09816195
     atom  125 type  1   force =     0.30104373   -2.09098499    3.09807556
     atom  126 type  1   force =     0.30094365   -2.09144307    3.09844313
     atom  127 type  1   force =     0.30139454   -2.09120369    3.09848914
     atom  128 type  1   force =     0.30072185   -2.09121506    3.09818546
     atom  129 type  1   force =    12.38507844    0.72462230   -1.18083382
     atom  130 type  1   force =    12.38799757    0.72730905   -1.18210482
     atom  131 type  1   force =    12.38530962    0.72450632   -1.18109912
     atom  132 type  1   force =    12.38543372    0.72448797   -1.18118481
     atom  133 type  1   force =    12.38543295    0.72486886   -1.18134843
     atom  134 type  1   force =    12.38523413    0.72437973   -1.18091529
     atom  135 type  1   force =    12.38564731    0.72451939   -1.18101689
     atom  136 type  1   force =    12.38516699    0.72453384   -1.18115933
     atom  137 type  2   force =    -2.48466392   -1.16463138    0.87021033
     atom  138 type  2   force =    -2.48444494   -1.16501768    0.86978724
     atom  139 type  2   force =    -2.48456437   -1.16473006    0.87008350
     atom  140 type  2   force =    -2.48461510   -1.16472655    0.87010622
     atom  141 type  2   force =    -2.48472844   -1.16447861    0.87003589
     atom  142 type  2   force =    -2.48456821   -1.16491087    0.87039936
     atom  143 type  2   force =    -2.48444227   -1.16467228    0.87054254
     atom  144 type  2   force =    -2.48502460   -1.16452131    0.86996447
     atom  145 type  2   force =    -5.07242875   -0.26992804    0.95436487
     atom  146 type  2   force =    -5.07166034   -0.27020626    0.95363445
     atom  147 type  2   force =    -5.07231255   -0.27003062    0.95423003
     atom  148 type  2   force =    -5.07228689   -0.27001411    0.95420300
     atom  149 type  2   force =    -5.07238453   -0.26966859    0.95409581
     atom  150 type  2   force =    -5.07237209   -0.27017325    0.95452766
     atom  151 type  2   force =    -5.07206801   -0.26999945    0.95450928
     atom  152 type  2   force =    -5.07254226   -0.26992166    0.95416752
     atom  153 type  2   force =    -3.24271049   -5.17643130   -2.48083037
     atom  154 type  2   force =    -3.24241390   -5.17676426   -2.48039930
     atom  155 type  2   force =    -3.24241855   -5.17669286   -2.48021557
     atom  156 type  2   force =    -3.24286342   -5.17631153   -2.48087527
     atom  157 type  2   force =    -3.24254732   -5.17659208   -2.48068447
     atom  158 type  2   force =    -3.24242464   -5.17674792   -2.48086956
     atom  159 type  2   force =    -3.24241893   -5.17670366   -2.48083193
     atom  160 type  2   force =    -3.24254792   -5.17661749   -2.48069969
     atom  161 type  3   force =    -0.76532373   -2.07342652   -1.25226732
     atom  162 type  3   force =    -0.76522596   -2.07350969   -1.25212074
     atom  163 type  3   force =    -0.76520655   -2.07354335   -1.25210998
     atom  164 type  3   force =    -0.76530298   -2.07343512   -1.25223391
     atom  165 type  3   force =    -0.76525519   -2.07349535   -1.25221064
     atom  166 type  3   force =    -0.76521423   -2.07350713   -1.25224336
     atom  167 type  3   force =    -0.76523111   -2.07353672   -1.25225182
     atom  168 type  3   force =    -0.76524858   -2.07348348   -1.25220693
     atom  169 type  2   force =    -5.98005542   -1.44582739   -0.61140289
     atom  170 type  2   force =    -5.98110658   -1.44473010   -0.61258349
     atom  171 type  2   force =    -5.98002685   -1.44586181   -0.61187046
     atom  172 type  2   force =    -5.97981416   -1.44608859   -0.61179849
     atom  173 type  2   force =    -5.97982715   -1.44585445   -0.61196384
     atom  174 type  2   force =    -5.98001152   -1.44600515   -0.61182635
     atom  175 type  2   force =    -5.97989425   -1.44587701   -0.61182009
     atom  176 type  2   force =    -5.98002573   -1.44608221   -0.61197341
     atom  177 type  3   force =    -1.90013765    0.02517452   -0.18223677
     atom  178 type  3   force =    -1.90060693    0.02591041   -0.18269556
     atom  179 type  3   force =    -1.90010917    0.02515496   -0.18233226
     atom  180 type  3   force =    -1.90006342    0.02511540   -0.18233738
     atom  181 type  3   force =    -1.90006044    0.02517885   -0.18236351
     atom  182 type  3   force =    -1.90011398    0.02511987   -0.18231936
     atom  183 type  3   force =    -1.90006892    0.02515562   -0.18232585
     atom  184 type  3   force =    -1.90012177    0.02511876   -0.18235371
     atom  185 type  1   force =    -0.41646895    1.47141521   -2.59168727
     atom  186 type  1   force =    -0.41566386    1.47145466   -2.59250771
     atom  187 type  1   force =    -0.41634741    1.47132279   -2.59185749
     atom  188 type  1   force =    -0.41626076    1.47135066   -2.59187345
     atom  189 type  1   force =    -0.41649692    1.47212019   -2.59209526
     atom  190 type  1   force =    -0.41650291    1.47120948   -2.59135471
     atom  191 type  1   force =    -0.41607887    1.47131523   -2.59166348
     atom  192 type  1   force =    -0.41651261    1.47141591   -2.59188979
     atom  193 type  1   force =    12.39074885   -4.13253490   -0.55421543
     atom  194 type  1   force =    12.39193333   -4.13157585   -0.55541221
     atom  195 type  1   force =    12.39091243   -4.13259255   -0.55445489
     atom  196 type  1   force =    12.39108321   -4.13260643   -0.55449962
     atom  197 type  1   force =    12.39110303   -4.13187178   -0.55481122
     atom  198 type  1   force =    12.39077867   -4.13268954   -0.55414025
     atom  199 type  1   force =    12.39120502   -4.13260435   -0.55438275
     atom  200 type  1   force =    12.39082438   -4.13256243   -0.55448149
     atom  201 type  2   force =    -0.33932336    2.77043645    3.52088828
     atom  202 type  2   force =    -0.33943957    2.76986514    3.52039015
     atom  203 type  2   force =    -0.33926024    2.77034338    3.52074576
     atom  204 type  2   force =    -0.33931219    2.77025424    3.52074873
     atom  205 type  2   force =    -0.33936775    2.77045824    3.52073928
     atom  206 type  2   force =    -0.33923838    2.77010143    3.52090304
     atom  207 type  2   force =    -0.33921751    2.77045230    3.52114700
     atom  208 type  2   force =    -0.33997254    2.77048142    3.52045173
     atom  209 type  3   force =     0.22490116    1.59178672    1.77783673
     atom  210 type  3   force =     0.22476764    1.59153347    1.77762372
     atom  211 type  3   force =     0.22491494    1.59175482    1.77779256
     atom  212 type  3   force =     0.22491368    1.59172648    1.77778368
     atom  213 type  3   force =     0.22490334    1.59178102    1.77778642
     atom  214 type  3   force =     0.22491816    1.59169265    1.77781512
     atom  215 type  3   force =     0.22493665    1.59178063    1.77786101
     atom  216 type  3   force =     0.22476932    1.59173624    1.77772253
     atom  217 type  1   force =    -4.59007832    5.13734273    1.62616313
     atom  218 type  1   force =    -4.59036488    5.13689978    1.62579123
     atom  219 type  1   force =    -4.59005022    5.13729590    1.62598455
     atom  220 type  1   force =    -4.59016990    5.13709744    1.62605252
     atom  221 type  1   force =    -4.59020159    5.13731686    1.62603839
     atom  222 type  1   force =    -4.59001006    5.13699363    1.62610007
     atom  223 type  1   force =    -4.59017230    5.13741975    1.62653471
     atom  224 type  1   force =    -4.59199572    5.13777514    1.62511349
     atom  225 type  2   force =     5.09703637    4.89874748   -1.83843068
     atom  226 type  2   force =     5.09713035    4.89920088   -1.83867382
     atom  227 type  2   force =     5.09691629    4.89894277   -1.83867240
     atom  228 type  2   force =     5.09730640    4.89901185   -1.83846115
     atom  229 type  2   force =     5.10044502    4.89604316   -1.84207169
     atom  230 type  2   force =     5.09697096    4.89910459   -1.83839685
     atom  231 type  2   force =     5.09716252    4.89891688   -1.83867411
     atom  232 type  2   force =     5.09711455    4.89896847   -1.83856833
     atom  233 type  3   force =    -1.62770697   -1.85949074   -0.71005926
     atom  234 type  3   force =    -1.62774587   -1.85928909   -0.71023823
     atom  235 type  3   force =    -1.62771653   -1.85944443   -0.71019074
     atom  236 type  3   force =    -1.62762952   -1.85948268   -0.71013569
     atom  237 type  3   force =    -1.62759170   -1.85946344   -0.71025570
     atom  238 type  3   force =    -1.62769977   -1.85945883   -0.71015572
     atom  239 type  3   force =    -1.62766735   -1.85946224   -0.71018205
     atom  240 type  3   force =    -1.62767895   -1.85947834   -0.71018805
     atom  241 type  1   force =     2.09093406    0.30130528   -3.09798287
     atom  242 type  1   force =     2.09439519    0.30088612   -3.09441145
     atom  243 type  1   force =     2.09125310    0.30103246   -3.09808732
     atom  244 type  1   force =     2.09128108    0.30107759   -3.09840030
     atom  245 type  1   force =     2.09131963    0.30117712   -3.09825610
     atom  246 type  1   force =     2.09121452    0.30088022   -3.09816918
     atom  247 type  1   force =     2.09162534    0.30114291   -3.09817399
     atom  248 type  1   force =     2.09107696    0.30102373   -3.09819353
     atom  249 type  1   force =    -0.72478266   12.38564797    1.18135595
     atom  250 type  1   force =    -0.72239159   12.38305517    1.18445674
     atom  251 type  1   force =    -0.72452520   12.38539061    1.18128990
     atom  252 type  1   force =    -0.72453158   12.38537857    1.18088265
     atom  253 type  1   force =    -0.72446334   12.38555206    1.18114479
     atom  254 type  1   force =    -0.72461914   12.38511754    1.18117833
     atom  255 type  1   force =    -0.72427964   12.38547005    1.18117775
     atom  256 type  1   force =    -0.72468478   12.38532241    1.18113806
     atom  257 type  2   force =     1.16405657   -2.48442461   -0.86981799
     atom  258 type  2   force =     1.16512576   -2.48370239   -0.86899793
     atom  259 type  2   force =     1.16469952   -2.48465297   -0.87004496
     atom  260 type  2   force =     1.16472463   -2.48454337   -0.87015208
     atom  261 type  2   force =     1.16477414   -2.48458916   -0.87020820
     atom  262 type  2   force =     1.16469116   -2.48462091   -0.87006559
     atom  263 type  2   force =     1.16498663   -2.48471742   -0.87026482
     atom  264 type  2   force =     1.16462892   -2.48455695   -0.87004382
     atom  265 type  2   force =     0.26953547   -5.07199326   -0.95398278
     atom  266 type  2   force =     0.27063018   -5.07160030   -0.95185292
     atom  267 type  2   force =     0.27000483   -5.07233443   -0.95412854
     atom  268 type  2   force =     0.26998780   -5.07225196   -0.95432042
     atom  269 type  2   force =     0.27004037   -5.07223978   -0.95426637
     atom  270 type  2   force =     0.26999013   -5.07239293   -0.95421207
     atom  271 type  2   force =     0.27024341   -5.07231358   -0.95428159
     atom  272 type  2   force =     0.26990480   -5.07229395   -0.95419740
     atom  273 type  2   force =     5.17559560   -3.24240159    2.48139144
     atom  274 type  2   force =     5.17659032   -3.24164491    2.48146105
     atom  275 type  2   force =     5.17661367   -3.24254739    2.48075399
     atom  276 type  2   force =     5.17666086   -3.24247232    2.48074037
     atom  277 type  2   force =     5.17671641   -3.24258446    2.48062185
     atom  278 type  2   force =     5.17660847   -3.24248169    2.48077649
     atom  279 type  2   force =     5.17671234   -3.24261264    2.48058030
     atom  280 type  2   force =     5.17661510   -3.24247023    2.48079387
     atom  281 type  3   force =     2.07318729   -0.76513683    1.25252413
     atom  282 type  3   force =     2.07340393   -0.76502687    1.25241674
     atom  283 type  3   force =     2.07349356   -0.76524592    1.25222017
     atom  284 type  3   force =     2.07350182   -0.76523741    1.25222564
     atom  285 type  3   force =     2.07351073   -0.76526059    1.25220300
     atom  286 type  3   force =     2.07349670   -0.76523492    1.25222298
     atom  287 type  3   force =     2.07350256   -0.76525701    1.25219894
     atom  288 type  3   force =     2.07350119   -0.76523868    1.25222541
     atom  289 type  2   force =     1.44543754   -5.98015203    0.61204159
     atom  290 type  2   force =     1.44611660   -5.97951698    0.61209333
     atom  291 type  2   force =     1.44588486   -5.98000947    0.61189667
     atom  292 type  2   force =     1.44601064   -5.97986492    0.61188883
     atom  293 type  2   force =     1.44614456   -5.98017144    0.61161686
     atom  294 type  2   force =     1.44587951   -5.97986638    0.61198079
     atom  295 type  2   force =     1.44611270   -5.98017530    0.61143165
     atom  296 type  2   force =     1.44588734   -5.97985785    0.61201161
     atom  297 type  3   force =    -0.02522733   -1.90015343    0.18236101
     atom  298 type  3   force =    -0.02511030   -1.90001667    0.18236788
     atom  299 type  3   force =    -0.02516363   -1.90010955    0.18234253
     atom  300 type  3   force =    -0.02511820   -1.90006779    0.18234356
     atom  301 type  3   force =    -0.02505471   -1.90020209    0.18226726
     atom  302 type  3   force =    -0.02516403   -1.90006321    0.18236844
     atom  303 type  3   force =    -0.02512342   -1.90013635    0.18221318
     atom  304 type  3   force =    -0.02515434   -1.90007109    0.18237721
     atom  305 type  1   force =    -1.47190423   -0.41568762    2.59211308
     atom  306 type  1   force =    -1.47156528   -0.41628486    2.59430322
     atom  307 type  1   force =    -1.47132192   -0.41633333    2.59200080
     atom  308 type  1   force =    -1.47143351   -0.41624156    2.59174311
     atom  309 type  1   force =    -1.47135976   -0.41622504    2.59187275
     atom  310 type  1   force =    -1.47132868   -0.41647993    2.59178594
     atom  311 type  1   force =    -1.47121191   -0.41632499    2.59180864
     atom  312 type  1   force =    -1.47142361   -0.41631658    2.59185533
     atom  313 type  1   force =     4.13225862   12.39140698    0.55468458
     atom  314 type  1   force =     4.13266926   12.38963171    0.55709362
     atom  315 type  1   force =     4.13260805   12.39099872    0.55464213
     atom  316 type  1   force =     4.13248184   12.39102701    0.55427985
     atom  317 type  1   force =     4.13258241   12.39114826    0.55452282
     atom  318 type  1   force =     4.13252538   12.39064862    0.55443747
     atom  319 type  1   force =     4.13273514   12.39102910    0.55448970
     atom  320 type  1   force =     4.13247504   12.39095415    0.55445402
     atom  321 type  2   force =    -2.77075577   -0.33925716   -3.52061745
     atom  322 type  2   force =    -2.76976692   -0.33876887   -3.52023784
     atom  323 type  2   force =    -2.77034358   -0.33936920   -3.52068710
     atom  324 type  2   force =    -2.77028191   -0.33921030   -3.52080455
     atom  325 type  2   force =    -2.77024536   -0.33928162   -3.52089573
     atom  326 type  2   force =    -2.77034332   -0.33930444   -3.52068093
     atom  327 type  2   force =    -2.76964736   -0.33947334   -3.52101130
     atom  328 type  2   force =    -2.77044639   -0.33921609   -3.52064449
     atom  329 type  3   force =    -1.59182488    0.22492782   -1.77776720
     atom  330 type  3   force =    -1.59157596    0.22498064   -1.77769088
     atom  331 type  3   force =    -1.59175367    0.22489452   -1.77776638
     atom  332 type  3   force =    -1.59173770    0.22494008   -1.77781190
     atom  333 type  3   force =    -1.59173322    0.22492355   -1.77781504
     atom  334 type  3   force =    -1.59175182    0.22490583   -1.77777223
     atom  335 type  3   force =    -1.59145385    0.22491913   -1.77779014
     atom  336 type  3   force =    -1.59179505    0.22493440   -1.77775710
     atom  337 type  1   force =    -5.13769266   -4.59021117   -1.62589836
     atom  338 type  1   force =    -5.13680119   -4.58963884   -1.62572565
     atom  339 type  1   force =    -5.13726786   -4.59023234   -1.62596907
     atom  340 type  1   force =    -5.13714302   -4.59000464   -1.62604586
     atom  341 type  1   force =    -5.13708017   -4.59018291   -1.62630515
     atom  342 type  1   force =    -5.13725976   -4.59008339   -1.62589820
     atom  343 type  1   force =    -5.13616790   -4.59063041   -1.62660918
     atom  344 type  1   force =    -5.13735084   -4.58998924   -1.62585159
     atom  345 type  2   force =    -4.89841712    5.09519542    1.83917692
     atom  346 type  2   force =    -4.89909504    5.09734412    1.83876151
     atom  347 type  2   force =    -4.89897661    5.09709386    1.83841015
     atom  348 type  2   force =    -4.89895136    5.09716975    1.83872347
     atom  349 type  2   force =    -4.89915556    5.09675931    1.83871466
     atom  350 type  2   force =    -4.89892474    5.09737169    1.83866474
     atom  351 type  2   force =    -4.89905617    5.09709043    1.83857822
     atom  352 type  2   force =    -4.89884109    5.09719558    1.83865666
     atom  353 type  3   force =     1.85923961   -1.62785112    0.71034646
     atom  354 type  3   force =     1.85945266   -1.62755791    0.71023775
     atom  355 type  3   force =     1.85945091   -1.62768138    0.71017221
     atom  356 type  3   force =     1.85947915   -1.62766353    0.71019448
     atom  357 type  3   force =     1.85950071   -1.62778721    0.71015489
     atom  358 type  3   force =     1.85945122   -1.62763959    0.71020080
     atom  359 type  3   force =     1.85945299   -1.62769251    0.71013827
     atom  360 type  3   force =     1.85947090   -1.62766146    0.71020430
     atom  361 type  1   force =    -2.09143551   -0.30093988   -3.09809461
     atom  362 type  1   force =    -2.09063509   -0.30127582   -3.09846708
     atom  363 type  1   force =    -2.09133460   -0.30103520   -3.09812433
     atom  364 type  1   force =    -2.09118599   -0.30102969   -3.09840517
     atom  365 type  1   force =    -2.09125074   -0.30093025   -3.09826372
     atom  366 type  1   force =    -2.09132676   -0.30111325   -3.09814293
     atom  367 type  1   force =    -2.09066226   -0.30021713   -3.09747700
     atom  368 type  1   force =    -2.09192562   -0.30097250   -3.09798419
     atom  369 type  1   force =     0.72446517  -12.38542339    1.18119460
     atom  370 type  1   force =     0.72456549  -12.38530747    1.18103974
     atom  371 type  1   force =     0.72434825  -12.38531860    1.18121477
     atom  372 type  1   force =     0.72494782  -12.38541721    1.18102041
     atom  373 type  1   force =     0.72547854  -12.38420561    1.18296289
     atom  374 type  1   force =     0.72386673  -12.38511228    1.18142608
     atom  375 type  1   force =     0.72450996  -12.38528148    1.18105024
     atom  376 type  1   force =     0.72448116  -12.38541489    1.18124497
     atom  377 type  2   force =    -1.16480995    2.48468809   -0.86998220
     atom  378 type  2   force =    -1.16443606    2.48433127   -0.87054895
     atom  379 type  2   force =    -1.16477927    2.48466908   -0.87001037
     atom  380 type  2   force =    -1.16458418    2.48444460   -0.87035951
     atom  381 type  2   force =    -1.16456964    2.48510344   -0.86994976
     atom  382 type  2   force =    -1.16518091    2.48438501   -0.86986529
     atom  383 type  2   force =    -1.16464917    2.48466820   -0.87008490
     atom  384 type  2   force =    -1.16480066    2.48455416   -0.87010988
     atom  385 type  2   force =    -0.27007341    5.07233393   -0.95413079
     atom  386 type  2   force =    -0.26987791    5.07223739   -0.95447153
     atom  387 type  2   force =    -0.27009204    5.07236220   -0.95414976
     atom  388 type  2   force =    -0.26978574    5.07216050   -0.95440110
     atom  389 type  2   force =    -0.26974990    5.07316199   -0.95377937
     atom  390 type  2   force =    -0.27061379    5.07226512   -0.95388053
     atom  391 type  2   force =    -0.26996621    5.07235869   -0.95422569
     atom  392 type  2   force =    -0.27006290    5.07226601   -0.95420310
     atom  393 type  2   force =    -5.17674198    3.24266442    2.48085478
     atom  394 type  2   force =    -5.17633135    3.24166719    2.48051474
     atom  395 type  2   force =    -5.17664779    3.24256156    2.48083364
     atom  396 type  2   force =    -5.17664700    3.24244050    2.48053434
     atom  397 type  2   force =    -5.17662573    3.24290100    2.48085597
     atom  398 type  2   force =    -5.17709304    3.24204792    2.48103581
     atom  399 type  2   force =    -5.17656046    3.24256754    2.48078434
     atom  400 type  2   force =    -5.17672743    3.24247976    2.48070222
     atom  401 type  3   force =    -2.07351648    0.76528345    1.25224253
     atom  402 type  3   force =    -2.07347145    0.76508624    1.25219595
     atom  403 type  3   force =    -2.07349310    0.76525360    1.25223924
     atom  404 type  3   force =    -2.07351114    0.76522923    1.25218543
     atom  405 type  3   force =    -2.07351710    0.76534869    1.25226040
     atom  406 type  3   force =    -2.07366042    0.76505196    1.25238093
     atom  407 type  3   force =    -2.07348455    0.76525260    1.25223669
     atom  408 type  3   force =    -2.07351907    0.76523756    1.25220503
     atom  409 type  2   force =    -1.44453042    5.97806660    0.61195533
     atom  410 type  2   force =    -1.44611859    5.98011706    0.61204507
     atom  411 type  2   force =    -1.44593395    5.97989134    0.61160581
     atom  412 type  2   force =    -1.44598804    5.97998447    0.61200666
     atom  413 type  2   force =    -1.44610882    5.97972777    0.61193967
     atom  414 type  2   force =    -1.44589616    5.98013360    0.61190275
     atom  415 type  2   force =    -1.44609697    5.97988909    0.61188003
     atom  416 type  2   force =    -1.44580155    5.98004846    0.61192190
     atom  417 type  3   force =     0.02572333    1.89964191    0.18267280
     atom  418 type  3   force =     0.02508767    1.90014004    0.18238247
     atom  419 type  3   force =     0.02514146    1.90009264    0.18228148
     atom  420 type  3   force =     0.02513146    1.90009801    0.18237047
     atom  421 type  3   force =     0.02511562    1.90005011    0.18234949
     atom  422 type  3   force =     0.02515102    1.90012844    0.18233883
     atom  423 type  3   force =     0.02509600    1.90008075    0.18234306
     atom  424 type  3   force =     0.02519266    1.90012199    0.18235118
     atom  425 type  1   force =     1.47128582    0.41631238    2.59194644
     atom  426 type  1   force =     1.47146837    0.41632346    2.59162192
     atom  427 type  1   force =     1.47127750    0.41633157    2.59189221
     atom  428 type  1   force =     1.47153226    0.41623857    2.59178063
     atom  429 type  1   force =     1.47126815    0.41830454    2.59288670
     atom  430 type  1   force =     1.47057292    0.41643328    2.59257267
     atom  431 type  1   force =     1.47141155    0.41633329    2.59187001
     atom  432 type  1   force =     1.47130300    0.41629672    2.59188459
     atom  433 type  1   force =    -4.13262518  -12.39104974    0.55452991
     atom  434 type  1   force =    -4.13252492  -12.39091562    0.55436326
     atom  435 type  1   force =    -4.13269626  -12.39097113    0.55449909
     atom  436 type  1   force =    -4.13235289  -12.39100893    0.55443130
     atom  437 type  1   force =    -4.13251461  -12.38855416    0.55735876
     atom  438 type  1   force =    -4.13328449  -12.39062717    0.55501949
     atom  439 type  1   force =    -4.13256870  -12.39094678    0.55442919
     atom  440 type  1   force =    -4.13261113  -12.39100002    0.55454646
     atom  441 type  2   force =     2.77020959    0.33937468   -3.52059413
     atom  442 type  2   force =     2.77058072    0.33912266   -3.52141647
     atom  443 type  2   force =     2.77021348    0.33938280   -3.52064211
     atom  444 type  2   force =     2.77060593    0.33902579   -3.52105253
     atom  445 type  2   force =     2.77049150    0.33962120   -3.52069276
     atom  446 type  2   force =     2.77003092    0.33915374   -3.52064294
     atom  447 type  2   force =     2.77038865    0.33939684   -3.52073244
     atom  448 type  2   force =     2.77019902    0.33921467   -3.52074698
     atom  449 type  3   force =     1.59170585   -0.22488270   -1.77776234
     atom  450 type  3   force =     1.59190421   -0.22502126   -1.77780577
     atom  451 type  3   force =     1.59172475   -0.22490251   -1.77774622
     atom  452 type  3   force =     1.59175921   -0.22489380   -1.77791367
     atom  453 type  3   force =     1.59175849   -0.22488638   -1.77778648
     atom  454 type  3   force =     1.59171863   -0.22493837   -1.77778602
     atom  455 type  3   force =     1.59181411   -0.22484012   -1.77777893
     atom  456 type  3   force =     1.59168303   -0.22493088   -1.77776641
     atom  457 type  1   force =     5.13710375    4.59021908   -1.62586816
     atom  458 type  1   force =     5.13741663    4.58988936   -1.62645299
     atom  459 type  1   force =     5.13704687    4.59027181   -1.62581099
     atom  460 type  1   force =     5.13792323    4.58938562   -1.62710948
     atom  461 type  1   force =     5.13734614    4.59029139   -1.62596859
     atom  462 type  1   force =     5.13700519    4.59001053   -1.62601061
     atom  463 type  1   force =     5.13732440    4.59038208   -1.62599115
     atom  464 type  1   force =     5.13696944    4.58993192   -1.62594300
     atom  465 type  2   force =     4.89803310   -5.09743830    1.83908845
     atom  466 type  2   force =     4.89898141   -5.09655247    1.83893926
     atom  467 type  2   force =     4.89889831   -5.09717462    1.83860668
     atom  468 type  2   force =     4.89899208   -5.09708032    1.83863504
     atom  469 type  2   force =     4.89908211   -5.09736085    1.83843118
     atom  470 type  2   force =     4.89889239   -5.09704498    1.83868397
     atom  471 type  2   force =     4.89897832   -5.09725112    1.83837341
     atom  472 type  2   force =     4.89892825   -5.09707033    1.83870519
     atom  473 type  3   force =    -1.85955354    1.62717409    0.71060864
     atom  474 type  3   force =    -1.85951125    1.62775203    0.71022612
     atom  475 type  3   force =    -1.85948100    1.62767218    0.71014789
     atom  476 type  3   force =    -1.85946271    1.62768172    0.71020730
     atom  477 type  3   force =    -1.85949097    1.62757530    0.71019163
     atom  478 type  3   force =    -1.85946940    1.62772274    0.71019399
     atom  479 type  3   force =    -1.85949198    1.62766520    0.71016796
     atom  480 type  3   force =    -1.85944316    1.62768685    0.71019438
     atom  481 type  4   force =    -0.00086822    0.00067730    0.00087529
     atom  482 type  4   force =     0.01177142   -0.00355553   -0.00364185
     atom  483 type  4   force =    -0.00017362    0.00005861    0.00034078
     atom  484 type  4   force =     0.00024934   -0.00009215   -0.00055426
     atom  485 type  4   force =     0.00013819    0.00066420   -0.00024662
     atom  486 type  4   force =    -0.00026955   -0.00055814    0.00040574
     atom  487 type  4   force =     0.00159491    0.00099957    0.00107264
     atom  488 type  4   force =    -0.00158621   -0.00002174    0.00007304
     atom  489 type  4   force =    -0.00339343    0.00633656    0.00045827
     atom  490 type  4   force =    -0.00157983    0.00019640    0.00378861
     atom  491 type  4   force =     0.00044136   -0.00018753    0.00042686
     atom  492 type  4   force =    -0.00042859    0.00022285   -0.00009162
     atom  493 type  4   force =    -0.00031211    0.00004764    0.00034077
     atom  494 type  4   force =     0.00074252    0.00006806   -0.00095184
     atom  495 type  4   force =    -0.00010843   -0.00019922   -0.00015763
     atom  496 type  4   force =     0.00022295    0.00002295    0.00001253
     The core correction contribution to forces
     atom    1 type  1   force =    -0.00311525    0.00438511    0.00260958
     atom    2 type  1   force =    -0.00311513    0.00438806    0.00260988
     atom    3 type  1   force =    -0.00311516    0.00438505    0.00260955
     atom    4 type  1   force =    -0.00311520    0.00438519    0.00260966
     atom    5 type  1   force =    -0.00311525    0.00438500    0.00260964
     atom    6 type  1   force =    -0.00311525    0.00438513    0.00260961
     atom    7 type  1   force =    -0.00311521    0.00438511    0.00260956
     atom    8 type  1   force =    -0.00311527    0.00438531    0.00260961
     atom    9 type  1   force =     0.01340203    0.00481550    0.00489575
     atom   10 type  1   force =     0.01340079    0.00481499    0.00489604
     atom   11 type  1   force =     0.01340086    0.00481510    0.00489611
     atom   12 type  1   force =     0.01340075    0.00481509    0.00489605
     atom   13 type  1   force =     0.01340069    0.00481508    0.00489609
     atom   14 type  1   force =     0.01340075    0.00481509    0.00489610
     atom   15 type  1   force =     0.01340089    0.00481518    0.00489614
     atom   16 type  1   force =     0.01340072    0.00481505    0.00489600
     atom   17 type  2   force =    -0.00655885    0.00215407    0.00003575
     atom   18 type  2   force =    -0.00643123    0.00179797    0.00006818
     atom   19 type  2   force =    -0.00643099    0.00179762    0.00006791
     atom   20 type  2   force =    -0.00643103    0.00179765    0.00006817
     atom   21 type  2   force =    -0.00643115    0.00179773    0.00006796
     atom   22 type  2   force =    -0.00643138    0.00179743    0.00006838
     atom   23 type  2   force =    -0.00643096    0.00179791    0.00006833
     atom   24 type  2   force =    -0.00643124    0.00179763    0.00006803
     atom   25 type  2   force =     0.00300496   -0.00018402    0.00026036
     atom   26 type  2   force =     0.00302109   -0.00019466    0.00027377
     atom   27 type  2   force =     0.00302133   -0.00019477    0.00027330
     atom   28 type  2   force =     0.00302126   -0.00019483    0.00027348
     atom   29 type  2   force =     0.00302106   -0.00019478    0.00027387
     atom   30 type  2   force =     0.00302108   -0.00019443    0.00027363
     atom   31 type  2   force =     0.00302151   -0.00019468    0.00027334
     atom   32 type  2   force =     0.00302094   -0.00019449    0.00027396
     atom   33 type  2   force =    -0.00233796    0.00277941    0.00032851
     atom   34 type  2   force =    -0.00233822    0.00277926    0.00032874
     atom   35 type  2   force =    -0.00233770    0.00277924    0.00032856
     atom   36 type  2   force =    -0.00233812    0.00277906    0.00032827
     atom   37 type  2   force =    -0.00234644    0.00277118    0.00031157
     atom   38 type  2   force =    -0.00233837    0.00277977    0.00032899
     atom   39 type  2   force =    -0.00233811    0.00277905    0.00032882
     atom   40 type  2   force =    -0.00233806    0.00277935    0.00032887
     atom   41 type  3   force =     0.00000000    0.00000000    0.00000000
     atom   42 type  3   force =     0.00000000    0.00000000    0.00000000
     atom   43 type  3   force =     0.00000000    0.00000000    0.00000000
     atom   44 type  3   force =     0.00000000    0.00000000    0.00000000
     atom   45 type  3   force =     0.00000000    0.00000000    0.00000000
     atom   46 type  3   force =     0.00000000    0.00000000    0.00000000
     atom   47 type  3   force =     0.00000000    0.00000000    0.00000000
     atom   48 type  3   force =     0.00000000    0.00000000    0.00000000
     atom   49 type  2   force =     0.00087746   -0.00157237    0.00038550
     atom   50 type  2   force =     0.00087706   -0.00157233    0.00038571
     atom   51 type  2   force =     0.00087796   -0.00157218    0.00038518
     atom   52 type  2   force =     0.00087760   -0.00157175    0.00038579
     atom   53 type  2   force =     0.00090258   -0.00153368    0.00036772
     atom   54 type  2   force =     0.00087755   -0.00157221    0.00038522
     atom   55 type  2   force =     0.00087756   -0.00157236    0.00038517
     atom   56 type  2   force =     0.00087749   -0.00157217    0.00038499
     atom   57 type  3   force =     0.00000000    0.00000000    0.00000000
     atom   58 type  3   force =     0.00000000    0.00000000    0.00000000
     atom   59 type  3   force =     0.00000000    0.00000000    0.00000000
     atom   60 type  3   force =     0.00000000    0.00000000    0.00000000
     atom   61 type  3   force =     0.00000000    0.00000000    0.00000000
     atom   62 type  3   force =     0.00000000    0.00000000    0.00000000
     atom   63 type  3   force =     0.00000000    0.00000000    0.00000000
     atom   64 type  3   force =     0.00000000    0.00000000    0.00000000
     atom   65 type  1   force =    -0.00325832   -0.00412400   -0.00297404
     atom   66 type  1   force =    -0.00325622   -0.00412446   -0.00297509
     atom   67 type  1   force =    -0.00325617   -0.00412417   -0.00297485
     atom   68 type  1   force =    -0.00325621   -0.00412438   -0.00297494
     atom   69 type  1   force =    -0.00325624   -0.00412422   -0.00297489
     atom   70 type  1   force =    -0.00325625   -0.00412422   -0.00297490
     atom   71 type  1   force =    -0.00325630   -0.00412427   -0.00297490
     atom   72 type  1   force =    -0.00325619   -0.00412428   -0.00297495
     atom   73 type  1   force =     0.01284274   -0.00666465   -0.00255925
     atom   74 type  1   force =     0.01284251   -0.00666367   -0.00256024
     atom   75 type  1   force =     0.01284245   -0.00666360   -0.00256028
     atom   76 type  1   force =     0.01284257   -0.00666373   -0.00256025
     atom   77 type  1   force =     0.01284241   -0.00666360   -0.00256020
     atom   78 type  1   force =     0.01284251   -0.00666360   -0.00256031
     atom   79 type  1   force =     0.01284232   -0.00666351   -0.00256014
     atom   80 type  1   force =     0.01284261   -0.00666370   -0.00256035
     atom   81 type  2   force =    -0.00105357   -0.00277404    0.00037910
     atom   82 type  2   force =    -0.00172164   -0.00232227    0.00022420
     atom   83 type  2   force =    -0.00172110   -0.00232284    0.00022342
     atom   84 type  2   force =    -0.00172085   -0.00232295    0.00022378
     atom   85 type  2   force =    -0.00172138   -0.00232302    0.00022372
     atom   86 type  2   force =    -0.00172159   -0.00232312    0.00022408
     atom   87 type  2   force =    -0.00172093   -0.00232268    0.00022381
     atom   88 type  2   force =    -0.00172093   -0.00232271    0.00022363
     atom   89 type  3   force =     0.00000000    0.00000000    0.00000000
     atom   90 type  3   force =     0.00000000    0.00000000    0.00000000
     atom   91 type  3   force =     0.00000000    0.00000000    0.00000000
     atom   92 type  3   force =     0.00000000    0.00000000    0.00000000
     atom   93 type  3   force =     0.00000000    0.00000000    0.00000000
     atom   94 type  3   force =     0.00000000    0.00000000    0.00000000
     atom   95 type  3   force =     0.00000000    0.00000000    0.00000000
     atom   96 type  3   force =     0.00000000    0.00000000    0.00000000
     atom   97 type  1   force =    -0.00403858    0.01083133   -0.00097747
     atom   98 type  1   force =    -0.00422253    0.01094908   -0.00091854
     atom   99 type  1   force =    -0.00403854    0.01083127   -0.00097747
     atom  100 type  1   force =    -0.00403858    0.01083133   -0.00097745
     atom  101 type  1   force =    -0.00403862    0.01083123   -0.00097747
     atom  102 type  1   force =    -0.00403862    0.01083125   -0.00097748
     atom  103 type  1   force =    -0.00403860    0.01083137   -0.00097749
     atom  104 type  1   force =    -0.00403848    0.01083136   -0.00097750
     atom  105 type  2   force =    -0.00229006   -0.00380061   -0.00000290
     atom  106 type  2   force =    -0.00228972   -0.00380163   -0.00000121
     atom  107 type  2   force =    -0.00228989   -0.00380061   -0.00000081
     atom  108 type  2   force =    -0.00229042   -0.00380067   -0.00000120
     atom  109 type  2   force =    -0.00228986   -0.00380025   -0.00000116
     atom  110 type  2   force =    -0.00229040   -0.00380040   -0.00000091
     atom  111 type  2   force =    -0.00229036   -0.00380075   -0.00000086
     atom  112 type  2   force =    -0.00229017   -0.00380045   -0.00000101
     atom  113 type  3   force =     0.00000000    0.00000000    0.00000000
     atom  114 type  3   force =     0.00000000    0.00000000    0.00000000
     atom  115 type  3   force =     0.00000000    0.00000000    0.00000000
     atom  116 type  3   force =     0.00000000    0.00000000    0.00000000
     atom  117 type  3   force =     0.00000000    0.00000000    0.00000000
     atom  118 type  3   force =     0.00000000    0.00000000    0.00000000
     atom  119 type  3   force =     0.00000000    0.00000000    0.00000000
     atom  120 type  3   force =     0.00000000    0.00000000    0.00000000
     atom  121 type  1   force =     0.00311524   -0.00438517    0.00260945
     atom  122 type  1   force =     0.00311475   -0.00438392    0.00260981
     atom  123 type  1   force =     0.00311523   -0.00438517    0.00260959
     atom  124 type  1   force =     0.00311519   -0.00438526    0.00260967
     atom  125 type  1   force =     0.00311529   -0.00438536    0.00260978
     atom  126 type  1   force =     0.00311518   -0.00438504    0.00260956
     atom  127 type  1   force =     0.00311521   -0.00438506    0.00260955
     atom  128 type  1   force =     0.00311532   -0.00438496    0.00260951
     atom  129 type  1   force =    -0.01340060   -0.00481515    0.00489594
     atom  130 type  1   force =    -0.01340013   -0.00481371    0.00489685
     atom  131 type  1   force =    -0.01340072   -0.00481511    0.00489608
     atom  132 type  1   force =    -0.01340074   -0.00481517    0.00489603
     atom  133 type  1   force =    -0.01340085   -0.00481528    0.00489622
     atom  134 type  1   force =    -0.01340074   -0.00481505    0.00489612
     atom  135 type  1   force =    -0.01340079   -0.00481513    0.00489606
     atom  136 type  1   force =    -0.01340051   -0.00481503    0.00489603
     atom  137 type  2   force =     0.00643132   -0.00179776    0.00006791
     atom  138 type  2   force =     0.00643143   -0.00179728    0.00006806
     atom  139 type  2   force =     0.00643113   -0.00179770    0.00006835
     atom  140 type  2   force =     0.00643115   -0.00179742    0.00006794
     atom  141 type  2   force =     0.00643114   -0.00179788    0.00006825
     atom  142 type  2   force =     0.00643105   -0.00179769    0.00006832
     atom  143 type  2   force =     0.00643127   -0.00179772    0.00006768
     atom  144 type  2   force =     0.00643161   -0.00179787    0.00006784
     atom  145 type  2   force =    -0.00302100    0.00019498    0.00027378
     atom  146 type  2   force =    -0.00302113    0.00019489    0.00027369
     atom  147 type  2   force =    -0.00302115    0.00019486    0.00027398
     atom  148 type  2   force =    -0.00302104    0.00019486    0.00027359
     atom  149 type  2   force =    -0.00302088    0.00019438    0.00027367
     atom  150 type  2   force =    -0.00302123    0.00019503    0.00027330
     atom  151 type  2   force =    -0.00302139    0.00019475    0.00027292
     atom  152 type  2   force =    -0.00302056    0.00019468    0.00027347
     atom  153 type  2   force =     0.00233801   -0.00277945    0.00032841
     atom  154 type  2   force =     0.00233786   -0.00277903    0.00032830
     atom  155 type  2   force =     0.00233801   -0.00277926    0.00032713
     atom  156 type  2   force =     0.00233847   -0.00277944    0.00032793
     atom  157 type  2   force =     0.00233799   -0.00277926    0.00032845
     atom  158 type  2   force =     0.00233822   -0.00277902    0.00032859
     atom  159 type  2   force =     0.00233819   -0.00277938    0.00032842
     atom  160 type  2   force =     0.00233795   -0.00277898    0.00032874
     atom  161 type  3   force =     0.00000000    0.00000000    0.00000000
     atom  162 type  3   force =     0.00000000    0.00000000    0.00000000
     atom  163 type  3   force =     0.00000000    0.00000000    0.00000000
     atom  164 type  3   force =     0.00000000    0.00000000    0.00000000
     atom  165 type  3   force =     0.00000000    0.00000000    0.00000000
     atom  166 type  3   force =     0.00000000    0.00000000    0.00000000
     atom  167 type  3   force =     0.00000000    0.00000000    0.00000000
     atom  168 type  3   force =     0.00000000    0.00000000    0.00000000
     atom  169 type  2   force =    -0.00087716    0.00157203    0.00038465
     atom  170 type  2   force =    -0.00087354    0.00157102    0.00038481
     atom  171 type  2   force =    -0.00087738    0.00157210    0.00038518
     atom  172 type  2   force =    -0.00087766    0.00157197    0.00038462
     atom  173 type  2   force =    -0.00087759    0.00157223    0.00038513
     atom  174 type  2   force =    -0.00087727    0.00157222    0.00038504
     atom  175 type  2   force =    -0.00087743    0.00157235    0.00038555
     atom  176 type  2   force =    -0.00087706    0.00157215    0.00038500
     atom  177 type  3   force =     0.00000000    0.00000000    0.00000000
     atom  178 type  3   force =     0.00000000    0.00000000    0.00000000
     atom  179 type  3   force =     0.00000000    0.00000000    0.00000000
     atom  180 type  3   force =     0.00000000    0.00000000    0.00000000
     atom  181 type  3   force =     0.00000000    0.00000000    0.00000000
     atom  182 type  3   force =     0.00000000    0.00000000    0.00000000
     atom  183 type  3   force =     0.00000000    0.00000000    0.00000000
     atom  184 type  3   force =     0.00000000    0.00000000    0.00000000
     atom  185 type  1   force =     0.00325626    0.00412425   -0.00297489
     atom  186 type  1   force =     0.00325632    0.00412444   -0.00297571
     atom  187 type  1   force =     0.00325623    0.00412426   -0.00297489
     atom  188 type  1   force =     0.00325624    0.00412419   -0.00297482
     atom  189 type  1   force =     0.00325602    0.00412374   -0.00297470
     atom  190 type  1   force =     0.00325628    0.00412432   -0.00297499
     atom  191 type  1   force =     0.00325623    0.00412430   -0.00297483
     atom  192 type  1   force =     0.00325642    0.00412407   -0.00297485
     atom  193 type  1   force =    -0.01284242    0.00666367   -0.00256038
     atom  194 type  1   force =    -0.01284292    0.00666394   -0.00256080
     atom  195 type  1   force =    -0.01284244    0.00666361   -0.00256022
     atom  196 type  1   force =    -0.01284243    0.00666352   -0.00256033
     atom  197 type  1   force =    -0.01284232    0.00666354   -0.00256015
     atom  198 type  1   force =    -0.01284239    0.00666363   -0.00256037
     atom  199 type  1   force =    -0.01284242    0.00666366   -0.00256034
     atom  200 type  1   force =    -0.01284234    0.00666366   -0.00256024
     atom  201 type  2   force =     0.00172108    0.00232304    0.00022387
     atom  202 type  2   force =     0.00172145    0.00232304    0.00022321
     atom  203 type  2   force =     0.00172117    0.00232274    0.00022375
     atom  204 type  2   force =     0.00172100    0.00232256    0.00022361
     atom  205 type  2   force =     0.00172117    0.00232278    0.00022309
     atom  206 type  2   force =     0.00172092    0.00232267    0.00022396
     atom  207 type  2   force =     0.00172105    0.00232309    0.00022421
     atom  208 type  2   force =     0.00172187    0.00232319    0.00022339
     atom  209 type  3   force =     0.00000000    0.00000000    0.00000000
     atom  210 type  3   force =     0.00000000    0.00000000    0.00000000
     atom  211 type  3   force =     0.00000000    0.00000000    0.00000000
     atom  212 type  3   force =     0.00000000    0.00000000    0.00000000
     atom  213 type  3   force =     0.00000000    0.00000000    0.00000000
     atom  214 type  3   force =     0.00000000    0.00000000    0.00000000
     atom  215 type  3   force =     0.00000000    0.00000000    0.00000000
     atom  216 type  3   force =     0.00000000    0.00000000    0.00000000
     atom  217 type  1   force =     0.00403863   -0.01083133   -0.00097750
     atom  218 type  1   force =     0.00403868   -0.01083121   -0.00097748
     atom  219 type  1   force =     0.00403860   -0.01083130   -0.00097753
     atom  220 type  1   force =     0.00403857   -0.01083130   -0.00097746
     atom  221 type  1   force =     0.00403861   -0.01083139   -0.00097744
     atom  222 type  1   force =     0.00403856   -0.01083130   -0.00097746
     atom  223 type  1   force =     0.00403861   -0.01083136   -0.00097757
     atom  224 type  1   force =     0.00403922   -0.01083150   -0.00097750
     atom  225 type  2   force =     0.00229028    0.00380052   -0.00000118
     atom  226 type  2   force =     0.00229021    0.00380055   -0.00000156
     atom  227 type  2   force =     0.00229073    0.00380065   -0.00000105
     atom  228 type  2   force =     0.00228990    0.00380082   -0.00000105
     atom  229 type  2   force =     0.00228796    0.00380745   -0.00000346
     atom  230 type  2   force =     0.00229034    0.00380051   -0.00000115
     atom  231 type  2   force =     0.00229013    0.00380043   -0.00000100
     atom  232 type  2   force =     0.00229030    0.00380081   -0.00000111
     atom  233 type  3   force =     0.00000000    0.00000000    0.00000000
     atom  234 type  3   force =     0.00000000    0.00000000    0.00000000
     atom  235 type  3   force =     0.00000000    0.00000000    0.00000000
     atom  236 type  3   force =     0.00000000    0.00000000    0.00000000
     atom  237 type  3   force =     0.00000000    0.00000000    0.00000000
     atom  238 type  3   force =     0.00000000    0.00000000    0.00000000
     atom  239 type  3   force =     0.00000000    0.00000000    0.00000000
     atom  240 type  3   force =     0.00000000    0.00000000    0.00000000
     atom  241 type  1   force =     0.00438530    0.00311528   -0.00260966
     atom  242 type  1   force =     0.00438412    0.00311516   -0.00260966
     atom  243 type  1   force =     0.00438516    0.00311522   -0.00260964
     atom  244 type  1   force =     0.00438515    0.00311519   -0.00260951
     atom  245 type  1   force =     0.00438501    0.00311519   -0.00260945
     atom  246 type  1   force =     0.00438521    0.00311523   -0.00260961
     atom  247 type  1   force =     0.00438501    0.00311520   -0.00260955
     atom  248 type  1   force =     0.00438525    0.00311529   -0.00260958
     atom  249 type  1   force =     0.00481528   -0.01340089   -0.00489618
     atom  250 type  1   force =     0.00481402   -0.01339912   -0.00489492
     atom  251 type  1   force =     0.00481510   -0.01340074   -0.00489613
     atom  252 type  1   force =     0.00481512   -0.01340078   -0.00489609
     atom  253 type  1   force =     0.00481510   -0.01340079   -0.00489606
     atom  254 type  1   force =     0.00481515   -0.01340069   -0.00489612
     atom  255 type  1   force =     0.00481508   -0.01340080   -0.00489620
     atom  256 type  1   force =     0.00481514   -0.01340074   -0.00489609
     atom  257 type  2   force =     0.00179812    0.00643107   -0.00006828
     atom  258 type  2   force =     0.00179766    0.00642988   -0.00006944
     atom  259 type  2   force =     0.00179757    0.00643109   -0.00006794
     atom  260 type  2   force =     0.00179774    0.00643120   -0.00006803
     atom  261 type  2   force =     0.00179750    0.00643123   -0.00006800
     atom  262 type  2   force =     0.00179780    0.00643140   -0.00006810
     atom  263 type  2   force =     0.00179776    0.00643119   -0.00006797
     atom  264 type  2   force =     0.00179781    0.00643152   -0.00006777
     atom  265 type  2   force =    -0.00019497   -0.00302073   -0.00027336
     atom  266 type  2   force =    -0.00019449   -0.00302204   -0.00027443
     atom  267 type  2   force =    -0.00019474   -0.00302128   -0.00027345
     atom  268 type  2   force =    -0.00019482   -0.00302115   -0.00027375
     atom  269 type  2   force =    -0.00019476   -0.00302141   -0.00027341
     atom  270 type  2   force =    -0.00019498   -0.00302113   -0.00027363
     atom  271 type  2   force =    -0.00019501   -0.00302162   -0.00027388
     atom  272 type  2   force =    -0.00019482   -0.00302116   -0.00027361
     atom  273 type  2   force =     0.00277910    0.00233820   -0.00032839
     atom  274 type  2   force =     0.00277884    0.00233714   -0.00032921
     atom  275 type  2   force =     0.00277893    0.00233806   -0.00032801
     atom  276 type  2   force =     0.00277911    0.00233789   -0.00032860
     atom  277 type  2   force =     0.00277884    0.00233840   -0.00032823
     atom  278 type  2   force =     0.00277933    0.00233772   -0.00032860
     atom  279 type  2   force =     0.00277895    0.00233810   -0.00032847
     atom  280 type  2   force =     0.00277919    0.00233812   -0.00032827
     atom  281 type  3   force =     0.00000000    0.00000000    0.00000000
     atom  282 type  3   force =     0.00000000    0.00000000    0.00000000
     atom  283 type  3   force =     0.00000000    0.00000000    0.00000000
     atom  284 type  3   force =     0.00000000    0.00000000    0.00000000
     atom  285 type  3   force =     0.00000000    0.00000000    0.00000000
     atom  286 type  3   force =     0.00000000    0.00000000    0.00000000
     atom  287 type  3   force =     0.00000000    0.00000000    0.00000000
     atom  288 type  3   force =     0.00000000    0.00000000    0.00000000
     atom  289 type  2   force =    -0.00157149   -0.00087711   -0.00038499
     atom  290 type  2   force =    -0.00157228   -0.00087738   -0.00038480
     atom  291 type  2   force =    -0.00157217   -0.00087742   -0.00038522
     atom  292 type  2   force =    -0.00157222   -0.00087741   -0.00038558
     atom  293 type  2   force =    -0.00157209   -0.00087772   -0.00038532
     atom  294 type  2   force =    -0.00157211   -0.00087755   -0.00038549
     atom  295 type  2   force =    -0.00157182   -0.00087758   -0.00038545
     atom  296 type  2   force =    -0.00157206   -0.00087755   -0.00038534
     atom  297 type  3   force =     0.00000000    0.00000000    0.00000000
     atom  298 type  3   force =     0.00000000    0.00000000    0.00000000
     atom  299 type  3   force =     0.00000000    0.00000000    0.00000000
     atom  300 type  3   force =     0.00000000    0.00000000    0.00000000
     atom  301 type  3   force =     0.00000000    0.00000000    0.00000000
     atom  302 type  3   force =     0.00000000    0.00000000    0.00000000
     atom  303 type  3   force =     0.00000000    0.00000000    0.00000000
     atom  304 type  3   force =     0.00000000    0.00000000    0.00000000
     atom  305 type  1   force =    -0.00412366    0.00325592    0.00297446
     atom  306 type  1   force =    -0.00412467    0.00325656    0.00297483
     atom  307 type  1   force =    -0.00412419    0.00325623    0.00297492
     atom  308 type  1   force =    -0.00412425    0.00325618    0.00297489
     atom  309 type  1   force =    -0.00412432    0.00325619    0.00297494
     atom  310 type  1   force =    -0.00412418    0.00325619    0.00297481
     atom  311 type  1   force =    -0.00412424    0.00325626    0.00297486
     atom  312 type  1   force =    -0.00412423    0.00325620    0.00297485
     atom  313 type  1   force =    -0.00666371   -0.01284249    0.00256035
     atom  314 type  1   force =    -0.00666428   -0.01284253    0.00256026
     atom  315 type  1   force =    -0.00666364   -0.01284244    0.00256024
     atom  316 type  1   force =    -0.00666369   -0.01284252    0.00256029
     atom  317 type  1   force =    -0.00666374   -0.01284243    0.00256035
     atom  318 type  1   force =    -0.00666363   -0.01284244    0.00256023
     atom  319 type  1   force =    -0.00666369   -0.01284244    0.00256030
     atom  320 type  1   force =    -0.00666364   -0.01284245    0.00256030
     atom  321 type  2   force =    -0.00232293    0.00172117   -0.00022346
     atom  322 type  2   force =    -0.00232344    0.00172085   -0.00022410
     atom  323 type  2   force =    -0.00232284    0.00172113   -0.00022349
     atom  324 type  2   force =    -0.00232273    0.00172099   -0.00022324
     atom  325 type  2   force =    -0.00232290    0.00172090   -0.00022346
     atom  326 type  2   force =    -0.00232310    0.00172128   -0.00022357
     atom  327 type  2   force =    -0.00232333    0.00172207   -0.00022373
     atom  328 type  2   force =    -0.00232288    0.00172120   -0.00022339
     atom  329 type  3   force =     0.00000000    0.00000000    0.00000000
     atom  330 type  3   force =     0.00000000    0.00000000    0.00000000
     atom  331 type  3   force =     0.00000000    0.00000000    0.00000000
     atom  332 type  3   force =     0.00000000    0.00000000    0.00000000
     atom  333 type  3   force =     0.00000000    0.00000000    0.00000000
     atom  334 type  3   force =     0.00000000    0.00000000    0.00000000
     atom  335 type  3   force =     0.00000000    0.00000000    0.00000000
     atom  336 type  3   force =     0.00000000    0.00000000    0.00000000
     atom  337 type  1   force =     0.01083139    0.00403863    0.00097755
     atom  338 type  1   force =     0.01083109    0.00403848    0.00097744
     atom  339 type  1   force =     0.01083134    0.00403856    0.00097752
     atom  340 type  1   force =     0.01083130    0.00403856    0.00097750
     atom  341 type  1   force =     0.01083122    0.00403856    0.00097750
     atom  342 type  1   force =     0.01083128    0.00403858    0.00097758
     atom  343 type  1   force =     0.01083279    0.00403916    0.00097768
     atom  344 type  1   force =     0.01083135    0.00403859    0.00097749
     atom  345 type  2   force =    -0.00380087    0.00229048    0.00000134
     atom  346 type  2   force =    -0.00380035    0.00228989    0.00000068
     atom  347 type  2   force =    -0.00380037    0.00228988    0.00000112
     atom  348 type  2   force =    -0.00380058    0.00229038    0.00000139
     atom  349 type  2   force =    -0.00380068    0.00229069    0.00000151
     atom  350 type  2   force =    -0.00380049    0.00229043    0.00000113
     atom  351 type  2   force =    -0.00380020    0.00229025    0.00000109
     atom  352 type  2   force =    -0.00380025    0.00229030    0.00000120
     atom  353 type  3   force =     0.00000000    0.00000000    0.00000000
     atom  354 type  3   force =     0.00000000    0.00000000    0.00000000
     atom  355 type  3   force =     0.00000000    0.00000000    0.00000000
     atom  356 type  3   force =     0.00000000    0.00000000    0.00000000
     atom  357 type  3   force =     0.00000000    0.00000000    0.00000000
     atom  358 type  3   force =     0.00000000    0.00000000    0.00000000
     atom  359 type  3   force =     0.00000000    0.00000000    0.00000000
     atom  360 type  3   force =     0.00000000    0.00000000    0.00000000
     atom  361 type  1   force =    -0.00438512   -0.00311522   -0.00260958
     atom  362 type  1   force =    -0.00438483   -0.00311505   -0.00260923
     atom  363 type  1   force =    -0.00438515   -0.00311515   -0.00260953
     atom  364 type  1   force =    -0.00438505   -0.00311534   -0.00260953
     atom  365 type  1   force =    -0.00438505   -0.00311527   -0.00260955
     atom  366 type  1   force =    -0.00438509   -0.00311519   -0.00260958
     atom  367 type  1   force =    -0.00438557   -0.00311540   -0.00260967
     atom  368 type  1   force =    -0.00438510   -0.00311514   -0.00260949
     atom  369 type  1   force =    -0.00481514    0.01340072   -0.00489606
     atom  370 type  1   force =    -0.00481511    0.01340069   -0.00489605
     atom  371 type  1   force =    -0.00481508    0.01340074   -0.00489605
     atom  372 type  1   force =    -0.00481502    0.01340084   -0.00489607
     atom  373 type  1   force =    -0.00481544    0.01340103   -0.00489612
     atom  374 type  1   force =    -0.00481501    0.01340076   -0.00489618
     atom  375 type  1   force =    -0.00481503    0.01340061   -0.00489605
     atom  376 type  1   force =    -0.00481509    0.01340069   -0.00489609
     atom  377 type  2   force =    -0.00179722   -0.00643137   -0.00006885
     atom  378 type  2   force =    -0.00179780   -0.00643143   -0.00006774
     atom  379 type  2   force =    -0.00179772   -0.00643124   -0.00006793
     atom  380 type  2   force =    -0.00179793   -0.00643122   -0.00006782
     atom  381 type  2   force =    -0.00179784   -0.00643105   -0.00006770
     atom  382 type  2   force =    -0.00179762   -0.00643121   -0.00006791
     atom  383 type  2   force =    -0.00179786   -0.00643141   -0.00006784
     atom  384 type  2   force =    -0.00179792   -0.00643103   -0.00006802
     atom  385 type  2   force =     0.00019442    0.00302125   -0.00027306
     atom  386 type  2   force =     0.00019461    0.00302071   -0.00027332
     atom  387 type  2   force =     0.00019462    0.00302125   -0.00027332
     atom  388 type  2   force =     0.00019492    0.00302126   -0.00027357
     atom  389 type  2   force =     0.00019429    0.00302076   -0.00027397
     atom  390 type  2   force =     0.00019482    0.00302125   -0.00027358
     atom  391 type  2   force =     0.00019483    0.00302101   -0.00027367
     atom  392 type  2   force =     0.00019468    0.00302156   -0.00027311
     atom  393 type  2   force =    -0.00277959   -0.00233734   -0.00032790
     atom  394 type  2   force =    -0.00277953   -0.00233845   -0.00032854
     atom  395 type  2   force =    -0.00277915   -0.00233781   -0.00032862
     atom  396 type  2   force =    -0.00277856   -0.00233785   -0.00032857
     atom  397 type  2   force =    -0.00277928   -0.00233775   -0.00032848
     atom  398 type  2   force =    -0.00277893   -0.00233772   -0.00032847
     atom  399 type  2   force =    -0.00277925   -0.00233801   -0.00032851
     atom  400 type  2   force =    -0.00277928   -0.00233798   -0.00032877
     atom  401 type  3   force =     0.00000000    0.00000000    0.00000000
     atom  402 type  3   force =     0.00000000    0.00000000    0.00000000
     atom  403 type  3   force =     0.00000000    0.00000000    0.00000000
     atom  404 type  3   force =     0.00000000    0.00000000    0.00000000
     atom  405 type  3   force =     0.00000000    0.00000000    0.00000000
     atom  406 type  3   force =     0.00000000    0.00000000    0.00000000
     atom  407 type  3   force =     0.00000000    0.00000000    0.00000000
     atom  408 type  3   force =     0.00000000    0.00000000    0.00000000
     atom  409 type  2   force =     0.00157203    0.00087645   -0.00038537
     atom  410 type  2   force =     0.00157250    0.00087714   -0.00038532
     atom  411 type  2   force =     0.00157209    0.00087750   -0.00038498
     atom  412 type  2   force =     0.00157229    0.00087734   -0.00038501
     atom  413 type  2   force =     0.00157250    0.00087751   -0.00038518
     atom  414 type  2   force =     0.00157215    0.00087725   -0.00038524
     atom  415 type  2   force =     0.00157193    0.00087771   -0.00038503
     atom  416 type  2   force =     0.00157254    0.00087752   -0.00038545
     atom  417 type  3   force =     0.00000000    0.00000000    0.00000000
     atom  418 type  3   force =     0.00000000    0.00000000    0.00000000
     atom  419 type  3   force =     0.00000000    0.00000000    0.00000000
     atom  420 type  3   force =     0.00000000    0.00000000    0.00000000
     atom  421 type  3   force =     0.00000000    0.00000000    0.00000000
     atom  422 type  3   force =     0.00000000    0.00000000    0.00000000
     atom  423 type  3   force =     0.00000000    0.00000000    0.00000000
     atom  424 type  3   force =     0.00000000    0.00000000    0.00000000
     atom  425 type  1   force =     0.00412422   -0.00325619    0.00297488
     atom  426 type  1   force =     0.00412394   -0.00325624    0.00297476
     atom  427 type  1   force =     0.00412430   -0.00325630    0.00297488
     atom  428 type  1   force =     0.00412440   -0.00325626    0.00297504
     atom  429 type  1   force =     0.00412393   -0.00325585    0.00297458
     atom  430 type  1   force =     0.00412428   -0.00325620    0.00297487
     atom  431 type  1   force =     0.00412435   -0.00325630    0.00297500
     atom  432 type  1   force =     0.00412432   -0.00325628    0.00297492
     atom  433 type  1   force =     0.00666367    0.01284249    0.00256030
     atom  434 type  1   force =     0.00666355    0.01284235    0.00256020
     atom  435 type  1   force =     0.00666363    0.01284250    0.00256032
     atom  436 type  1   force =     0.00666376    0.01284261    0.00256034
     atom  437 type  1   force =     0.00666337    0.01284201    0.00255994
     atom  438 type  1   force =     0.00666340    0.01284264    0.00256053
     atom  439 type  1   force =     0.00666369    0.01284249    0.00256027
     atom  440 type  1   force =     0.00666361    0.01284252    0.00256031
     atom  441 type  2   force =     0.00232259   -0.00172117   -0.00022329
     atom  442 type  2   force =     0.00232270   -0.00172139   -0.00022367
     atom  443 type  2   force =     0.00232317   -0.00172106   -0.00022379
     atom  444 type  2   force =     0.00232283   -0.00172118   -0.00022373
     atom  445 type  2   force =     0.00232283   -0.00172102   -0.00022351
     atom  446 type  2   force =     0.00232362   -0.00172085   -0.00022396
     atom  447 type  2   force =     0.00232286   -0.00172106   -0.00022349
     atom  448 type  2   force =     0.00232340   -0.00172116   -0.00022360
     atom  449 type  3   force =     0.00000000    0.00000000    0.00000000
     atom  450 type  3   force =     0.00000000    0.00000000    0.00000000
     atom  451 type  3   force =     0.00000000    0.00000000    0.00000000
     atom  452 type  3   force =     0.00000000    0.00000000    0.00000000
     atom  453 type  3   force =     0.00000000    0.00000000    0.00000000
     atom  454 type  3   force =     0.00000000    0.00000000    0.00000000
     atom  455 type  3   force =     0.00000000    0.00000000    0.00000000
     atom  456 type  3   force =     0.00000000    0.00000000    0.00000000
     atom  457 type  1   force =    -0.01083130   -0.00403857    0.00097746
     atom  458 type  1   force =    -0.01083132   -0.00403859    0.00097757
     atom  459 type  1   force =    -0.01083131   -0.00403856    0.00097751
     atom  460 type  1   force =    -0.01083134   -0.00403877    0.00097771
     atom  461 type  1   force =    -0.01083138   -0.00403860    0.00097755
     atom  462 type  1   force =    -0.01083126   -0.00403857    0.00097750
     atom  463 type  1   force =    -0.01083146   -0.00403861    0.00097754
     atom  464 type  1   force =    -0.01083125   -0.00403853    0.00097749
     atom  465 type  2   force =     0.00379994   -0.00229020    0.00000127
     atom  466 type  2   force =     0.00380042   -0.00229064    0.00000099
     atom  467 type  2   force =     0.00380055   -0.00229034    0.00000083
     atom  468 type  2   force =     0.00380082   -0.00229050    0.00000108
     atom  469 type  2   force =     0.00380023   -0.00229018    0.00000074
     atom  470 type  2   force =     0.00380041   -0.00229041    0.00000134
     atom  471 type  2   force =     0.00380096   -0.00229000    0.00000104
     atom  472 type  2   force =     0.00380044   -0.00229022    0.00000085
     atom  473 type  3   force =     0.00000000    0.00000000    0.00000000
     atom  474 type  3   force =     0.00000000    0.00000000    0.00000000
     atom  475 type  3   force =     0.00000000    0.00000000    0.00000000
     atom  476 type  3   force =     0.00000000    0.00000000    0.00000000
     atom  477 type  3   force =     0.00000000    0.00000000    0.00000000
     atom  478 type  3   force =     0.00000000    0.00000000    0.00000000
     atom  479 type  3   force =     0.00000000    0.00000000    0.00000000
     atom  480 type  3   force =     0.00000000    0.00000000    0.00000000
     atom  481 type  4   force =     0.00000000    0.00000000    0.00000000
     atom  482 type  4   force =     0.00000000    0.00000000    0.00000000
     atom  483 type  4   force =     0.00000000    0.00000000    0.00000000
     atom  484 type  4   force =     0.00000000    0.00000000    0.00000000
     atom  485 type  4   force =     0.00000000    0.00000000    0.00000000
     atom  486 type  4   force =     0.00000000    0.00000000    0.00000000
     atom  487 type  4   force =     0.00000000    0.00000000    0.00000000
     atom  488 type  4   force =     0.00000000    0.00000000    0.00000000
     atom  489 type  4   force =     0.00000000    0.00000000    0.00000000
     atom  490 type  4   force =     0.00000000    0.00000000    0.00000000
     atom  491 type  4   force =     0.00000000    0.00000000    0.00000000
     atom  492 type  4   force =     0.00000000    0.00000000    0.00000000
     atom  493 type  4   force =     0.00000000    0.00000000    0.00000000
     atom  494 type  4   force =     0.00000000    0.00000000    0.00000000
     atom  495 type  4   force =     0.00000000    0.00000000    0.00000000
     atom  496 type  4   force =     0.00000000    0.00000000    0.00000000
     The Hubbard contrib.    to forces
     atom    1 type  1   force =     0.00000000    0.00000000    0.00000000
     atom    2 type  1   force =     0.00000000    0.00000000    0.00000000
     atom    3 type  1   force =     0.00000000    0.00000000    0.00000000
     atom    4 type  1   force =     0.00000000    0.00000000    0.00000000
     atom    5 type  1   force =     0.00000000    0.00000000    0.00000000
     atom    6 type  1   force =     0.00000000    0.00000000    0.00000000
     atom    7 type  1   force =     0.00000000    0.00000000    0.00000000
     atom    8 type  1   force =     0.00000000    0.00000000    0.00000000
     atom    9 type  1   force =     0.00000000    0.00000000    0.00000000
     atom   10 type  1   force =     0.00000000    0.00000000    0.00000000
     atom   11 type  1   force =     0.00000000    0.00000000    0.00000000
     atom   12 type  1   force =     0.00000000    0.00000000    0.00000000
     atom   13 type  1   force =     0.00000000    0.00000000    0.00000000
     atom   14 type  1   force =     0.00000000    0.00000000    0.00000000
     atom   15 type  1   force =     0.00000000    0.00000000    0.00000000
     atom   16 type  1   force =     0.00000000    0.00000000    0.00000000
     atom   17 type  2   force =     0.00000000    0.00000000    0.00000000
     atom   18 type  2   force =     0.00000000    0.00000000    0.00000000
     atom   19 type  2   force =     0.00000000    0.00000000    0.00000000
     atom   20 type  2   force =     0.00000000    0.00000000    0.00000000
     atom   21 type  2   force =     0.00000000    0.00000000    0.00000000
     atom   22 type  2   force =     0.00000000    0.00000000    0.00000000
     atom   23 type  2   force =     0.00000000    0.00000000    0.00000000
     atom   24 type  2   force =     0.00000000    0.00000000    0.00000000
     atom   25 type  2   force =     0.00000000    0.00000000    0.00000000
     atom   26 type  2   force =     0.00000000    0.00000000    0.00000000
     atom   27 type  2   force =     0.00000000    0.00000000    0.00000000
     atom   28 type  2   force =     0.00000000    0.00000000    0.00000000
     atom   29 type  2   force =     0.00000000    0.00000000    0.00000000
     atom   30 type  2   force =     0.00000000    0.00000000    0.00000000
     atom   31 type  2   force =     0.00000000    0.00000000    0.00000000
     atom   32 type  2   force =     0.00000000    0.00000000    0.00000000
     atom   33 type  2   force =     0.00000000    0.00000000    0.00000000
     atom   34 type  2   force =     0.00000000    0.00000000    0.00000000
     atom   35 type  2   force =     0.00000000    0.00000000    0.00000000
     atom   36 type  2   force =     0.00000000    0.00000000    0.00000000
     atom   37 type  2   force =     0.00000000    0.00000000    0.00000000
     atom   38 type  2   force =     0.00000000    0.00000000    0.00000000
     atom   39 type  2   force =     0.00000000    0.00000000    0.00000000
     atom   40 type  2   force =     0.00000000    0.00000000    0.00000000
     atom   41 type  3   force =     0.00000000    0.00000000    0.00000000
     atom   42 type  3   force =     0.00000000    0.00000000    0.00000000
     atom   43 type  3   force =     0.00000000    0.00000000    0.00000000
     atom   44 type  3   force =     0.00000000    0.00000000    0.00000000
     atom   45 type  3   force =     0.00000000    0.00000000    0.00000000
     atom   46 type  3   force =     0.00000000    0.00000000    0.00000000
     atom   47 type  3   force =     0.00000000    0.00000000    0.00000000
     atom   48 type  3   force =     0.00000000    0.00000000    0.00000000
     atom   49 type  2   force =     0.00000000    0.00000000    0.00000000
     atom   50 type  2   force =     0.00000000    0.00000000    0.00000000
     atom   51 type  2   force =     0.00000000    0.00000000    0.00000000
     atom   52 type  2   force =     0.00000000    0.00000000    0.00000000
     atom   53 type  2   force =     0.00000000    0.00000000    0.00000000
     atom   54 type  2   force =     0.00000000    0.00000000    0.00000000
     atom   55 type  2   force =     0.00000000    0.00000000    0.00000000
     atom   56 type  2   force =     0.00000000    0.00000000    0.00000000
     atom   57 type  3   force =     0.00000000    0.00000000    0.00000000
     atom   58 type  3   force =     0.00000000    0.00000000    0.00000000
     atom   59 type  3   force =     0.00000000    0.00000000    0.00000000
     atom   60 type  3   force =     0.00000000    0.00000000    0.00000000
     atom   61 type  3   force =     0.00000000    0.00000000    0.00000000
     atom   62 type  3   force =     0.00000000    0.00000000    0.00000000
     atom   63 type  3   force =     0.00000000    0.00000000    0.00000000
     atom   64 type  3   force =     0.00000000    0.00000000    0.00000000
     atom   65 type  1   force =     0.00000000    0.00000000    0.00000000
     atom   66 type  1   force =     0.00000000    0.00000000    0.00000000
     atom   67 type  1   force =     0.00000000    0.00000000    0.00000000
     atom   68 type  1   force =     0.00000000    0.00000000    0.00000000
     atom   69 type  1   force =     0.00000000    0.00000000    0.00000000
     atom   70 type  1   force =     0.00000000    0.00000000    0.00000000
     atom   71 type  1   force =     0.00000000    0.00000000    0.00000000
     atom   72 type  1   force =     0.00000000    0.00000000    0.00000000
     atom   73 type  1   force =     0.00000000    0.00000000    0.00000000
     atom   74 type  1   force =     0.00000000    0.00000000    0.00000000
     atom   75 type  1   force =     0.00000000    0.00000000    0.00000000
     atom   76 type  1   force =     0.00000000    0.00000000    0.00000000
     atom   77 type  1   force =     0.00000000    0.00000000    0.00000000
     atom   78 type  1   force =     0.00000000    0.00000000    0.00000000
     atom   79 type  1   force =     0.00000000    0.00000000    0.00000000
     atom   80 type  1   force =     0.00000000    0.00000000    0.00000000
     atom   81 type  2   force =     0.00000000    0.00000000    0.00000000
     atom   82 type  2   force =     0.00000000    0.00000000    0.00000000
     atom   83 type  2   force =     0.00000000    0.00000000    0.00000000
     atom   84 type  2   force =     0.00000000    0.00000000    0.00000000
     atom   85 type  2   force =     0.00000000    0.00000000    0.00000000
     atom   86 type  2   force =     0.00000000    0.00000000    0.00000000
     atom   87 type  2   force =     0.00000000    0.00000000    0.00000000
     atom   88 type  2   force =     0.00000000    0.00000000    0.00000000
     atom   89 type  3   force =     0.00000000    0.00000000    0.00000000
     atom   90 type  3   force =     0.00000000    0.00000000    0.00000000
     atom   91 type  3   force =     0.00000000    0.00000000    0.00000000
     atom   92 type  3   force =     0.00000000    0.00000000    0.00000000
     atom   93 type  3   force =     0.00000000    0.00000000    0.00000000
     atom   94 type  3   force =     0.00000000    0.00000000    0.00000000
     atom   95 type  3   force =     0.00000000    0.00000000    0.00000000
     atom   96 type  3   force =     0.00000000    0.00000000    0.00000000
     atom   97 type  1   force =     0.00000000    0.00000000    0.00000000
     atom   98 type  1   force =     0.00000000    0.00000000    0.00000000
     atom   99 type  1   force =     0.00000000    0.00000000    0.00000000
     atom  100 type  1   force =     0.00000000    0.00000000    0.00000000
     atom  101 type  1   force =     0.00000000    0.00000000    0.00000000
     atom  102 type  1   force =     0.00000000    0.00000000    0.00000000
     atom  103 type  1   force =     0.00000000    0.00000000    0.00000000
     atom  104 type  1   force =     0.00000000    0.00000000    0.00000000
     atom  105 type  2   force =     0.00000000    0.00000000    0.00000000
     atom  106 type  2   force =     0.00000000    0.00000000    0.00000000
     atom  107 type  2   force =     0.00000000    0.00000000    0.00000000
     atom  108 type  2   force =     0.00000000    0.00000000    0.00000000
     atom  109 type  2   force =     0.00000000    0.00000000    0.00000000
     atom  110 type  2   force =     0.00000000    0.00000000    0.00000000
     atom  111 type  2   force =     0.00000000    0.00000000    0.00000000
     atom  112 type  2   force =     0.00000000    0.00000000    0.00000000
     atom  113 type  3   force =     0.00000000    0.00000000    0.00000000
     atom  114 type  3   force =     0.00000000    0.00000000    0.00000000
     atom  115 type  3   force =     0.00000000    0.00000000    0.00000000
     atom  116 type  3   force =     0.00000000    0.00000000    0.00000000
     atom  117 type  3   force =     0.00000000    0.00000000    0.00000000
     atom  118 type  3   force =     0.00000000    0.00000000    0.00000000
     atom  119 type  3   force =     0.00000000    0.00000000    0.00000000
     atom  120 type  3   force =     0.00000000    0.00000000    0.00000000
     atom  121 type  1   force =     0.00000000    0.00000000    0.00000000
     atom  122 type  1   force =     0.00000000    0.00000000    0.00000000
     atom  123 type  1   force =     0.00000000    0.00000000    0.00000000
     atom  124 type  1   force =     0.00000000    0.00000000    0.00000000
     atom  125 type  1   force =     0.00000000    0.00000000    0.00000000
     atom  126 type  1   force =     0.00000000    0.00000000    0.00000000
     atom  127 type  1   force =     0.00000000    0.00000000    0.00000000
     atom  128 type  1   force =     0.00000000    0.00000000    0.00000000
     atom  129 type  1   force =     0.00000000    0.00000000    0.00000000
     atom  130 type  1   force =     0.00000000    0.00000000    0.00000000
     atom  131 type  1   force =     0.00000000    0.00000000    0.00000000
     atom  132 type  1   force =     0.00000000    0.00000000    0.00000000
     atom  133 type  1   force =     0.00000000    0.00000000    0.00000000
     atom  134 type  1   force =     0.00000000    0.00000000    0.00000000
     atom  135 type  1   force =     0.00000000    0.00000000    0.00000000
     atom  136 type  1   force =     0.00000000    0.00000000    0.00000000
     atom  137 type  2   force =     0.00000000    0.00000000    0.00000000
     atom  138 type  2   force =     0.00000000    0.00000000    0.00000000
     atom  139 type  2   force =     0.00000000    0.00000000    0.00000000
     atom  140 type  2   force =     0.00000000    0.00000000    0.00000000
     atom  141 type  2   force =     0.00000000    0.00000000    0.00000000
     atom  142 type  2   force =     0.00000000    0.00000000    0.00000000
     atom  143 type  2   force =     0.00000000    0.00000000    0.00000000
     atom  144 type  2   force =     0.00000000    0.00000000    0.00000000
     atom  145 type  2   force =     0.00000000    0.00000000    0.00000000
     atom  146 type  2   force =     0.00000000    0.00000000    0.00000000
     atom  147 type  2   force =     0.00000000    0.00000000    0.00000000
     atom  148 type  2   force =     0.00000000    0.00000000    0.00000000
     atom  149 type  2   force =     0.00000000    0.00000000    0.00000000
     atom  150 type  2   force =     0.00000000    0.00000000    0.00000000
     atom  151 type  2   force =     0.00000000    0.00000000    0.00000000
     atom  152 type  2   force =     0.00000000    0.00000000    0.00000000
     atom  153 type  2   force =     0.00000000    0.00000000    0.00000000
     atom  154 type  2   force =     0.00000000    0.00000000    0.00000000
     atom  155 type  2   force =     0.00000000    0.00000000    0.00000000
     atom  156 type  2   force =     0.00000000    0.00000000    0.00000000
     atom  157 type  2   force =     0.00000000    0.00000000    0.00000000
     atom  158 type  2   force =     0.00000000    0.00000000    0.00000000
     atom  159 type  2   force =     0.00000000    0.00000000    0.00000000
     atom  160 type  2   force =     0.00000000    0.00000000    0.00000000
     atom  161 type  3   force =     0.00000000    0.00000000    0.00000000
     atom  162 type  3   force =     0.00000000    0.00000000    0.00000000
     atom  163 type  3   force =     0.00000000    0.00000000    0.00000000
     atom  164 type  3   force =     0.00000000    0.00000000    0.00000000
     atom  165 type  3   force =     0.00000000    0.00000000    0.00000000
     atom  166 type  3   force =     0.00000000    0.00000000    0.00000000
     atom  167 type  3   force =     0.00000000    0.00000000    0.00000000
     atom  168 type  3   force =     0.00000000    0.00000000    0.00000000
     atom  169 type  2   force =     0.00000000    0.00000000    0.00000000
     atom  170 type  2   force =     0.00000000    0.00000000    0.00000000
     atom  171 type  2   force =     0.00000000    0.00000000    0.00000000
     atom  172 type  2   force =     0.00000000    0.00000000    0.00000000
     atom  173 type  2   force =     0.00000000    0.00000000    0.00000000
     atom  174 type  2   force =     0.00000000    0.00000000    0.00000000
     atom  175 type  2   force =     0.00000000    0.00000000    0.00000000
     atom  176 type  2   force =     0.00000000    0.00000000    0.00000000
     atom  177 type  3   force =     0.00000000    0.00000000    0.00000000
     atom  178 type  3   force =     0.00000000    0.00000000    0.00000000
     atom  179 type  3   force =     0.00000000    0.00000000    0.00000000
     atom  180 type  3   force =     0.00000000    0.00000000    0.00000000
     atom  181 type  3   force =     0.00000000    0.00000000    0.00000000
     atom  182 type  3   force =     0.00000000    0.00000000    0.00000000
     atom  183 type  3   force =     0.00000000    0.00000000    0.00000000
     atom  184 type  3   force =     0.00000000    0.00000000    0.00000000
     atom  185 type  1   force =     0.00000000    0.00000000    0.00000000
     atom  186 type  1   force =     0.00000000    0.00000000    0.00000000
     atom  187 type  1   force =     0.00000000    0.00000000    0.00000000
     atom  188 type  1   force =     0.00000000    0.00000000    0.00000000
     atom  189 type  1   force =     0.00000000    0.00000000    0.00000000
     atom  190 type  1   force =     0.00000000    0.00000000    0.00000000
     atom  191 type  1   force =     0.00000000    0.00000000    0.00000000
     atom  192 type  1   force =     0.00000000    0.00000000    0.00000000
     atom  193 type  1   force =     0.00000000    0.00000000    0.00000000
     atom  194 type  1   force =     0.00000000    0.00000000    0.00000000
     atom  195 type  1   force =     0.00000000    0.00000000    0.00000000
     atom  196 type  1   force =     0.00000000    0.00000000    0.00000000
     atom  197 type  1   force =     0.00000000    0.00000000    0.00000000
     atom  198 type  1   force =     0.00000000    0.00000000    0.00000000
     atom  199 type  1   force =     0.00000000    0.00000000    0.00000000
     atom  200 type  1   force =     0.00000000    0.00000000    0.00000000
     atom  201 type  2   force =     0.00000000    0.00000000    0.00000000
     atom  202 type  2   force =     0.00000000    0.00000000    0.00000000
     atom  203 type  2   force =     0.00000000    0.00000000    0.00000000
     atom  204 type  2   force =     0.00000000    0.00000000    0.00000000
     atom  205 type  2   force =     0.00000000    0.00000000    0.00000000
     atom  206 type  2   force =     0.00000000    0.00000000    0.00000000
     atom  207 type  2   force =     0.00000000    0.00000000    0.00000000
     atom  208 type  2   force =     0.00000000    0.00000000    0.00000000
     atom  209 type  3   force =     0.00000000    0.00000000    0.00000000
     atom  210 type  3   force =     0.00000000    0.00000000    0.00000000
     atom  211 type  3   force =     0.00000000    0.00000000    0.00000000
     atom  212 type  3   force =     0.00000000    0.00000000    0.00000000
     atom  213 type  3   force =     0.00000000    0.00000000    0.00000000
     atom  214 type  3   force =     0.00000000    0.00000000    0.00000000
     atom  215 type  3   force =     0.00000000    0.00000000    0.00000000
     atom  216 type  3   force =     0.00000000    0.00000000    0.00000000
     atom  217 type  1   force =     0.00000000    0.00000000    0.00000000
     atom  218 type  1   force =     0.00000000    0.00000000    0.00000000
     atom  219 type  1   force =     0.00000000    0.00000000    0.00000000
     atom  220 type  1   force =     0.00000000    0.00000000    0.00000000
     atom  221 type  1   force =     0.00000000    0.00000000    0.00000000
     atom  222 type  1   force =     0.00000000    0.00000000    0.00000000
     atom  223 type  1   force =     0.00000000    0.00000000    0.00000000
     atom  224 type  1   force =     0.00000000    0.00000000    0.00000000
     atom  225 type  2   force =     0.00000000    0.00000000    0.00000000
     atom  226 type  2   force =     0.00000000    0.00000000    0.00000000
     atom  227 type  2   force =     0.00000000    0.00000000    0.00000000
     atom  228 type  2   force =     0.00000000    0.00000000    0.00000000
     atom  229 type  2   force =     0.00000000    0.00000000    0.00000000
     atom  230 type  2   force =     0.00000000    0.00000000    0.00000000
     atom  231 type  2   force =     0.00000000    0.00000000    0.00000000
     atom  232 type  2   force =     0.00000000    0.00000000    0.00000000
     atom  233 type  3   force =     0.00000000    0.00000000    0.00000000
     atom  234 type  3   force =     0.00000000    0.00000000    0.00000000
     atom  235 type  3   force =     0.00000000    0.00000000    0.00000000
     atom  236 type  3   force =     0.00000000    0.00000000    0.00000000
     atom  237 type  3   force =     0.00000000    0.00000000    0.00000000
     atom  238 type  3   force =     0.00000000    0.00000000    0.00000000
     atom  239 type  3   force =     0.00000000    0.00000000    0.00000000
     atom  240 type  3   force =     0.00000000    0.00000000    0.00000000
     atom  241 type  1   force =     0.00000000    0.00000000    0.00000000
     atom  242 type  1   force =     0.00000000    0.00000000    0.00000000
     atom  243 type  1   force =     0.00000000    0.00000000    0.00000000
     atom  244 type  1   force =     0.00000000    0.00000000    0.00000000
     atom  245 type  1   force =     0.00000000    0.00000000    0.00000000
     atom  246 type  1   force =     0.00000000    0.00000000    0.00000000
     atom  247 type  1   force =     0.00000000    0.00000000    0.00000000
     atom  248 type  1   force =     0.00000000    0.00000000    0.00000000
     atom  249 type  1   force =     0.00000000    0.00000000    0.00000000
     atom  250 type  1   force =     0.00000000    0.00000000    0.00000000
     atom  251 type  1   force =     0.00000000    0.00000000    0.00000000
     atom  252 type  1   force =     0.00000000    0.00000000    0.00000000
     atom  253 type  1   force =     0.00000000    0.00000000    0.00000000
     atom  254 type  1   force =     0.00000000    0.00000000    0.00000000
     atom  255 type  1   force =     0.00000000    0.00000000    0.00000000
     atom  256 type  1   force =     0.00000000    0.00000000    0.00000000
     atom  257 type  2   force =     0.00000000    0.00000000    0.00000000
     atom  258 type  2   force =     0.00000000    0.00000000    0.00000000
     atom  259 type  2   force =     0.00000000    0.00000000    0.00000000
     atom  260 type  2   force =     0.00000000    0.00000000    0.00000000
     atom  261 type  2   force =     0.00000000    0.00000000    0.00000000
     atom  262 type  2   force =     0.00000000    0.00000000    0.00000000
     atom  263 type  2   force =     0.00000000    0.00000000    0.00000000
     atom  264 type  2   force =     0.00000000    0.00000000    0.00000000
     atom  265 type  2   force =     0.00000000    0.00000000    0.00000000
     atom  266 type  2   force =     0.00000000    0.00000000    0.00000000
     atom  267 type  2   force =     0.00000000    0.00000000    0.00000000
     atom  268 type  2   force =     0.00000000    0.00000000    0.00000000
     atom  269 type  2   force =     0.00000000    0.00000000    0.00000000
     atom  270 type  2   force =     0.00000000    0.00000000    0.00000000
     atom  271 type  2   force =     0.00000000    0.00000000    0.00000000
     atom  272 type  2   force =     0.00000000    0.00000000    0.00000000
     atom  273 type  2   force =     0.00000000    0.00000000    0.00000000
     atom  274 type  2   force =     0.00000000    0.00000000    0.00000000
     atom  275 type  2   force =     0.00000000    0.00000000    0.00000000
     atom  276 type  2   force =     0.00000000    0.00000000    0.00000000
     atom  277 type  2   force =     0.00000000    0.00000000    0.00000000
     atom  278 type  2   force =     0.00000000    0.00000000    0.00000000
     atom  279 type  2   force =     0.00000000    0.00000000    0.00000000
     atom  280 type  2   force =     0.00000000    0.00000000    0.00000000
     atom  281 type  3   force =     0.00000000    0.00000000    0.00000000
     atom  282 type  3   force =     0.00000000    0.00000000    0.00000000
     atom  283 type  3   force =     0.00000000    0.00000000    0.00000000
     atom  284 type  3   force =     0.00000000    0.00000000    0.00000000
     atom  285 type  3   force =     0.00000000    0.00000000    0.00000000
     atom  286 type  3   force =     0.00000000    0.00000000    0.00000000
     atom  287 type  3   force =     0.00000000    0.00000000    0.00000000
     atom  288 type  3   force =     0.00000000    0.00000000    0.00000000
     atom  289 type  2   force =     0.00000000    0.00000000    0.00000000
     atom  290 type  2   force =     0.00000000    0.00000000    0.00000000
     atom  291 type  2   force =     0.00000000    0.00000000    0.00000000
     atom  292 type  2   force =     0.00000000    0.00000000    0.00000000
     atom  293 type  2   force =     0.00000000    0.00000000    0.00000000
     atom  294 type  2   force =     0.00000000    0.00000000    0.00000000
     atom  295 type  2   force =     0.00000000    0.00000000    0.00000000
     atom  296 type  2   force =     0.00000000    0.00000000    0.00000000
     atom  297 type  3   force =     0.00000000    0.00000000    0.00000000
     atom  298 type  3   force =     0.00000000    0.00000000    0.00000000
     atom  299 type  3   force =     0.00000000    0.00000000    0.00000000
     atom  300 type  3   force =     0.00000000    0.00000000    0.00000000
     atom  301 type  3   force =     0.00000000    0.00000000    0.00000000
     atom  302 type  3   force =     0.00000000    0.00000000    0.00000000
     atom  303 type  3   force =     0.00000000    0.00000000    0.00000000
     atom  304 type  3   force =     0.00000000    0.00000000    0.00000000
     atom  305 type  1   force =     0.00000000    0.00000000    0.00000000
     atom  306 type  1   force =     0.00000000    0.00000000    0.00000000
     atom  307 type  1   force =     0.00000000    0.00000000    0.00000000
     atom  308 type  1   force =     0.00000000    0.00000000    0.00000000
     atom  309 type  1   force =     0.00000000    0.00000000    0.00000000
     atom  310 type  1   force =     0.00000000    0.00000000    0.00000000
     atom  311 type  1   force =     0.00000000    0.00000000    0.00000000
     atom  312 type  1   force =     0.00000000    0.00000000    0.00000000
     atom  313 type  1   force =     0.00000000    0.00000000    0.00000000
     atom  314 type  1   force =     0.00000000    0.00000000    0.00000000
     atom  315 type  1   force =     0.00000000    0.00000000    0.00000000
     atom  316 type  1   force =     0.00000000    0.00000000    0.00000000
     atom  317 type  1   force =     0.00000000    0.00000000    0.00000000
     atom  318 type  1   force =     0.00000000    0.00000000    0.00000000
     atom  319 type  1   force =     0.00000000    0.00000000    0.00000000
     atom  320 type  1   force =     0.00000000    0.00000000    0.00000000
     atom  321 type  2   force =     0.00000000    0.00000000    0.00000000
     atom  322 type  2   force =     0.00000000    0.00000000    0.00000000
     atom  323 type  2   force =     0.00000000    0.00000000    0.00000000
     atom  324 type  2   force =     0.00000000    0.00000000    0.00000000
     atom  325 type  2   force =     0.00000000    0.00000000    0.00000000
     atom  326 type  2   force =     0.00000000    0.00000000    0.00000000
     atom  327 type  2   force =     0.00000000    0.00000000    0.00000000
     atom  328 type  2   force =     0.00000000    0.00000000    0.00000000
     atom  329 type  3   force =     0.00000000    0.00000000    0.00000000
     atom  330 type  3   force =     0.00000000    0.00000000    0.00000000
     atom  331 type  3   force =     0.00000000    0.00000000    0.00000000
     atom  332 type  3   force =     0.00000000    0.00000000    0.00000000
     atom  333 type  3   force =     0.00000000    0.00000000    0.00000000
     atom  334 type  3   force =     0.00000000    0.00000000    0.00000000
     atom  335 type  3   force =     0.00000000    0.00000000    0.00000000
     atom  336 type  3   force =     0.00000000    0.00000000    0.00000000
     atom  337 type  1   force =     0.00000000    0.00000000    0.00000000
     atom  338 type  1   force =     0.00000000    0.00000000    0.00000000
     atom  339 type  1   force =     0.00000000    0.00000000    0.00000000
     atom  340 type  1   force =     0.00000000    0.00000000    0.00000000
     atom  341 type  1   force =     0.00000000    0.00000000    0.00000000
     atom  342 type  1   force =     0.00000000    0.00000000    0.00000000
     atom  343 type  1   force =     0.00000000    0.00000000    0.00000000
     atom  344 type  1   force =     0.00000000    0.00000000    0.00000000
     atom  345 type  2   force =     0.00000000    0.00000000    0.00000000
     atom  346 type  2   force =     0.00000000    0.00000000    0.00000000
     atom  347 type  2   force =     0.00000000    0.00000000    0.00000000
     atom  348 type  2   force =     0.00000000    0.00000000    0.00000000
     atom  349 type  2   force =     0.00000000    0.00000000    0.00000000
     atom  350 type  2   force =     0.00000000    0.00000000    0.00000000
     atom  351 type  2   force =     0.00000000    0.00000000    0.00000000
     atom  352 type  2   force =     0.00000000    0.00000000    0.00000000
     atom  353 type  3   force =     0.00000000    0.00000000    0.00000000
     atom  354 type  3   force =     0.00000000    0.00000000    0.00000000
     atom  355 type  3   force =     0.00000000    0.00000000    0.00000000
     atom  356 type  3   force =     0.00000000    0.00000000    0.00000000
     atom  357 type  3   force =     0.00000000    0.00000000    0.00000000
     atom  358 type  3   force =     0.00000000    0.00000000    0.00000000
     atom  359 type  3   force =     0.00000000    0.00000000    0.00000000
     atom  360 type  3   force =     0.00000000    0.00000000    0.00000000
     atom  361 type  1   force =     0.00000000    0.00000000    0.00000000
     atom  362 type  1   force =     0.00000000    0.00000000    0.00000000
     atom  363 type  1   force =     0.00000000    0.00000000    0.00000000
     atom  364 type  1   force =     0.00000000    0.00000000    0.00000000
     atom  365 type  1   force =     0.00000000    0.00000000    0.00000000
     atom  366 type  1   force =     0.00000000    0.00000000    0.00000000
     atom  367 type  1   force =     0.00000000    0.00000000    0.00000000
     atom  368 type  1   force =     0.00000000    0.00000000    0.00000000
     atom  369 type  1   force =     0.00000000    0.00000000    0.00000000
     atom  370 type  1   force =     0.00000000    0.00000000    0.00000000
     atom  371 type  1   force =     0.00000000    0.00000000    0.00000000
     atom  372 type  1   force =     0.00000000    0.00000000    0.00000000
     atom  373 type  1   force =     0.00000000    0.00000000    0.00000000
     atom  374 type  1   force =     0.00000000    0.00000000    0.00000000
     atom  375 type  1   force =     0.00000000    0.00000000    0.00000000
     atom  376 type  1   force =     0.00000000    0.00000000    0.00000000
     atom  377 type  2   force =     0.00000000    0.00000000    0.00000000
     atom  378 type  2   force =     0.00000000    0.00000000    0.00000000
     atom  379 type  2   force =     0.00000000    0.00000000    0.00000000
     atom  380 type  2   force =     0.00000000    0.00000000    0.00000000
     atom  381 type  2   force =     0.00000000    0.00000000    0.00000000
     atom  382 type  2   force =     0.00000000    0.00000000    0.00000000
     atom  383 type  2   force =     0.00000000    0.00000000    0.00000000
     atom  384 type  2   force =     0.00000000    0.00000000    0.00000000
     atom  385 type  2   force =     0.00000000    0.00000000    0.00000000
     atom  386 type  2   force =     0.00000000    0.00000000    0.00000000
     atom  387 type  2   force =     0.00000000    0.00000000    0.00000000
     atom  388 type  2   force =     0.00000000    0.00000000    0.00000000
     atom  389 type  2   force =     0.00000000    0.00000000    0.00000000
     atom  390 type  2   force =     0.00000000    0.00000000    0.00000000
     atom  391 type  2   force =     0.00000000    0.00000000    0.00000000
     atom  392 type  2   force =     0.00000000    0.00000000    0.00000000
     atom  393 type  2   force =     0.00000000    0.00000000    0.00000000
     atom  394 type  2   force =     0.00000000    0.00000000    0.00000000
     atom  395 type  2   force =     0.00000000    0.00000000    0.00000000
     atom  396 type  2   force =     0.00000000    0.00000000    0.00000000
     atom  397 type  2   force =     0.00000000    0.00000000    0.00000000
     atom  398 type  2   force =     0.00000000    0.00000000    0.00000000
     atom  399 type  2   force =     0.00000000    0.00000000    0.00000000
     atom  400 type  2   force =     0.00000000    0.00000000    0.00000000
     atom  401 type  3   force =     0.00000000    0.00000000    0.00000000
     atom  402 type  3   force =     0.00000000    0.00000000    0.00000000
     atom  403 type  3   force =     0.00000000    0.00000000    0.00000000
     atom  404 type  3   force =     0.00000000    0.00000000    0.00000000
     atom  405 type  3   force =     0.00000000    0.00000000    0.00000000
     atom  406 type  3   force =     0.00000000    0.00000000    0.00000000
     atom  407 type  3   force =     0.00000000    0.00000000    0.00000000
     atom  408 type  3   force =     0.00000000    0.00000000    0.00000000
     atom  409 type  2   force =     0.00000000    0.00000000    0.00000000
     atom  410 type  2   force =     0.00000000    0.00000000    0.00000000
     atom  411 type  2   force =     0.00000000    0.00000000    0.00000000
     atom  412 type  2   force =     0.00000000    0.00000000    0.00000000
     atom  413 type  2   force =     0.00000000    0.00000000    0.00000000
     atom  414 type  2   force =     0.00000000    0.00000000    0.00000000
     atom  415 type  2   force =     0.00000000    0.00000000    0.00000000
     atom  416 type  2   force =     0.00000000    0.00000000    0.00000000
     atom  417 type  3   force =     0.00000000    0.00000000    0.00000000
     atom  418 type  3   force =     0.00000000    0.00000000    0.00000000
     atom  419 type  3   force =     0.00000000    0.00000000    0.00000000
     atom  420 type  3   force =     0.00000000    0.00000000    0.00000000
     atom  421 type  3   force =     0.00000000    0.00000000    0.00000000
     atom  422 type  3   force =     0.00000000    0.00000000    0.00000000
     atom  423 type  3   force =     0.00000000    0.00000000    0.00000000
     atom  424 type  3   force =     0.00000000    0.00000000    0.00000000
     atom  425 type  1   force =     0.00000000    0.00000000    0.00000000
     atom  426 type  1   force =     0.00000000    0.00000000    0.00000000
     atom  427 type  1   force =     0.00000000    0.00000000    0.00000000
     atom  428 type  1   force =     0.00000000    0.00000000    0.00000000
     atom  429 type  1   force =     0.00000000    0.00000000    0.00000000
     atom  430 type  1   force =     0.00000000    0.00000000    0.00000000
     atom  431 type  1   force =     0.00000000    0.00000000    0.00000000
     atom  432 type  1   force =     0.00000000    0.00000000    0.00000000
     atom  433 type  1   force =     0.00000000    0.00000000    0.00000000
     atom  434 type  1   force =     0.00000000    0.00000000    0.00000000
     atom  435 type  1   force =     0.00000000    0.00000000    0.00000000
     atom  436 type  1   force =     0.00000000    0.00000000    0.00000000
     atom  437 type  1   force =     0.00000000    0.00000000    0.00000000
     atom  438 type  1   force =     0.00000000    0.00000000    0.00000000
     atom  439 type  1   force =     0.00000000    0.00000000    0.00000000
     atom  440 type  1   force =     0.00000000    0.00000000    0.00000000
     atom  441 type  2   force =     0.00000000    0.00000000    0.00000000
     atom  442 type  2   force =     0.00000000    0.00000000    0.00000000
     atom  443 type  2   force =     0.00000000    0.00000000    0.00000000
     atom  444 type  2   force =     0.00000000    0.00000000    0.00000000
     atom  445 type  2   force =     0.00000000    0.00000000    0.00000000
     atom  446 type  2   force =     0.00000000    0.00000000    0.00000000
     atom  447 type  2   force =     0.00000000    0.00000000    0.00000000
     atom  448 type  2   force =     0.00000000    0.00000000    0.00000000
     atom  449 type  3   force =     0.00000000    0.00000000    0.00000000
     atom  450 type  3   force =     0.00000000    0.00000000    0.00000000
     atom  451 type  3   force =     0.00000000    0.00000000    0.00000000
     atom  452 type  3   force =     0.00000000    0.00000000    0.00000000
     atom  453 type  3   force =     0.00000000    0.00000000    0.00000000
     atom  454 type  3   force =     0.00000000    0.00000000    0.00000000
     atom  455 type  3   force =     0.00000000    0.00000000    0.00000000
     atom  456 type  3   force =     0.00000000    0.00000000    0.00000000
     atom  457 type  1   force =     0.00000000    0.00000000    0.00000000
     atom  458 type  1   force =     0.00000000    0.00000000    0.00000000
     atom  459 type  1   force =     0.00000000    0.00000000    0.00000000
     atom  460 type  1   force =     0.00000000    0.00000000    0.00000000
     atom  461 type  1   force =     0.00000000    0.00000000    0.00000000
     atom  462 type  1   force =     0.00000000    0.00000000    0.00000000
     atom  463 type  1   force =     0.00000000    0.00000000    0.00000000
     atom  464 type  1   force =     0.00000000    0.00000000    0.00000000
     atom  465 type  2   force =     0.00000000    0.00000000    0.00000000
     atom  466 type  2   force =     0.00000000    0.00000000    0.00000000
     atom  467 type  2   force =     0.00000000    0.00000000    0.00000000
     atom  468 type  2   force =     0.00000000    0.00000000    0.00000000
     atom  469 type  2   force =     0.00000000    0.00000000    0.00000000
     atom  470 type  2   force =     0.00000000    0.00000000    0.00000000
     atom  471 type  2   force =     0.00000000    0.00000000    0.00000000
     atom  472 type  2   force =     0.00000000    0.00000000    0.00000000
     atom  473 type  3   force =     0.00000000    0.00000000    0.00000000
     atom  474 type  3   force =     0.00000000    0.00000000    0.00000000
     atom  475 type  3   force =     0.00000000    0.00000000    0.00000000
     atom  476 type  3   force =     0.00000000    0.00000000    0.00000000
     atom  477 type  3   force =     0.00000000    0.00000000    0.00000000
     atom  478 type  3   force =     0.00000000    0.00000000    0.00000000
     atom  479 type  3   force =     0.00000000    0.00000000    0.00000000
     atom  480 type  3   force =     0.00000000    0.00000000    0.00000000
     atom  481 type  4   force =     0.00000000    0.00000000    0.00000000
     atom  482 type  4   force =     0.00000000    0.00000000    0.00000000
     atom  483 type  4   force =     0.00000000    0.00000000    0.00000000
     atom  484 type  4   force =     0.00000000    0.00000000    0.00000000
     atom  485 type  4   force =     0.00000000    0.00000000    0.00000000
     atom  486 type  4   force =     0.00000000    0.00000000    0.00000000
     atom  487 type  4   force =     0.00000000    0.00000000    0.00000000
     atom  488 type  4   force =     0.00000000    0.00000000    0.00000000
     atom  489 type  4   force =     0.00000000    0.00000000    0.00000000
     atom  490 type  4   force =     0.00000000    0.00000000    0.00000000
     atom  491 type  4   force =     0.00000000    0.00000000    0.00000000
     atom  492 type  4   force =     0.00000000    0.00000000    0.00000000
     atom  493 type  4   force =     0.00000000    0.00000000    0.00000000
     atom  494 type  4   force =     0.00000000    0.00000000    0.00000000
     atom  495 type  4   force =     0.00000000    0.00000000    0.00000000
     atom  496 type  4   force =     0.00000000    0.00000000    0.00000000
     The SCF correction term to forces
     atom    1 type  1   force =     0.00000640   -0.00000544   -0.00000195
     atom    2 type  1   force =     0.00000331   -0.00000417   -0.00000133
     atom    3 type  1   force =     0.00000833   -0.00000363   -0.00000063
     atom    4 type  1   force =     0.00000489   -0.00000495   -0.00000136
     atom    5 type  1   force =     0.00000495   -0.00000593   -0.00000158
     atom    6 type  1   force =     0.00000325   -0.00000571   -0.00000201
     atom    7 type  1   force =     0.00000485   -0.00000466   -0.00000101
     atom    8 type  1   force =     0.00000463   -0.00000528   -0.00000199
     atom    9 type  1   force =     0.00000674    0.00000234    0.00000205
     atom   10 type  1   force =     0.00000995   -0.00000081    0.00000038
     atom   11 type  1   force =     0.00000845    0.00000024    0.00000150
     atom   12 type  1   force =     0.00000903    0.00000128    0.00000179
     atom   13 type  1   force =     0.00000824   -0.00000111    0.00000043
     atom   14 type  1   force =     0.00000912   -0.00000112    0.00000087
     atom   15 type  1   force =     0.00000848   -0.00000064    0.00000073
     atom   16 type  1   force =     0.00000795    0.00000112    0.00000211
     atom   17 type  2   force =     0.00000027    0.00000513    0.00000133
     atom   18 type  2   force =    -0.00000013    0.00000499    0.00000071
     atom   19 type  2   force =     0.00000016    0.00000550    0.00000099
     atom   20 type  2   force =    -0.00000159    0.00000571    0.00000101
     atom   21 type  2   force =     0.00000075    0.00000448    0.00000108
     atom   22 type  2   force =    -0.00000031    0.00000426    0.00000128
     atom   23 type  2   force =     0.00000007    0.00000490    0.00000081
     atom   24 type  2   force =    -0.00000023    0.00000542    0.00000117
     atom   25 type  2   force =    -0.00000234    0.00000444    0.00000319
     atom   26 type  2   force =    -0.00000131    0.00000294    0.00000216
     atom   27 type  2   force =    -0.00000129    0.00000336    0.00000252
     atom   28 type  2   force =     0.00000015    0.00000416    0.00000324
     atom   29 type  2   force =    -0.00000244    0.00000259    0.00000218
     atom   30 type  2   force =    -0.00000188    0.00000257    0.00000261
     atom   31 type  2   force =    -0.00000170    0.00000302    0.00000220
     atom   32 type  2   force =    -0.00000144    0.00000384    0.00000307
     atom   33 type  2   force =    -0.00000428    0.00000218    0.00000178
     atom   34 type  2   force =    -0.00000519    0.00000175    0.00000192
     atom   35 type  2   force =    -0.00000498    0.00000214    0.00000156
     atom   36 type  2   force =    -0.00000578    0.00000213    0.00000175
     atom   37 type  2   force =    -0.00000436    0.00000216    0.00000177
     atom   38 type  2   force =    -0.00000511    0.00000197    0.00000156
     atom   39 type  2   force =    -0.00000495    0.00000189    0.00000171
     atom   40 type  2   force =    -0.00000655    0.00000179    0.00000185
     atom   41 type  3   force =    -0.00000034   -0.00000082    0.00000092
     atom   42 type  3   force =    -0.00000048   -0.00000084    0.00000093
     atom   43 type  3   force =    -0.00000040   -0.00000092    0.00000088
     atom   44 type  3   force =    -0.00000048   -0.00000098    0.00000094
     atom   45 type  3   force =    -0.00000051   -0.00000069    0.00000090
     atom   46 type  3   force =    -0.00000040   -0.00000096    0.00000088
     atom   47 type  3   force =    -0.00000041   -0.00000101    0.00000090
     atom   48 type  3   force =    -0.00000060   -0.00000108    0.00000098
     atom   49 type  2   force =     0.00000008    0.00000439   -0.00000197
     atom   50 type  2   force =    -0.00000030    0.00000432   -0.00000201
     atom   51 type  2   force =     0.00000008    0.00000537   -0.00000237
     atom   52 type  2   force =    -0.00000002    0.00000551   -0.00000251
     atom   53 type  2   force =    -0.00000017    0.00000332   -0.00000189
     atom   54 type  2   force =     0.00000005    0.00000524   -0.00000241
     atom   55 type  2   force =     0.00000018    0.00000572   -0.00000236
     atom   56 type  2   force =    -0.00000014    0.00000604   -0.00000234
     atom   57 type  3   force =     0.00000122    0.00000056   -0.00000055
     atom   58 type  3   force =     0.00000123    0.00000054   -0.00000058
     atom   59 type  3   force =     0.00000129    0.00000076   -0.00000066
     atom   60 type  3   force =     0.00000140    0.00000066   -0.00000071
     atom   61 type  3   force =     0.00000116    0.00000039   -0.00000056
     atom   62 type  3   force =     0.00000130    0.00000065   -0.00000065
     atom   63 type  3   force =     0.00000132    0.00000067   -0.00000067
     atom   64 type  3   force =     0.00000141    0.00000069   -0.00000065
     atom   65 type  1   force =    -0.00000214    0.00000855    0.00000692
     atom   66 type  1   force =     0.00000163    0.00000764    0.00000660
     atom   67 type  1   force =     0.00000022    0.00000770    0.00000652
     atom   68 type  1   force =     0.00000230    0.00000677    0.00000659
     atom   69 type  1   force =    -0.00000013    0.00000791    0.00000695
     atom   70 type  1   force =     0.00000063    0.00000748    0.00000709
     atom   71 type  1   force =     0.00000053    0.00000756    0.00000640
     atom   72 type  1   force =    -0.00000068    0.00000798    0.00000710
     atom   73 type  1   force =     0.00000908    0.00001052    0.00000893
     atom   74 type  1   force =     0.00001106    0.00001021    0.00000883
     atom   75 type  1   force =     0.00000985    0.00000967    0.00000862
     atom   76 type  1   force =     0.00001146    0.00001121    0.00000989
     atom   77 type  1   force =     0.00000913    0.00000851    0.00000795
     atom   78 type  1   force =     0.00001018    0.00000938    0.00000889
     atom   79 type  1   force =     0.00000986    0.00000912    0.00000829
     atom   80 type  1   force =     0.00000991    0.00001043    0.00000952
     atom   81 type  2   force =    -0.00000528    0.00000334   -0.00000102
     atom   82 type  2   force =    -0.00000818    0.00000449   -0.00000188
     atom   83 type  2   force =    -0.00000827    0.00000484   -0.00000155
     atom   84 type  2   force =    -0.00000978    0.00000558   -0.00000171
     atom   85 type  2   force =    -0.00000682    0.00000351   -0.00000140
     atom   86 type  2   force =    -0.00000762    0.00000397   -0.00000131
     atom   87 type  2   force =    -0.00000805    0.00000432   -0.00000165
     atom   88 type  2   force =    -0.00000882    0.00000495   -0.00000149
     atom   89 type  3   force =    -0.00000137    0.00000036   -0.00000057
     atom   90 type  3   force =    -0.00000112    0.00000015   -0.00000028
     atom   91 type  3   force =    -0.00000147    0.00000051   -0.00000052
     atom   92 type  3   force =    -0.00000145    0.00000028   -0.00000046
     atom   93 type  3   force =    -0.00000136    0.00000039   -0.00000040
     atom   94 type  3   force =    -0.00000123    0.00000025   -0.00000044
     atom   95 type  3   force =    -0.00000143    0.00000041   -0.00000042
     atom   96 type  3   force =    -0.00000134    0.00000038   -0.00000046
     atom   97 type  1   force =    -0.00000784    0.00000061   -0.00000334
     atom   98 type  1   force =    -0.00000545   -0.00000035   -0.00000242
     atom   99 type  1   force =    -0.00000922    0.00000097   -0.00000316
     atom  100 type  1   force =    -0.00000740    0.00000089   -0.00000319
     atom  101 type  1   force =    -0.00000791    0.00000019   -0.00000273
     atom  102 type  1   force =    -0.00000706    0.00000016   -0.00000272
     atom  103 type  1   force =    -0.00000860    0.00000056   -0.00000317
     atom  104 type  1   force =    -0.00000810    0.00000083   -0.00000322
     atom  105 type  2   force =     0.00000605   -0.00000649   -0.00000065
     atom  106 type  2   force =     0.00000548   -0.00000577   -0.00000050
     atom  107 type  2   force =     0.00000677   -0.00000719   -0.00000065
     atom  108 type  2   force =     0.00000598   -0.00000630   -0.00000082
     atom  109 type  2   force =     0.00000594   -0.00000659   -0.00000073
     atom  110 type  2   force =     0.00000582   -0.00000647   -0.00000055
     atom  111 type  2   force =     0.00000622   -0.00000709   -0.00000071
     atom  112 type  2   force =     0.00000624   -0.00000680   -0.00000071
     atom  113 type  3   force =    -0.00000010    0.00000095   -0.00000000
     atom  114 type  3   force =    -0.00000009    0.00000099   -0.00000001
     atom  115 type  3   force =    -0.00000010    0.00000101   -0.00000004
     atom  116 type  3   force =    -0.00000020    0.00000112   -0.00000010
     atom  117 type  3   force =    -0.00000010    0.00000083   -0.00000003
     atom  118 type  3   force =    -0.00000016    0.00000100   -0.00000005
     atom  119 type  3   force =    -0.00000024    0.00000089   -0.00000004
     atom  120 type  3   force =    -0.00000030    0.00000104   -0.00000005
     atom  121 type  1   force =    -0.00000360    0.00000600   -0.00000249
     atom  122 type  1   force =    -0.00000558    0.00000482   -0.00000107
     atom  123 type  1   force =    -0.00000287    0.00000548   -0.00000235
     atom  124 type  1   force =    -0.00000429    0.00000578   -0.00000217
     atom  125 type  1   force =    -0.00000726    0.00000470   -0.00000130
     atom  126 type  1   force =    -0.00000447    0.00000529   -0.00000163
     atom  127 type  1   force =    -0.00000503    0.00000487   -0.00000194
     atom  128 type  1   force =    -0.00000505    0.00000483   -0.00000150
     atom  129 type  1   force =    -0.00000874    0.00000170   -0.00000004
     atom  130 type  1   force =    -0.00000841    0.00000060    0.00000113
     atom  131 type  1   force =    -0.00000836    0.00000092    0.00000020
     atom  132 type  1   force =    -0.00000944    0.00000190   -0.00000009
     atom  133 type  1   force =    -0.00000971    0.00000068    0.00000073
     atom  134 type  1   force =    -0.00000870    0.00000068    0.00000073
     atom  135 type  1   force =    -0.00000910   -0.00000006    0.00000063
     atom  136 type  1   force =    -0.00000812   -0.00000078    0.00000133
     atom  137 type  2   force =    -0.00000044   -0.00000499    0.00000067
     atom  138 type  2   force =    -0.00000003   -0.00000536    0.00000112
     atom  139 type  2   force =    -0.00000016   -0.00000500    0.00000088
     atom  140 type  2   force =    -0.00000047   -0.00000462    0.00000087
     atom  141 type  2   force =     0.00000110   -0.00000536    0.00000087
     atom  142 type  2   force =    -0.00000018   -0.00000459    0.00000101
     atom  143 type  2   force =    -0.00000033   -0.00000465    0.00000061
     atom  144 type  2   force =     0.00000056   -0.00000447    0.00000100
     atom  145 type  2   force =     0.00000198   -0.00000240    0.00000176
     atom  146 type  2   force =     0.00000113   -0.00000335    0.00000279
     atom  147 type  2   force =     0.00000241   -0.00000297    0.00000208
     atom  148 type  2   force =     0.00000224   -0.00000246    0.00000194
     atom  149 type  2   force =     0.00000051   -0.00000354    0.00000273
     atom  150 type  2   force =     0.00000181   -0.00000277    0.00000230
     atom  151 type  2   force =     0.00000170   -0.00000299    0.00000192
     atom  152 type  2   force =     0.00000190   -0.00000346    0.00000267
     atom  153 type  2   force =     0.00000610   -0.00000193    0.00000170
     atom  154 type  2   force =     0.00000504   -0.00000183    0.00000159
     atom  155 type  2   force =     0.00000497   -0.00000220    0.00000138
     atom  156 type  2   force =     0.00000500   -0.00000199    0.00000172
     atom  157 type  2   force =     0.00000484   -0.00000230    0.00000151
     atom  158 type  2   force =     0.00000519   -0.00000202    0.00000176
     atom  159 type  2   force =     0.00000477   -0.00000235    0.00000154
     atom  160 type  2   force =     0.00000462   -0.00000230    0.00000165
     atom  161 type  3   force =     0.00000056    0.00000094    0.00000095
     atom  162 type  3   force =     0.00000046    0.00000093    0.00000088
     atom  163 type  3   force =     0.00000044    0.00000082    0.00000084
     atom  164 type  3   force =     0.00000060    0.00000068    0.00000093
     atom  165 type  3   force =     0.00000033    0.00000091    0.00000088
     atom  166 type  3   force =     0.00000039    0.00000103    0.00000095
     atom  167 type  3   force =     0.00000044    0.00000078    0.00000087
     atom  168 type  3   force =     0.00000041    0.00000077    0.00000092
     atom  169 type  2   force =     0.00000005   -0.00000465   -0.00000230
     atom  170 type  2   force =     0.00000043   -0.00000340   -0.00000194
     atom  171 type  2   force =     0.00000023   -0.00000576   -0.00000238
     atom  172 type  2   force =     0.00000010   -0.00000466   -0.00000255
     atom  173 type  2   force =     0.00000020   -0.00000434   -0.00000226
     atom  174 type  2   force =     0.00000002   -0.00000470   -0.00000210
     atom  175 type  2   force =    -0.00000008   -0.00000571   -0.00000249
     atom  176 type  2   force =    -0.00000035   -0.00000548   -0.00000252
     atom  177 type  3   force =    -0.00000126   -0.00000060   -0.00000066
     atom  178 type  3   force =    -0.00000106   -0.00000036   -0.00000055
     atom  179 type  3   force =    -0.00000141   -0.00000075   -0.00000068
     atom  180 type  3   force =    -0.00000126   -0.00000061   -0.00000072
     atom  181 type  3   force =    -0.00000124   -0.00000051   -0.00000063
     atom  182 type  3   force =    -0.00000119   -0.00000059   -0.00000059
     atom  183 type  3   force =    -0.00000130   -0.00000077   -0.00000068
     atom  184 type  3   force =    -0.00000137   -0.00000069   -0.00000070
     atom  185 type  1   force =    -0.00000044   -0.00000774    0.00000653
     atom  186 type  1   force =    -0.00000146   -0.00000758    0.00000686
     atom  187 type  1   force =     0.00000014   -0.00000795    0.00000654
     atom  188 type  1   force =    -0.00000109   -0.00000810    0.00000701
     atom  189 type  1   force =    -0.00000284   -0.00000717    0.00000659
     atom  190 type  1   force =    -0.00000047   -0.00000780    0.00000674
     atom  191 type  1   force =    -0.00000018   -0.00000803    0.00000618
     atom  192 type  1   force =     0.00000035   -0.00000783    0.00000669
     atom  193 type  1   force =    -0.00000939   -0.00000837    0.00000776
     atom  194 type  1   force =    -0.00001024   -0.00000970    0.00000895
     atom  195 type  1   force =    -0.00000935   -0.00000856    0.00000771
     atom  196 type  1   force =    -0.00001012   -0.00000887    0.00000828
     atom  197 type  1   force =    -0.00001172   -0.00001027    0.00000923
     atom  198 type  1   force =    -0.00000960   -0.00000935    0.00000827
     atom  199 type  1   force =    -0.00000986   -0.00001003    0.00000827
     atom  200 type  1   force =    -0.00000976   -0.00001034    0.00000892
     atom  201 type  2   force =     0.00000836   -0.00000459   -0.00000177
     atom  202 type  2   force =     0.00000823   -0.00000476   -0.00000148
     atom  203 type  2   force =     0.00000705   -0.00000387   -0.00000146
     atom  204 type  2   force =     0.00000729   -0.00000399   -0.00000144
     atom  205 type  2   force =     0.00000914   -0.00000539   -0.00000161
     atom  206 type  2   force =     0.00000756   -0.00000407   -0.00000159
     atom  207 type  2   force =     0.00000741   -0.00000411   -0.00000160
     atom  208 type  2   force =     0.00000648   -0.00000338   -0.00000146
     atom  209 type  3   force =     0.00000147   -0.00000039   -0.00000050
     atom  210 type  3   force =     0.00000130   -0.00000039   -0.00000040
     atom  211 type  3   force =     0.00000135   -0.00000030   -0.00000037
     atom  212 type  3   force =     0.00000127   -0.00000038   -0.00000041
     atom  213 type  3   force =     0.00000148   -0.00000053   -0.00000045
     atom  214 type  3   force =     0.00000127   -0.00000034   -0.00000048
     atom  215 type  3   force =     0.00000121   -0.00000042   -0.00000042
     atom  216 type  3   force =     0.00000121   -0.00000025   -0.00000044
     atom  217 type  1   force =     0.00000813   -0.00000110   -0.00000334
     atom  218 type  1   force =     0.00000777   -0.00000082   -0.00000327
     atom  219 type  1   force =     0.00000702   -0.00000021   -0.00000290
     atom  220 type  1   force =     0.00000736   -0.00000058   -0.00000275
     atom  221 type  1   force =     0.00000896   -0.00000106   -0.00000303
     atom  222 type  1   force =     0.00000790   -0.00000037   -0.00000330
     atom  223 type  1   force =     0.00000786   -0.00000057   -0.00000304
     atom  224 type  1   force =     0.00000654    0.00000032   -0.00000264
     atom  225 type  2   force =    -0.00000550    0.00000634   -0.00000041
     atom  226 type  2   force =    -0.00000579    0.00000635   -0.00000039
     atom  227 type  2   force =    -0.00000599    0.00000677   -0.00000065
     atom  228 type  2   force =    -0.00000672    0.00000730   -0.00000076
     atom  229 type  2   force =    -0.00000504    0.00000582   -0.00000049
     atom  230 type  2   force =    -0.00000616    0.00000679   -0.00000068
     atom  231 type  2   force =    -0.00000630    0.00000676   -0.00000058
     atom  232 type  2   force =    -0.00000717    0.00000720   -0.00000058
     atom  233 type  3   force =     0.00000016   -0.00000100   -0.00000004
     atom  234 type  3   force =     0.00000018   -0.00000087   -0.00000003
     atom  235 type  3   force =     0.00000024   -0.00000106   -0.00000005
     atom  236 type  3   force =     0.00000013   -0.00000093   -0.00000010
     atom  237 type  3   force =     0.00000019   -0.00000099   -0.00000007
     atom  238 type  3   force =     0.00000016   -0.00000098   -0.00000004
     atom  239 type  3   force =     0.00000016   -0.00000109   -0.00000005
     atom  240 type  3   force =     0.00000010   -0.00000101   -0.00000007
     atom  241 type  1   force =    -0.00000526   -0.00000530    0.00000168
     atom  242 type  1   force =    -0.00000436   -0.00000406    0.00000134
     atom  243 type  1   force =    -0.00000617   -0.00000474    0.00000245
     atom  244 type  1   force =    -0.00000439   -0.00000585    0.00000145
     atom  245 type  1   force =    -0.00000606   -0.00000546    0.00000192
     atom  246 type  1   force =    -0.00000497   -0.00000471    0.00000176
     atom  247 type  1   force =    -0.00000498   -0.00000507    0.00000146
     atom  248 type  1   force =    -0.00000575   -0.00000505    0.00000168
     atom  249 type  1   force =    -0.00000051   -0.00000931   -0.00000092
     atom  250 type  1   force =     0.00000174   -0.00000747   -0.00000204
     atom  251 type  1   force =    -0.00000374   -0.00001020    0.00000120
     atom  252 type  1   force =     0.00000018   -0.00000831   -0.00000093
     atom  253 type  1   force =    -0.00000130   -0.00000982   -0.00000046
     atom  254 type  1   force =     0.00000033   -0.00000851   -0.00000120
     atom  255 type  1   force =     0.00000033   -0.00000796   -0.00000121
     atom  256 type  1   force =    -0.00000146   -0.00000934   -0.00000061
     atom  257 type  2   force =     0.00000485    0.00000069   -0.00000107
     atom  258 type  2   force =     0.00000546   -0.00000015   -0.00000094
     atom  259 type  2   force =     0.00000395    0.00000012   -0.00000080
     atom  260 type  2   force =     0.00000551    0.00000058   -0.00000083
     atom  261 type  2   force =     0.00000382   -0.00000010   -0.00000108
     atom  262 type  2   force =     0.00000539   -0.00000039   -0.00000076
     atom  263 type  2   force =     0.00000440   -0.00000042   -0.00000117
     atom  264 type  2   force =     0.00000499   -0.00000001   -0.00000109
     atom  265 type  2   force =     0.00000284    0.00000164   -0.00000250
     atom  266 type  2   force =     0.00000396    0.00000166   -0.00000266
     atom  267 type  2   force =     0.00000162    0.00000212   -0.00000159
     atom  268 type  2   force =     0.00000355    0.00000087   -0.00000254
     atom  269 type  2   force =     0.00000237    0.00000206   -0.00000220
     atom  270 type  2   force =     0.00000343    0.00000184   -0.00000239
     atom  271 type  2   force =     0.00000318    0.00000140   -0.00000273
     atom  272 type  2   force =     0.00000286    0.00000181   -0.00000245
     atom  273 type  2   force =     0.00000191    0.00000588   -0.00000178
     atom  274 type  2   force =     0.00000246    0.00000507   -0.00000161
     atom  275 type  2   force =     0.00000181    0.00000497   -0.00000167
     atom  276 type  2   force =     0.00000226    0.00000583   -0.00000176
     atom  277 type  2   force =     0.00000204    0.00000512   -0.00000177
     atom  278 type  2   force =     0.00000256    0.00000446   -0.00000148
     atom  279 type  2   force =     0.00000196    0.00000457   -0.00000181
     atom  280 type  2   force =     0.00000191    0.00000526   -0.00000179
     atom  281 type  3   force =    -0.00000085    0.00000057   -0.00000092
     atom  282 type  3   force =    -0.00000083    0.00000046   -0.00000089
     atom  283 type  3   force =    -0.00000076    0.00000045   -0.00000091
     atom  284 type  3   force =    -0.00000088    0.00000054   -0.00000100
     atom  285 type  3   force =    -0.00000079    0.00000047   -0.00000090
     atom  286 type  3   force =    -0.00000083    0.00000035   -0.00000088
     atom  287 type  3   force =    -0.00000078    0.00000039   -0.00000094
     atom  288 type  3   force =    -0.00000096    0.00000048   -0.00000096
     atom  289 type  2   force =     0.00000481    0.00000038    0.00000223
     atom  290 type  2   force =     0.00000537    0.00000000    0.00000244
     atom  291 type  2   force =     0.00000432    0.00000014    0.00000216
     atom  292 type  2   force =     0.00000524    0.00000007    0.00000239
     atom  293 type  2   force =     0.00000408    0.00000028    0.00000208
     atom  294 type  2   force =     0.00000523   -0.00000012    0.00000248
     atom  295 type  2   force =     0.00000374    0.00000001    0.00000194
     atom  296 type  2   force =     0.00000507   -0.00000008    0.00000252
     atom  297 type  3   force =     0.00000062   -0.00000130    0.00000064
     atom  298 type  3   force =     0.00000066   -0.00000135    0.00000068
     atom  299 type  3   force =     0.00000051   -0.00000124    0.00000061
     atom  300 type  3   force =     0.00000061   -0.00000127    0.00000066
     atom  301 type  3   force =     0.00000056   -0.00000127    0.00000060
     atom  302 type  3   force =     0.00000072   -0.00000126    0.00000068
     atom  303 type  3   force =     0.00000044   -0.00000116    0.00000057
     atom  304 type  3   force =     0.00000056   -0.00000130    0.00000072
     atom  305 type  1   force =     0.00000745   -0.00000059   -0.00000721
     atom  306 type  1   force =     0.00000818    0.00000129   -0.00000640
     atom  307 type  1   force =     0.00000735   -0.00000275   -0.00000700
     atom  308 type  1   force =     0.00000768   -0.00000129   -0.00000649
     atom  309 type  1   force =     0.00000761   -0.00000093   -0.00000680
     atom  310 type  1   force =     0.00000786    0.00000011   -0.00000674
     atom  311 type  1   force =     0.00000773   -0.00000006   -0.00000684
     atom  312 type  1   force =     0.00000782   -0.00000130   -0.00000707
     atom  313 type  1   force =     0.00000969   -0.00001022   -0.00000914
     atom  314 type  1   force =     0.00001007   -0.00000929   -0.00000864
     atom  315 type  1   force =     0.00000790   -0.00001048   -0.00000771
     atom  316 type  1   force =     0.00001014   -0.00001002   -0.00000861
     atom  317 type  1   force =     0.00000950   -0.00001059   -0.00000877
     atom  318 type  1   force =     0.00000978   -0.00000982   -0.00000883
     atom  319 type  1   force =     0.00000987   -0.00000955   -0.00000885
     atom  320 type  1   force =     0.00000941   -0.00001058   -0.00000880
     atom  321 type  2   force =     0.00000460    0.00000839    0.00000154
     atom  322 type  2   force =     0.00000452    0.00000790    0.00000158
     atom  323 type  2   force =     0.00000406    0.00000756    0.00000164
     atom  324 type  2   force =     0.00000489    0.00000851    0.00000178
     atom  325 type  2   force =     0.00000331    0.00000754    0.00000151
     atom  326 type  2   force =     0.00000411    0.00000724    0.00000167
     atom  327 type  2   force =     0.00000360    0.00000637    0.00000127
     atom  328 type  2   force =     0.00000448    0.00000821    0.00000153
     atom  329 type  3   force =     0.00000044    0.00000141    0.00000045
     atom  330 type  3   force =     0.00000032    0.00000136    0.00000041
     atom  331 type  3   force =     0.00000050    0.00000129    0.00000048
     atom  332 type  3   force =     0.00000043    0.00000134    0.00000051
     atom  333 type  3   force =     0.00000036    0.00000121    0.00000050
     atom  334 type  3   force =     0.00000028    0.00000128    0.00000041
     atom  335 type  3   force =     0.00000034    0.00000105    0.00000039
     atom  336 type  3   force =     0.00000037    0.00000141    0.00000045
     atom  337 type  1   force =     0.00000035    0.00000845    0.00000294
     atom  338 type  1   force =     0.00000054    0.00000782    0.00000327
     atom  339 type  1   force =     0.00000041    0.00000773    0.00000286
     atom  340 type  1   force =     0.00000063    0.00000800    0.00000322
     atom  341 type  1   force =    -0.00000021    0.00000875    0.00000299
     atom  342 type  1   force =     0.00000077    0.00000707    0.00000336
     atom  343 type  1   force =    -0.00000004    0.00000675    0.00000251
     atom  344 type  1   force =     0.00000068    0.00000779    0.00000319
     atom  345 type  2   force =    -0.00000586   -0.00000515    0.00000075
     atom  346 type  2   force =    -0.00000641   -0.00000561    0.00000050
     atom  347 type  2   force =    -0.00000675   -0.00000601    0.00000086
     atom  348 type  2   force =    -0.00000674   -0.00000602    0.00000042
     atom  349 type  2   force =    -0.00000626   -0.00000593    0.00000057
     atom  350 type  2   force =    -0.00000693   -0.00000564    0.00000073
     atom  351 type  2   force =    -0.00000686   -0.00000640    0.00000061
     atom  352 type  2   force =    -0.00000709   -0.00000624    0.00000073
     atom  353 type  3   force =     0.00000106    0.00000017    0.00000007
     atom  354 type  3   force =     0.00000103    0.00000023    0.00000003
     atom  355 type  3   force =     0.00000098    0.00000012    0.00000005
     atom  356 type  3   force =     0.00000104    0.00000025    0.00000004
     atom  357 type  3   force =     0.00000104    0.00000006    0.00000002
     atom  358 type  3   force =     0.00000098    0.00000016    0.00000005
     atom  359 type  3   force =     0.00000095    0.00000006    0.00000004
     atom  360 type  3   force =     0.00000092    0.00000023    0.00000008
     atom  361 type  1   force =     0.00000573    0.00000464    0.00000136
     atom  362 type  1   force =     0.00000451    0.00000561    0.00000145
     atom  363 type  1   force =     0.00000603    0.00000447    0.00000138
     atom  364 type  1   force =     0.00000512    0.00000307    0.00000215
     atom  365 type  1   force =     0.00000569    0.00000337    0.00000209
     atom  366 type  1   force =     0.00000360    0.00000530    0.00000090
     atom  367 type  1   force =     0.00000442    0.00000375    0.00000165
     atom  368 type  1   force =     0.00000564    0.00000437    0.00000198
     atom  369 type  1   force =     0.00000010    0.00000833   -0.00000155
     atom  370 type  1   force =    -0.00000074    0.00000727   -0.00000106
     atom  371 type  1   force =     0.00000045    0.00000829   -0.00000130
     atom  372 type  1   force =    -0.00000074    0.00000878   -0.00000116
     atom  373 type  1   force =    -0.00000094    0.00000727   -0.00000132
     atom  374 type  1   force =     0.00000099    0.00000916   -0.00000056
     atom  375 type  1   force =     0.00000059    0.00000801   -0.00000070
     atom  376 type  1   force =    -0.00000218    0.00000723   -0.00000217
     atom  377 type  2   force =    -0.00000397    0.00000029   -0.00000121
     atom  378 type  2   force =    -0.00000468    0.00000068   -0.00000081
     atom  379 type  2   force =    -0.00000466    0.00000016   -0.00000121
     atom  380 type  2   force =    -0.00000505    0.00000015   -0.00000092
     atom  381 type  2   force =    -0.00000572    0.00000005   -0.00000088
     atom  382 type  2   force =    -0.00000397    0.00000018   -0.00000086
     atom  383 type  2   force =    -0.00000468    0.00000012   -0.00000099
     atom  384 type  2   force =    -0.00000579   -0.00000052   -0.00000108
     atom  385 type  2   force =    -0.00000290   -0.00000214   -0.00000268
     atom  386 type  2   force =    -0.00000343   -0.00000245   -0.00000227
     atom  387 type  2   force =    -0.00000288   -0.00000162   -0.00000278
     atom  388 type  2   force =    -0.00000371   -0.00000141   -0.00000270
     atom  389 type  2   force =    -0.00000399   -0.00000165   -0.00000261
     atom  390 type  2   force =    -0.00000251   -0.00000221   -0.00000200
     atom  391 type  2   force =    -0.00000276   -0.00000203   -0.00000241
     atom  392 type  2   force =    -0.00000443   -0.00000085   -0.00000331
     atom  393 type  2   force =    -0.00000192   -0.00000483   -0.00000176
     atom  394 type  2   force =    -0.00000235   -0.00000405   -0.00000143
     atom  395 type  2   force =    -0.00000205   -0.00000503   -0.00000191
     atom  396 type  2   force =    -0.00000203   -0.00000510   -0.00000151
     atom  397 type  2   force =    -0.00000254   -0.00000459   -0.00000160
     atom  398 type  2   force =    -0.00000208   -0.00000509   -0.00000155
     atom  399 type  2   force =    -0.00000190   -0.00000524   -0.00000167
     atom  400 type  2   force =    -0.00000214   -0.00000538   -0.00000173
     atom  401 type  3   force =     0.00000081   -0.00000045   -0.00000090
     atom  402 type  3   force =     0.00000069   -0.00000040   -0.00000085
     atom  403 type  3   force =     0.00000094   -0.00000039   -0.00000097
     atom  404 type  3   force =     0.00000092   -0.00000043   -0.00000089
     atom  405 type  3   force =     0.00000075   -0.00000041   -0.00000093
     atom  406 type  3   force =     0.00000073   -0.00000051   -0.00000086
     atom  407 type  3   force =     0.00000099   -0.00000039   -0.00000090
     atom  408 type  3   force =     0.00000095   -0.00000048   -0.00000093
     atom  409 type  2   force =    -0.00000345   -0.00000004    0.00000210
     atom  410 type  2   force =    -0.00000411   -0.00000011    0.00000223
     atom  411 type  2   force =    -0.00000515    0.00000032    0.00000263
     atom  412 type  2   force =    -0.00000509    0.00000022    0.00000228
     atom  413 type  2   force =    -0.00000377   -0.00000037    0.00000208
     atom  414 type  2   force =    -0.00000516    0.00000013    0.00000237
     atom  415 type  2   force =    -0.00000568    0.00000004    0.00000229
     atom  416 type  2   force =    -0.00000543   -0.00000002    0.00000250
     atom  417 type  3   force =    -0.00000043    0.00000112    0.00000059
     atom  418 type  3   force =    -0.00000053    0.00000133    0.00000065
     atom  419 type  3   force =    -0.00000061    0.00000143    0.00000074
     atom  420 type  3   force =    -0.00000067    0.00000135    0.00000065
     atom  421 type  3   force =    -0.00000045    0.00000123    0.00000059
     atom  422 type  3   force =    -0.00000070    0.00000128    0.00000066
     atom  423 type  3   force =    -0.00000069    0.00000130    0.00000063
     atom  424 type  3   force =    -0.00000070    0.00000137    0.00000071
     atom  425 type  1   force =    -0.00000780   -0.00000068   -0.00000672
     atom  426 type  1   force =    -0.00000822   -0.00000151   -0.00000643
     atom  427 type  1   force =    -0.00000751    0.00000007   -0.00000705
     atom  428 type  1   force =    -0.00000822    0.00000024   -0.00000682
     atom  429 type  1   force =    -0.00000824   -0.00000062   -0.00000645
     atom  430 type  1   force =    -0.00000771    0.00000027   -0.00000664
     atom  431 type  1   force =    -0.00000763   -0.00000072   -0.00000693
     atom  432 type  1   force =    -0.00000758   -0.00000046   -0.00000692
     atom  433 type  1   force =    -0.00000969    0.00000984   -0.00000887
     atom  434 type  1   force =    -0.00000940    0.00000868   -0.00000804
     atom  435 type  1   force =    -0.00000936    0.00000967   -0.00000897
     atom  436 type  1   force =    -0.00001084    0.00001050   -0.00000930
     atom  437 type  1   force =    -0.00000981    0.00000934   -0.00000823
     atom  438 type  1   force =    -0.00000894    0.00000992   -0.00000826
     atom  439 type  1   force =    -0.00000875    0.00000932   -0.00000837
     atom  440 type  1   force =    -0.00001064    0.00000964   -0.00000957
     atom  441 type  2   force =    -0.00000329   -0.00000727    0.00000146
     atom  442 type  2   force =    -0.00000294   -0.00000558    0.00000146
     atom  443 type  2   force =    -0.00000406   -0.00000817    0.00000147
     atom  444 type  2   force =    -0.00000471   -0.00000785    0.00000149
     atom  445 type  2   force =    -0.00000441   -0.00000705    0.00000152
     atom  446 type  2   force =    -0.00000342   -0.00000716    0.00000153
     atom  447 type  2   force =    -0.00000453   -0.00000861    0.00000164
     atom  448 type  2   force =    -0.00000512   -0.00000828    0.00000145
     atom  449 type  3   force =    -0.00000032   -0.00000137    0.00000046
     atom  450 type  3   force =    -0.00000047   -0.00000123    0.00000038
     atom  451 type  3   force =    -0.00000024   -0.00000127    0.00000050
     atom  452 type  3   force =    -0.00000014   -0.00000112    0.00000041
     atom  453 type  3   force =    -0.00000041   -0.00000146    0.00000048
     atom  454 type  3   force =    -0.00000041   -0.00000138    0.00000039
     atom  455 type  3   force =    -0.00000024   -0.00000132    0.00000038
     atom  456 type  3   force =    -0.00000038   -0.00000122    0.00000047
     atom  457 type  1   force =    -0.00000040   -0.00000819    0.00000319
     atom  458 type  1   force =    -0.00000070   -0.00000778    0.00000320
     atom  459 type  1   force =     0.00000036   -0.00000822    0.00000309
     atom  460 type  1   force =     0.00000031   -0.00000582    0.00000269
     atom  461 type  1   force =    -0.00000057   -0.00000872    0.00000320
     atom  462 type  1   force =    -0.00000119   -0.00000756    0.00000298
     atom  463 type  1   force =    -0.00000057   -0.00000654    0.00000306
     atom  464 type  1   force =     0.00000016   -0.00000811    0.00000280
     atom  465 type  2   force =     0.00000682    0.00000645    0.00000062
     atom  466 type  2   force =     0.00000715    0.00000626    0.00000066
     atom  467 type  2   force =     0.00000624    0.00000565    0.00000057
     atom  468 type  2   force =     0.00000693    0.00000670    0.00000065
     atom  469 type  2   force =     0.00000645    0.00000591    0.00000043
     atom  470 type  2   force =     0.00000678    0.00000585    0.00000074
     atom  471 type  2   force =     0.00000601    0.00000544    0.00000046
     atom  472 type  2   force =     0.00000649    0.00000633    0.00000072
     atom  473 type  3   force =    -0.00000086   -0.00000010    0.00000009
     atom  474 type  3   force =    -0.00000098   -0.00000005    0.00000002
     atom  475 type  3   force =    -0.00000098   -0.00000013    0.00000009
     atom  476 type  3   force =    -0.00000102   -0.00000005   -0.00000001
     atom  477 type  3   force =    -0.00000099   -0.00000013    0.00000004
     atom  478 type  3   force =    -0.00000097   -0.00000018    0.00000005
     atom  479 type  3   force =    -0.00000097   -0.00000025    0.00000004
     atom  480 type  3   force =    -0.00000109   -0.00000011    0.00000007
     atom  481 type  4   force =     0.00000379   -0.00000021    0.00000002
     atom  482 type  4   force =    -0.00000201   -0.00000125   -0.00000010
     atom  483 type  4   force =     0.00000747   -0.00000055   -0.00000272
     atom  484 type  4   force =     0.00000212   -0.00000313    0.00000261
     atom  485 type  4   force =    -0.00000089   -0.00000158   -0.00000010
     atom  486 type  4   force =     0.00000059    0.00000046    0.00000294
     atom  487 type  4   force =    -0.00000023   -0.00000232    0.00000159
     atom  488 type  4   force =    -0.00000023    0.00000100   -0.00000233
     atom  489 type  4   force =    -0.00000406    0.00000108   -0.00000107
     atom  490 type  4   force =     0.00000057   -0.00000011   -0.00000002
     atom  491 type  4   force =     0.00000060   -0.00000277   -0.00000146
     atom  492 type  4   force =     0.00000213   -0.00000304   -0.00000063
     atom  493 type  4   force =    -0.00000033   -0.00000101    0.00000135
     atom  494 type  4   force =    -0.00000146   -0.00000099    0.00000004
     atom  495 type  4   force =     0.00000100   -0.00000080   -0.00000090
     atom  496 type  4   force =    -0.00000120   -0.00000201    0.00000066

     Total force =     0.022019     Total SCF correction =     0.000166


     Computing stress (Cartesian axis) and pressure

          total   stress  (Ry/bohr**3)                   (kbar)     P=       -2.01
  -0.00001485  -0.00000013   0.00000004           -2.18       -0.02        0.01
  -0.00000013  -0.00001392  -0.00000006           -0.02       -2.05       -0.01
   0.00000004  -0.00000006  -0.00001212            0.01       -0.01       -1.78

     kinetic stress (kbar)  10030.38      0.01      0.01
                                0.01  10030.32      0.01
                                0.01      0.01  10716.53

     local   stress (kbar) -23377.85      0.48      0.03
                                0.48 -23379.80     -0.13
                                0.03     -0.13  -2297.16

     nonloc. stress (kbar)   2420.50     -0.00      0.00
                               -0.00   2420.54     -0.00
                                0.00     -0.00   2341.34

     hartree stress (kbar)  13178.19     -0.18      0.03
                               -0.18  13178.81      0.11
                                0.03      0.11   6149.23

     exc-cor stress (kbar)  -1776.02     -0.00     -0.00
                               -0.00  -1776.01     -0.00
                               -0.00     -0.00  -1797.58

     corecor stress (kbar)  -1052.43      0.00     -0.00
                                0.00  -1052.43      0.00
                               -0.00      0.00  -1036.21

     ewald   stress (kbar)    575.03     -0.33     -0.06
                               -0.33    576.53      0.00
                               -0.06      0.00 -14077.93

     hubbard stress (kbar)      0.00      0.00      0.00
                                0.00      0.00      0.00
                                0.00      0.00      0.00

     DFT-D   stress (kbar)      0.00      0.00      0.00
                                0.00      0.00      0.00
                                0.00      0.00      0.00

     XDM     stress (kbar)      0.00      0.00      0.00
                                0.00      0.00      0.00
                                0.00      0.00      0.00

     dft-nl  stress (kbar)      0.00      0.00      0.00
                                0.00      0.00      0.00
                                0.00      0.00      0.00

     TS-vdW  stress (kbar)      0.00      0.00      0.00
                                0.00      0.00      0.00
                                0.00      0.00      0.00

     MDB     stress (kbar)      0.00      0.00      0.00
                                0.00      0.00      0.00
                                0.00      0.00      0.00

     3D-RISM stress (kbar)      0.00      0.00      0.00
                                0.00      0.00      0.00
                                0.00      0.00      0.00


     init_run     :    152.59s CPU    156.70s WALL (       1 calls)
     electrons    :   6485.95s CPU   6636.08s WALL (       1 calls)
     forces       :     77.04s CPU     80.46s WALL (       1 calls)
     stress       :   1648.43s CPU   1664.94s WALL (       1 calls)

     Called by init_run:
     wfcinit      :    142.20s CPU    145.51s WALL (       1 calls)
     wfcinit:atom :      0.13s CPU      0.26s WALL (       1 calls)
     wfcinit:wfcr :    140.60s CPU    143.42s WALL (       1 calls)
     potinit      :      4.06s CPU      4.11s WALL (       1 calls)
     hinit0       :      3.69s CPU      3.72s WALL (       1 calls)

     Called by electrons:
     c_bands      :   5946.84s CPU   6057.71s WALL (      19 calls)
     sum_band     :    494.03s CPU    520.62s WALL (      19 calls)
     v_of_rho     :      5.55s CPU      5.82s WALL (      20 calls)
     v_h          :      0.38s CPU      0.42s WALL (      20 calls)
     v_xc         :      5.64s CPU      5.90s WALL (      22 calls)
     newd         :     25.99s CPU     38.72s WALL (      20 calls)
     PAW_pot      :     13.10s CPU     13.13s WALL (      20 calls)
     mix_rho      :      1.78s CPU      2.00s WALL (      19 calls)

     Called by c_bands:
     init_us_2    :     10.98s CPU     12.67s WALL (      39 calls)
     init_us_2:cp :     10.98s CPU     12.67s WALL (      39 calls)
     cegterg      :   5923.06s CPU   6032.01s WALL (      19 calls)

     Called by sum_band:
     sum_band:wei :      0.00s CPU      0.00s WALL (      19 calls)
     sum_band:loo :    469.51s CPU    481.97s WALL (      19 calls)
     sum_band:buf :      0.00s CPU      0.00s WALL (      19 calls)
     sum_band:ini :      5.17s CPU      6.15s WALL (      19 calls)
     sum_band:cal :    276.55s CPU    279.83s WALL (      19 calls)
     sum_band:bec :      0.79s CPU      0.80s WALL (      19 calls)
     addusdens    :     20.67s CPU     33.62s WALL (      19 calls)
                                        0.00s GPU  (      19 calls)
     addusd:skk   :      5.30s CPU     11.11s WALL (      76 calls)
                                        0.00s GPU  (      76 calls)

     Called by *egterg:
     cdiaghg      :    539.03s CPU    543.64s WALL (     106 calls)
     cegterg:over :    745.88s CPU    751.31s WALL (      87 calls)
     cegterg:upda :    365.59s CPU    370.65s WALL (      87 calls)
     cegterg:last :    875.07s CPU    884.32s WALL (      46 calls)
     cdiaghg:chol :     13.28s CPU     13.32s WALL (     106 calls)
     cdiaghg:inve :      2.23s CPU      2.24s WALL (     106 calls)
     cdiaghg:para :     46.96s CPU     48.85s WALL (     212 calls)
     h_psi        :   2628.58s CPU   2700.61s WALL (     107 calls)
     s_psi        :    664.81s CPU    668.98s WALL (     107 calls)
     g_psi        :      2.59s CPU      2.65s WALL (      87 calls)

     Called by h_psi:
     h_psi:calbec :    848.04s CPU    859.51s WALL (     107 calls)
     vloc_psi     :   1095.70s CPU   1148.08s WALL (     107 calls)
     add_vuspsi   :    681.97s CPU    687.61s WALL (     107 calls)

     General routines
     calbec       :   1198.19s CPU   1213.66s WALL (     131 calls)
     fft          :      8.25s CPU      8.72s WALL (     283 calls)
     ffts         :      0.70s CPU      0.78s WALL (      39 calls)
     fftw         :   1203.83s CPU   1262.79s WALL (  135206 calls)
     interpolate  :      0.72s CPU      0.78s WALL (      20 calls)

     Parallel routines

     PAW routines
     PAW_pot      :     13.10s CPU     13.13s WALL (      20 calls)

     PWSCF        :      2h19m CPU      2h22m WALL


   This run was terminated on:   8:34:13  22May2025            

=------------------------------------------------------------------------------=
   JOB DONE.
=------------------------------------------------------------------------------=
