
     Program PWSCF v.7.2 starts on 22May2025 at  3:57:31 

     This program is part of the open-source Quantum ESPRESSO suite
     for quantum simulation of materials; please cite
         "P. Giannozzi et al., J. Phys.:Condens. Matter 21 395502 (2009);
         "P. Giannozzi et al., J. Phys.:Condens. Matter 29 465901 (2017);
         "P. Giannozzi et al., J. Chem. Phys. 152 154105 (2020);
          URL http://www.quantum-espresso.org", 
     in publications or presentations arising from this work. More details at
     http://www.quantum-espresso.org/quote

     Parallel version (MPI), running on    32 processors

     MPI processes distributed on     1 nodes
     186588 MiB available memory on the printing compute node when the environment starts

     Waiting for input...
     Reading input from standard input

     Current dimensions of program PWSCF are:
     Max number of different atomic species (ntypx) = 10
     Max number of k-points (npk) =  40000
     Max angular momentum in pseudopotentials (lmaxx) =  4
     file C.pbesol-n-kjpaw_psl.1.0.0.UPF: wavefunction(s)  2S 2P renormalized

     R & G space division:  proc/nbgrp/npool/nimage =      32
     Subspace diagonalization in iterative solution of the eigenvalue problem:
     one sub-group per band group will be used
     custom distributed-memory algorithm (size of sub-group:  5*  5 procs)


     Parallelization info
     --------------------
     sticks:   dense  smooth     PW     G-vecs:    dense   smooth      PW
     Min         878     844    211                80117    75361    9423
     Max         882     845    212                80120    75364    9425
     Sum       28159   27021   6771              2563819  2411581  301561

     Using Slab Decomposition



     bravais-lattice index     =            0
     lattice parameter (alat)  =      37.6381  a.u.
     unit-cell volume          =   38409.3354 (a.u.)^3
     number of atoms/cell      =          496
     number of atomic types    =            4
     number of electrons       =      2016.00
     number of Kohn-Sham states=         1008
     kinetic-energy cutoff     =      60.0000  Ry
     charge density cutoff     =     250.0000  Ry
     scf convergence threshold =      1.2E-08
     mixing beta               =       0.4000
     number of iterations used =            8  plain     mixing
     Exchange-correlation= SLA  PW   PSX  PSC
                           (   1   4  10   8   0   0   0)

     celldm(1)=  37.638096  celldm(2)=   0.000000  celldm(3)=   0.000000
     celldm(4)=   0.000000  celldm(5)=   0.000000  celldm(6)=   0.000000

     crystal axes: (cart. coord. in units of alat)
               a(1) = (  -0.509774   0.509774   0.693009 )  
               a(2) = (   0.509774  -0.509774   0.693009 )  
               a(3) = (   0.509774   0.509774  -0.693009 )  

     reciprocal axes: (cart. coord. in units 2 pi/alat)
               b(1) = (  0.000000  0.980827  0.721491 )  
               b(2) = (  0.980827  0.000000  0.721491 )  
               b(3) = (  0.980827  0.980827  0.000000 )  


     PseudoPot. # 1 for N  read from file:
     ./pseudo/N.pbesol-theos.UPF
     MD5 check sum: 1b64827339d390a5a22afef3ff345c9d
     Pseudo is Ultrasoft + core correction, Zval =  5.0
     Generated using "atomic" code by A. Dal Corso  v.5.1
     Using radial grid of 1085 points,  4 beta functions with: 
                l(1) =   0
                l(2) =   0
                l(3) =   1
                l(4) =   1
     Q(r) pseudized with 0 coefficients 


     PseudoPot. # 2 for C  read from file:
     ./pseudo/C.pbesol-n-kjpaw_psl.1.0.0.UPF
     MD5 check sum: 5f3a56537b2bcef3348431d8311bb923
     Pseudo is Projector augmented-wave + core cor, Zval =  4.0
     Generated using "atomic" code by A. Dal Corso  v.6.0 svn rev. 13079
     Shape of augmentation charge: PSQ
     Using radial grid of 1073 points,  4 beta functions with: 
                l(1) =   0
                l(2) =   0
                l(3) =   1
                l(4) =   1
     Q(r) pseudized with 0 coefficients 


     PseudoPot. # 3 for H  read from file:
     ./pseudo/H.pbesol-rrkjus_psl.1.0.0.UPF
     MD5 check sum: 0324ed591cc0147dc3d88cad0d33f665
     Pseudo is Ultrasoft, Zval =  1.0
     Generated using "atomic" code by A. Dal Corso  v.6.0 svn rev. 13079
     Using radial grid of  929 points,  2 beta functions with: 
                l(1) =   0
                l(2) =   0
     Q(r) pseudized with 0 coefficients 


     PseudoPot. # 4 for Zn read from file:
     ./pseudo/zn_pbesol_v1.uspp.F.UPF
     MD5 check sum: 7d8615e52efe7c1e2b1899de8658bae2
     Pseudo is Ultrasoft, Zval = 20.0
     Generated by new atomic code, or converted to UPF format
     Using radial grid of  943 points,  6 beta functions with: 
                l(1) =   0
                l(2) =   0
                l(3) =   1
                l(4) =   1
                l(5) =   2
                l(6) =   2
     Q(r) pseudized with  8 coefficients,  rinner =    1.100   1.100   1.100
                                                       1.100   1.100

     atomic species   valence    mass     pseudopotential
        N              5.00    14.00670     N ( 1.00)
        C              4.00    12.01070     C ( 1.00)
        H              1.00     1.00794     H ( 1.00)
        Zn            20.00    65.38000     Zn( 1.00)

     No symmetry found


                                    s                        frac. trans.

      isym =  1     identity                                     

 cryst.   s( 1) = (     1          0          0      )
                  (     0          1          0      )
                  (     0          0          1      )

 cart.    s( 1) = (  1.0000000  0.0000000  0.0000000 )
                  (  0.0000000  1.0000000  0.0000000 )
                  (  0.0000000  0.0000000  1.0000000 )


   Cartesian axes

     site n.     atom                  positions (alat units)
         1           N   tau(   1) = (   0.2710468  -0.0829864   0.1173636  )
         2           N   tau(   2) = (   0.0161599   0.1719005   0.4638680  )
         3           N   tau(   3) = (   0.5259337  -0.3378733   0.4638680  )
         4           N   tau(   4) = (   0.2710468  -0.0829864   0.8103725  )
         5           N   tau(   5) = (   0.5259337   0.1719005  -0.2291408  )
         6           N   tau(   6) = (   0.2710468   0.4267874   0.1173636  )
         7           N   tau(   7) = (   0.7808206  -0.0829864   0.1173636  )
         8           N   tau(   8) = (   0.5259337   0.1719005   0.4638680  )
         9           N   tau(   9) = (   0.0792892   0.1480962   0.4576515  )
        10           N   tau(  10) = (  -0.1755977   0.4029831   0.8041559  )
        11           N   tau(  11) = (   0.3341761  -0.1067907   0.8041559  )
        12           N   tau(  12) = (   0.0792892   0.1480962   1.1506604  )
        13           N   tau(  13) = (   0.3341761   0.4029831   0.1111471  )
        14           N   tau(  14) = (   0.0792892   0.6578701   0.4576515  )
        15           N   tau(  15) = (   0.5890630   0.1480962   0.4576515  )
        16           N   tau(  16) = (   0.3341761   0.4029831   0.8041559  )
        17           C   tau(  17) = (  -0.0968335   0.1355948   0.4273593  )
        18           C   tau(  18) = (  -0.3517204   0.3904817   0.7738637  )
        19           C   tau(  19) = (   0.1580534  -0.1192921   0.7738637  )
        20           C   tau(  20) = (  -0.0968335   0.1355948   1.1203682  )
        21           C   tau(  21) = (   0.1580534   0.3904817   0.0808549  )
        22           C   tau(  22) = (  -0.0968335   0.6453687   0.4273593  )
        23           C   tau(  23) = (   0.4129403   0.1355948   0.4273593  )
        24           C   tau(  24) = (   0.1580534   0.3904817   0.7738637  )
        25           C   tau(  25) = (  -0.0244840   0.1283983   0.4318794  )
        26           C   tau(  26) = (  -0.2793710   0.3832852   0.7783839  )
        27           C   tau(  27) = (   0.2304029  -0.1264886   0.7783839  )
        28           C   tau(  28) = (  -0.0244840   0.1283983   1.1248883  )
        29           C   tau(  29) = (   0.2304029   0.3832852   0.0853750  )
        30           C   tau(  30) = (  -0.0244840   0.6381721   0.4318794  )
        31           C   tau(  31) = (   0.4852898   0.1283983   0.4318794  )
        32           C   tau(  32) = (   0.2304029   0.3832852   0.7783839  )
        33           C   tau(  33) = (   0.1135697   0.3364209   0.0858899  )
        34           C   tau(  34) = (  -0.1413172   0.5913078   0.4323944  )
        35           C   tau(  35) = (   0.3684566   0.0815340   0.4323944  )
        36           C   tau(  36) = (   0.1135697   0.3364209   0.7788988  )
        37           C   tau(  37) = (   0.3684566   0.5913078  -0.2606145  )
        38           C   tau(  38) = (   0.1135697   0.8461947   0.0858899  )
        39           C   tau(  39) = (   0.6233435   0.3364209   0.0858899  )
        40           C   tau(  40) = (   0.3684566   0.5913078   0.4323944  )
        41           H   tau(  41) = (   0.1320089   0.2848859   0.0919123  )
        42           H   tau(  42) = (  -0.1228780   0.5397728   0.4384168  )
        43           H   tau(  43) = (   0.3868958   0.0299990   0.4384168  )
        44           H   tau(  44) = (   0.1320089   0.2848859   0.7849212  )
        45           H   tau(  45) = (   0.3868958   0.5397728  -0.2545921  )
        46           H   tau(  46) = (   0.1320089   0.7946597   0.0919123  )
        47           H   tau(  47) = (   0.6417827   0.2848859   0.0919123  )
        48           H   tau(  48) = (   0.3868958   0.5397728   0.4384168  )
        49           C   tau(  49) = (   0.0234072   0.4166034   0.0803957  )
        50           C   tau(  50) = (  -0.2314797   0.6714904   0.4269002  )
        51           C   tau(  51) = (   0.2782941   0.1617165   0.4269002  )
        52           C   tau(  52) = (   0.0234072   0.4166034   0.7734046  )
        53           C   tau(  53) = (   0.2782941   0.6714904  -0.2661087  )
        54           C   tau(  54) = (   0.0234072   0.9263773   0.0803957  )
        55           C   tau(  55) = (   0.5331811   0.4166034   0.0803957  )
        56           C   tau(  56) = (   0.2782941   0.6714904   0.4269002  )
        57           H   tau(  57) = (  -0.0300067   0.4299903   0.0814174  )
        58           H   tau(  58) = (  -0.2848936   0.6848772   0.4279218  )
        59           H   tau(  59) = (   0.2248802   0.1751034   0.4279218  )
        60           H   tau(  60) = (  -0.0300067   0.4299903   0.7744263  )
        61           H   tau(  61) = (   0.2248802   0.6848772  -0.2650870  )
        62           H   tau(  62) = (  -0.0300067   0.9397641   0.0814174  )
        63           H   tau(  63) = (   0.4797671   0.4299903   0.0814174  )
        64           H   tau(  64) = (   0.2248802   0.6848772   0.4279218  )
        65           N   tau(  65) = (   0.0137429   0.0791523   0.4063605  )
        66           N   tau(  66) = (  -0.2411440   0.3340392   0.7528650  )
        67           N   tau(  67) = (   0.2686298  -0.1757347   0.7528650  )
        68           N   tau(  68) = (   0.0137429   0.0791523   1.0993694  )
        69           N   tau(  69) = (   0.2686298   0.3340392   0.0598561  )
        70           N   tau(  70) = (   0.0137429   0.5889261   0.4063605  )
        71           N   tau(  71) = (   0.5235167   0.0791523   0.4063605  )
        72           N   tau(  72) = (   0.2686298   0.3340392   0.7528650  )
        73           N   tau(  73) = (   0.0778636   0.0929680   0.4236992  )
        74           N   tau(  74) = (  -0.1770233   0.3478549   0.7702037  )
        75           N   tau(  75) = (   0.3327505  -0.1619189   0.7702037  )
        76           N   tau(  76) = (   0.0778636   0.0929680   1.1167081  )
        77           N   tau(  77) = (   0.3327505   0.3478549   0.0771948  )
        78           N   tau(  78) = (   0.0778636   0.6027418   0.4236992  )
        79           N   tau(  79) = (   0.5876374   0.0929680   0.4236992  )
        80           N   tau(  80) = (   0.3327505   0.3478549   0.7702037  )
        81           C   tau(  81) = (  -0.1240995   0.2003827   0.4209196  )
        82           C   tau(  82) = (  -0.3787155   0.4549987   0.7670558  )
        83           C   tau(  83) = (   0.1310583  -0.0547751   0.7670558  )
        84           C   tau(  84) = (  -0.1238286   0.2001118   1.1135603  )
        85           C   tau(  85) = (   0.1310583   0.4549987   0.0740469  )
        86           C   tau(  86) = (  -0.1238286   0.7098857   0.4205514  )
        87           C   tau(  87) = (   0.3859452   0.2001118   0.4205514  )
        88           C   tau(  88) = (   0.1310583   0.4549987   0.7670558  )
        89           H   tau(  89) = (   0.1645114  -0.0114933   0.0672613  )
        90           H   tau(  90) = (  -0.0903755   0.2433936   0.4137658  )
        91           H   tau(  91) = (   0.4193983  -0.2663802   0.4137658  )
        92           H   tau(  92) = (   0.1645114  -0.0114933   0.7602702  )
        93           H   tau(  93) = (   0.4193983   0.2433936  -0.2792431  )
        94           H   tau(  94) = (   0.1645114   0.4982805   0.0672613  )
        95           H   tau(  95) = (   0.6742852  -0.0114933   0.0672613  )
        96           H   tau(  96) = (   0.4193983   0.2433936   0.4137658  )
        97           N   tau(  97) = (   0.0658052  -0.0414701   0.0746064  )
        98           N   tau(  98) = (  -0.1890817   0.2134168   0.4211109  )
        99           N   tau(  99) = (   0.3206921  -0.2963571   0.4211109  )
       100           N   tau( 100) = (   0.0658052  -0.0414701   0.7676153  )
       101           N   tau( 101) = (   0.3206921   0.2134168  -0.2718980  )
       102           N   tau( 102) = (   0.0658052   0.4683037   0.0746064  )
       103           N   tau( 103) = (   0.5755790  -0.0414701   0.0746064  )
       104           N   tau( 104) = (   0.3206921   0.2134168   0.4211109  )
       105           C   tau( 105) = (  -0.0451994   0.1596322   0.0850839  )
       106           C   tau( 106) = (  -0.3000863   0.4145191   0.4315883  )
       107           C   tau( 107) = (   0.2096875  -0.0952547   0.4315883  )
       108           C   tau( 108) = (  -0.0451994   0.1596322   0.7780928  )
       109           C   tau( 109) = (   0.2096875   0.4145191  -0.2614205  )
       110           C   tau( 110) = (  -0.0451994   0.6694060   0.0850839  )
       111           C   tau( 111) = (   0.4645744   0.1596322   0.0850839  )
       112           C   tau( 112) = (   0.2096875   0.4145191   0.4315883  )
       113           H   tau( 113) = (   0.0082067   0.3098036   0.0895138  )
       114           H   tau( 114) = (  -0.2466802   0.5646905   0.4360182  )
       115           H   tau( 115) = (   0.2630936   0.0549167   0.4360182  )
       116           H   tau( 116) = (   0.0082067   0.3098036   0.7825226  )
       117           H   tau( 117) = (   0.2630936   0.5646905  -0.2569907  )
       118           H   tau( 118) = (   0.0082067   0.8195774   0.0895138  )
       119           H   tau( 119) = (   0.5179805   0.3098036   0.0895138  )
       120           H   tau( 120) = (   0.2630936   0.5646905   0.4360182  )
       121           N   tau( 121) = (   0.2387270   0.0829864   0.1173636  )
       122           N   tau( 122) = (  -0.0161599   0.3378733   0.4638680  )
       123           N   tau( 123) = (   0.4936139  -0.1719005   0.4638680  )
       124           N   tau( 124) = (   0.2387270   0.0829864   0.8103725  )
       125           N   tau( 125) = (   0.4936139   0.3378733  -0.2291408  )
       126           N   tau( 126) = (   0.2387270   0.5927603   0.1173636  )
       127           N   tau( 127) = (   0.7485008   0.0829864   0.1173636  )
       128           N   tau( 128) = (   0.4936139   0.3378733   0.4638680  )
       129           N   tau( 129) = (   0.1755977   0.1067907   0.1111471  )
       130           N   tau( 130) = (  -0.0792892   0.3616776   0.4576515  )
       131           N   tau( 131) = (   0.4304846  -0.1480962   0.4576515  )
       132           N   tau( 132) = (   0.1755977   0.1067907   0.8041559  )
       133           N   tau( 133) = (   0.4304846   0.3616776  -0.2353574  )
       134           N   tau( 134) = (   0.1755977   0.6165645   0.1111471  )
       135           N   tau( 135) = (   0.6853715   0.1067907   0.1111471  )
       136           N   tau( 136) = (   0.4304846   0.3616776   0.4576515  )
       137           C   tau( 137) = (   0.3517204   0.1192921   0.0808549  )
       138           C   tau( 138) = (   0.0968335   0.3741790   0.4273593  )
       139           C   tau( 139) = (   0.6066073  -0.1355948   0.4273593  )
       140           C   tau( 140) = (   0.3517204   0.1192921   0.7738637  )
       141           C   tau( 141) = (   0.6066073   0.3741790  -0.2656496  )
       142           C   tau( 142) = (   0.3517204   0.6290659   0.0808549  )
       143           C   tau( 143) = (   0.8614942   0.1192921   0.0808549  )
       144           C   tau( 144) = (   0.6066073   0.3741790   0.4273593  )
       145           C   tau( 145) = (   0.2793710   0.1264886   0.0853750  )
       146           C   tau( 146) = (   0.0244840   0.3813755   0.4318794  )
       147           C   tau( 147) = (   0.5342579  -0.1283983   0.4318794  )
       148           C   tau( 148) = (   0.2793710   0.1264886   0.7783839  )
       149           C   tau( 149) = (   0.5342579   0.3813755  -0.2611294  )
       150           C   tau( 150) = (   0.2793710   0.6362624   0.0853750  )
       151           C   tau( 151) = (   0.7891448   0.1264886   0.0853750  )
       152           C   tau( 152) = (   0.5342579   0.3813755   0.4318794  )
       153           C   tau( 153) = (   0.1413172  -0.0815340   0.4323944  )
       154           C   tau( 154) = (  -0.1135697   0.1733530   0.7788988  )
       155           C   tau( 155) = (   0.3962041  -0.3364209   0.7788988  )
       156           C   tau( 156) = (   0.1413172  -0.0815340   1.1254033  )
       157           C   tau( 157) = (   0.3962041   0.1733530   0.0858899  )
       158           C   tau( 158) = (   0.1413172   0.4282399   0.4323944  )
       159           C   tau( 159) = (   0.6510910  -0.0815340   0.4323944  )
       160           C   tau( 160) = (   0.3962041   0.1733530   0.7788988  )
       161           H   tau( 161) = (   0.1228780  -0.0299990   0.4384168  )
       162           H   tau( 162) = (  -0.1320089   0.2248879   0.7849212  )
       163           H   tau( 163) = (   0.3777649  -0.2848859   0.7849212  )
       164           H   tau( 164) = (   0.1228780  -0.0299990   1.1314256  )
       165           H   tau( 165) = (   0.3777649   0.2248879   0.0919123  )
       166           H   tau( 166) = (   0.1228780   0.4797748   0.4384168  )
       167           H   tau( 167) = (   0.6326518  -0.0299990   0.4384168  )
       168           H   tau( 168) = (   0.3777649   0.2248879   0.7849212  )
       169           C   tau( 169) = (  -0.0234072   0.0931704   0.0803957  )
       170           C   tau( 170) = (  -0.2782942   0.3480573   0.4269002  )
       171           C   tau( 171) = (   0.2314797  -0.1617165   0.4269002  )
       172           C   tau( 172) = (  -0.0234072   0.0931704   0.7734046  )
       173           C   tau( 173) = (   0.2314797   0.3480573  -0.2661087  )
       174           C   tau( 174) = (  -0.0234072   0.6029442   0.0803957  )
       175           C   tau( 175) = (   0.4863666   0.0931704   0.0803957  )
       176           C   tau( 176) = (   0.2314797   0.3480573   0.4269002  )
       177           H   tau( 177) = (   0.0300067   0.0797836   0.0814174  )
       178           H   tau( 178) = (  -0.2248802   0.3346705   0.4279218  )
       179           H   tau( 179) = (   0.2848936  -0.1751034   0.4279218  )
       180           H   tau( 180) = (   0.0300067   0.0797836   0.7744263  )
       181           H   tau( 181) = (   0.2848936   0.3346705  -0.2650870  )
       182           H   tau( 182) = (   0.0300067   0.5895574   0.0814174  )
       183           H   tau( 183) = (   0.5397805   0.0797836   0.0814174  )
       184           H   tau( 184) = (   0.2848936   0.3346705   0.4279218  )
       185           N   tau( 185) = (   0.2411440   0.1757347   0.0598561  )
       186           N   tau( 186) = (  -0.0137429   0.4306216   0.4063605  )
       187           N   tau( 187) = (   0.4960309  -0.0791523   0.4063605  )
       188           N   tau( 188) = (   0.2411440   0.1757347   0.7528650  )
       189           N   tau( 189) = (   0.4960309   0.4306216  -0.2866484  )
       190           N   tau( 190) = (   0.2411440   0.6855085   0.0598561  )
       191           N   tau( 191) = (   0.7509178   0.1757347   0.0598561  )
       192           N   tau( 192) = (   0.4960309   0.4306216   0.4063605  )
       193           N   tau( 193) = (   0.1770233   0.1619189   0.0771948  )
       194           N   tau( 194) = (  -0.0778636   0.4168059   0.4236992  )
       195           N   tau( 195) = (   0.4319102  -0.0929680   0.4236992  )
       196           N   tau( 196) = (   0.1770233   0.1619189   0.7702037  )
       197           N   tau( 197) = (   0.4319102   0.4168059  -0.2693096  )
       198           N   tau( 198) = (   0.1770233   0.6716928   0.0771948  )
       199           N   tau( 199) = (   0.6867971   0.1619189   0.0771948  )
       200           N   tau( 200) = (   0.4319102   0.4168059   0.4236992  )
       201           C   tau( 201) = (   0.3787155   0.0547751   0.0740469  )
       202           C   tau( 202) = (   0.1238286   0.3096620   0.4205514  )
       203           C   tau( 203) = (   0.6336024  -0.2001118   0.4205514  )
       204           C   tau( 204) = (   0.3787155   0.0547751   0.7670558  )
       205           C   tau( 205) = (   0.6336024   0.3096620  -0.2724575  )
       206           C   tau( 206) = (   0.3787155   0.5645489   0.0740469  )
       207           C   tau( 207) = (   0.8884893   0.0547751   0.0740469  )
       208           C   tau( 208) = (   0.6336024   0.3096620   0.4205514  )
       209           H   tau( 209) = (   0.3452624   0.0114933   0.0672613  )
       210           H   tau( 210) = (   0.0903755   0.2663802   0.4137658  )
       211           H   tau( 211) = (   0.6001493  -0.2433936   0.4137658  )
       212           H   tau( 212) = (   0.3452624   0.0114933   0.7602702  )
       213           H   tau( 213) = (   0.6001493   0.2663802  -0.2792431  )
       214           H   tau( 214) = (   0.3452624   0.5212672   0.0672613  )
       215           H   tau( 215) = (   0.8550362   0.0114933   0.0672613  )
       216           H   tau( 216) = (   0.6001493   0.2663802   0.4137658  )
       217           N   tau( 217) = (   0.4439686   0.0414701   0.0746064  )
       218           N   tau( 218) = (   0.1890817   0.2963571   0.4211109  )
       219           N   tau( 219) = (   0.6988555  -0.2134168   0.4211109  )
       220           N   tau( 220) = (   0.4439686   0.0414701   0.7676153  )
       221           N   tau( 221) = (   0.6988555   0.2963571  -0.2718980  )
       222           N   tau( 222) = (   0.4439686   0.5512440   0.0746064  )
       223           N   tau( 223) = (   0.9537424   0.0414701   0.0746064  )
       224           N   tau( 224) = (   0.6988555   0.2963571   0.4211109  )
       225           C   tau( 225) = (   0.0451994   0.3501416   0.0850839  )
       226           C   tau( 226) = (  -0.2096875   0.6050285   0.4315883  )
       227           C   tau( 227) = (   0.3000863   0.0952547   0.4315883  )
       228           C   tau( 228) = (   0.0451994   0.3501416   0.7780928  )
       229           C   tau( 229) = (   0.3000863   0.6050285  -0.2614205  )
       230           C   tau( 230) = (   0.0451994   0.8599154   0.0850839  )
       231           C   tau( 231) = (   0.5549732   0.3501416   0.0850839  )
       232           C   tau( 232) = (   0.3000863   0.6050285   0.4315883  )
       233           H   tau( 233) = (  -0.0082067   0.1999702   0.0895138  )
       234           H   tau( 234) = (  -0.2630936   0.4548571   0.4360182  )
       235           H   tau( 235) = (   0.2466802  -0.0549167   0.4360182  )
       236           H   tau( 236) = (  -0.0082067   0.1999702   0.7825226  )
       237           H   tau( 237) = (   0.2466802   0.4548571  -0.2569907  )
       238           H   tau( 238) = (  -0.0082067   0.7097440   0.0895138  )
       239           H   tau( 239) = (   0.5015671   0.1999702   0.0895138  )
       240           H   tau( 240) = (   0.2466802   0.4548571   0.4360182  )
       241           N   tau( 241) = (   0.1719005  -0.0161599   0.2291408  )
       242           N   tau( 242) = (  -0.0829864   0.2387270   0.5756453  )
       243           N   tau( 243) = (   0.4267874  -0.2710468   0.5756453  )
       244           N   tau( 244) = (   0.1719005  -0.0161599   0.9221497  )
       245           N   tau( 245) = (   0.4267874   0.2387270  -0.1173636  )
       246           N   tau( 246) = (   0.1719005   0.4936139   0.2291408  )
       247           N   tau( 247) = (   0.6816743  -0.0161599   0.2291408  )
       248           N   tau( 248) = (   0.4267874   0.2387270   0.5756453  )
       249           N   tau( 249) = (   0.1480962  -0.0792892   0.2353574  )
       250           N   tau( 250) = (  -0.1067907   0.1755977   0.5818618  )
       251           N   tau( 251) = (   0.4029831  -0.3341761   0.5818618  )
       252           N   tau( 252) = (   0.1480962  -0.0792892   0.9283662  )
       253           N   tau( 253) = (   0.4029831   0.1755977  -0.1111471  )
       254           N   tau( 254) = (   0.1480962   0.4304846   0.2353574  )
       255           N   tau( 255) = (   0.6578701  -0.0792892   0.2353574  )
       256           N   tau( 256) = (   0.4029831   0.1755977   0.5818618  )
       257           C   tau( 257) = (   0.1355948   0.0968335   0.2656496  )
       258           C   tau( 258) = (  -0.1192921   0.3517204   0.6121540  )
       259           C   tau( 259) = (   0.3904817  -0.1580534   0.6121540  )
       260           C   tau( 260) = (   0.1355948   0.0968335   0.9586584  )
       261           C   tau( 261) = (   0.3904817   0.3517204  -0.0808549  )
       262           C   tau( 262) = (   0.1355948   0.6066073   0.2656496  )
       263           C   tau( 263) = (   0.6453687   0.0968335   0.2656496  )
       264           C   tau( 264) = (   0.3904817   0.3517204   0.6121540  )
       265           C   tau( 265) = (   0.1283983   0.0244840   0.2611294  )
       266           C   tau( 266) = (  -0.1264886   0.2793710   0.6076339  )
       267           C   tau( 267) = (   0.3832852  -0.2304029   0.6076339  )
       268           C   tau( 268) = (   0.1283983   0.0244840   0.9541383  )
       269           C   tau( 269) = (   0.3832852   0.2793710  -0.0853750  )
       270           C   tau( 270) = (   0.1283983   0.5342579   0.2611294  )
       271           C   tau( 271) = (   0.6381721   0.0244840   0.2611294  )
       272           C   tau( 272) = (   0.3832852   0.2793710   0.6076339  )
       273           C   tau( 273) = (   0.0815340   0.1413172   0.2606145  )
       274           C   tau( 274) = (  -0.1733530   0.3962041   0.6071189  )
       275           C   tau( 275) = (   0.3364209  -0.1135697   0.6071189  )
       276           C   tau( 276) = (   0.0815340   0.1413172   0.9536234  )
       277           C   tau( 277) = (   0.3364209   0.3962041  -0.0858899  )
       278           C   tau( 278) = (   0.0815340   0.6510910   0.2606145  )
       279           C   tau( 279) = (   0.5913078   0.1413172   0.2606145  )
       280           C   tau( 280) = (   0.3364209   0.3962041   0.6071189  )
       281           H   tau( 281) = (   0.0299990   0.1228780   0.2545921  )
       282           H   tau( 282) = (  -0.2248879   0.3777649   0.6010965  )
       283           H   tau( 283) = (   0.2848859  -0.1320089   0.6010965  )
       284           H   tau( 284) = (   0.0299990   0.1228780   0.9476010  )
       285           H   tau( 285) = (   0.2848859   0.3777649  -0.0919123  )
       286           H   tau( 286) = (   0.0299990   0.6326518   0.2545921  )
       287           H   tau( 287) = (   0.5397728   0.1228780   0.2545921  )
       288           H   tau( 288) = (   0.2848859   0.3777649   0.6010965  )
       289           C   tau( 289) = (   0.1617165   0.2314797   0.2661087  )
       290           C   tau( 290) = (  -0.0931704   0.4863666   0.6126131  )
       291           C   tau( 291) = (   0.4166034  -0.0234072   0.6126131  )
       292           C   tau( 292) = (   0.1617165   0.2314797   0.9591176  )
       293           C   tau( 293) = (   0.4166034   0.4863666  -0.0803957  )
       294           C   tau( 294) = (   0.1617165   0.7412535   0.2661087  )
       295           C   tau( 295) = (   0.6714904   0.2314797   0.2661087  )
       296           C   tau( 296) = (   0.4166034   0.4863666   0.6126131  )
       297           H   tau( 297) = (   0.1751034   0.2848936   0.2650870  )
       298           H   tau( 298) = (  -0.0797836   0.5397805   0.6115915  )
       299           H   tau( 299) = (   0.4299903   0.0300067   0.6115915  )
       300           H   tau( 300) = (   0.1751034   0.2848936   0.9580959  )
       301           H   tau( 301) = (   0.4299903   0.5397805  -0.0814174  )
       302           H   tau( 302) = (   0.1751034   0.7946674   0.2650870  )
       303           H   tau( 303) = (   0.6848772   0.2848936   0.2650870  )
       304           H   tau( 304) = (   0.4299903   0.5397805   0.6115915  )
       305           N   tau( 305) = (   0.0791523  -0.0137429   0.2866484  )
       306           N   tau( 306) = (  -0.1757347   0.2411440   0.6331528  )
       307           N   tau( 307) = (   0.3340392  -0.2686298   0.6331528  )
       308           N   tau( 308) = (   0.0791523  -0.0137429   0.9796572  )
       309           N   tau( 309) = (   0.3340392   0.2411440  -0.0598561  )
       310           N   tau( 310) = (   0.0791523   0.4960309   0.2866484  )
       311           N   tau( 311) = (   0.5889261  -0.0137429   0.2866484  )
       312           N   tau( 312) = (   0.3340392   0.2411440   0.6331528  )
       313           N   tau( 313) = (   0.0929680  -0.0778636   0.2693096  )
       314           N   tau( 314) = (  -0.1619189   0.1770233   0.6158141  )
       315           N   tau( 315) = (   0.3478549  -0.3327505   0.6158141  )
       316           N   tau( 316) = (   0.0929680  -0.0778636   0.9623185  )
       317           N   tau( 317) = (   0.3478549   0.1770233  -0.0771948  )
       318           N   tau( 318) = (   0.0929680   0.4319102   0.2693096  )
       319           N   tau( 319) = (   0.6027418  -0.0778636   0.2693096  )
       320           N   tau( 320) = (   0.3478549   0.1770233   0.6158141  )
       321           C   tau( 321) = (   0.2001118   0.1238286   0.2724575  )
       322           C   tau( 322) = (  -0.0547751   0.3787155   0.6189619  )
       323           C   tau( 323) = (   0.4549987  -0.1310583   0.6189619  )
       324           C   tau( 324) = (   0.2001118   0.1238286   0.9654664  )
       325           C   tau( 325) = (   0.4549987   0.3787155  -0.0740469  )
       326           C   tau( 326) = (   0.2001118   0.6336024   0.2724575  )
       327           C   tau( 327) = (   0.7098857   0.1238286   0.2724575  )
       328           C   tau( 328) = (   0.4549987   0.3787155   0.6189619  )
       329           H   tau( 329) = (   0.2433936   0.0903755   0.2792431  )
       330           H   tau( 330) = (  -0.0114933   0.3452624   0.6257475  )
       331           H   tau( 331) = (   0.4982805  -0.1645114   0.6257475  )
       332           H   tau( 332) = (   0.2433936   0.0903755   0.9722520  )
       333           H   tau( 333) = (   0.4982805   0.3452624  -0.0672613  )
       334           H   tau( 334) = (   0.2433936   0.6001493   0.2792431  )
       335           H   tau( 335) = (   0.7531674   0.0903755   0.2792431  )
       336           H   tau( 336) = (   0.4982805   0.3452624   0.6257475  )
       337           N   tau( 337) = (   0.2134168   0.1890817   0.2718980  )
       338           N   tau( 338) = (  -0.0414701   0.4439686   0.6184024  )
       339           N   tau( 339) = (   0.4683037  -0.0658052   0.6184024  )
       340           N   tau( 340) = (   0.2134168   0.1890817   0.9649069  )
       341           N   tau( 341) = (   0.4683037   0.4439686  -0.0746064  )
       342           N   tau( 342) = (   0.2134168   0.6988555   0.2718980  )
       343           N   tau( 343) = (   0.7231906   0.1890817   0.2718980  )
       344           N   tau( 344) = (   0.4683037   0.4439686   0.6184024  )
       345           C   tau( 345) = (  -0.0952547   0.3000863   0.2614205  )
       346           C   tau( 346) = (  -0.3501416   0.5549732   0.6079250  )
       347           C   tau( 347) = (   0.1596322   0.0451994   0.6079250  )
       348           C   tau( 348) = (  -0.0952547   0.3000863   0.9544294  )
       349           C   tau( 349) = (   0.1596322   0.5549732  -0.0850839  )
       350           C   tau( 350) = (  -0.0952547   0.8098601   0.2614205  )
       351           C   tau( 351) = (   0.4145191   0.3000863   0.2614205  )
       352           C   tau( 352) = (   0.1596322   0.5549732   0.6079250  )
       353           H   tau( 353) = (   0.0549167   0.2466802   0.2569907  )
       354           H   tau( 354) = (  -0.1999702   0.5015671   0.6034951  )
       355           H   tau( 355) = (   0.3098036  -0.0082067   0.6034951  )
       356           H   tau( 356) = (   0.0549167   0.2466802   0.9499995  )
       357           H   tau( 357) = (   0.3098036   0.5015671  -0.0895138  )
       358           H   tau( 358) = (   0.0549167   0.7564540   0.2569907  )
       359           H   tau( 359) = (   0.5646905   0.2466802   0.2569907  )
       360           H   tau( 360) = (   0.3098036   0.5015671   0.6034951  )
       361           N   tau( 361) = (   0.3378733   0.0161599   0.2291408  )
       362           N   tau( 362) = (   0.0829864   0.2710468   0.5756453  )
       363           N   tau( 363) = (   0.5927603  -0.2387270   0.5756453  )
       364           N   tau( 364) = (   0.3378733   0.0161599   0.9221497  )
       365           N   tau( 365) = (   0.5927603   0.2710468  -0.1173636  )
       366           N   tau( 366) = (   0.3378733   0.5259337   0.2291408  )
       367           N   tau( 367) = (   0.8476472   0.0161599   0.2291408  )
       368           N   tau( 368) = (   0.5927603   0.2710468   0.5756453  )
       369           N   tau( 369) = (   0.1067907   0.3341761  -0.1111471  )
       370           N   tau( 370) = (  -0.1480962   0.5890630   0.2353574  )
       371           N   tau( 371) = (   0.3616776   0.0792892   0.2353574  )
       372           N   tau( 372) = (   0.1067907   0.3341761   0.5818618  )
       373           N   tau( 373) = (   0.3616776   0.5890630  -0.4576515  )
       374           N   tau( 374) = (   0.1067907   0.8439499  -0.1111471  )
       375           N   tau( 375) = (   0.6165645   0.3341761  -0.1111471  )
       376           N   tau( 376) = (   0.3616776   0.5890630   0.2353574  )
       377           C   tau( 377) = (   0.1192921   0.1580534  -0.0808549  )
       378           C   tau( 378) = (  -0.1355948   0.4129403   0.2656496  )
       379           C   tau( 379) = (   0.3741790  -0.0968335   0.2656496  )
       380           C   tau( 380) = (   0.1192921   0.1580534   0.6121540  )
       381           C   tau( 381) = (   0.3741790   0.4129403  -0.4273593  )
       382           C   tau( 382) = (   0.1192921   0.6678273  -0.0808549  )
       383           C   tau( 383) = (   0.6290659   0.1580534  -0.0808549  )
       384           C   tau( 384) = (   0.3741790   0.4129403   0.2656496  )
       385           C   tau( 385) = (   0.1264886   0.2304029  -0.0853750  )
       386           C   tau( 386) = (  -0.1283983   0.4852898   0.2611294  )
       387           C   tau( 387) = (   0.3813755  -0.0244840   0.2611294  )
       388           C   tau( 388) = (   0.1264886   0.2304029   0.6076339  )
       389           C   tau( 389) = (   0.3813755   0.4852898  -0.4318794  )
       390           C   tau( 390) = (   0.1264886   0.7401767  -0.0853750  )
       391           C   tau( 391) = (   0.6362624   0.2304029  -0.0853750  )
       392           C   tau( 392) = (   0.3813755   0.4852898   0.2611294  )
       393           C   tau( 393) = (   0.1733530   0.1135697  -0.0858899  )
       394           C   tau( 394) = (  -0.0815340   0.3684566   0.2606145  )
       395           C   tau( 395) = (   0.4282399  -0.1413172   0.2606145  )
       396           C   tau( 396) = (   0.1733530   0.1135697   0.6071189  )
       397           C   tau( 397) = (   0.4282399   0.3684566  -0.4323944  )
       398           C   tau( 398) = (   0.1733530   0.6233435  -0.0858899  )
       399           C   tau( 399) = (   0.6831268   0.1135697  -0.0858899  )
       400           C   tau( 400) = (   0.4282399   0.3684566   0.2606145  )
       401           H   tau( 401) = (   0.2248879   0.1320089  -0.0919123  )
       402           H   tau( 402) = (  -0.0299990   0.3868958   0.2545921  )
       403           H   tau( 403) = (   0.4797748  -0.1228780   0.2545921  )
       404           H   tau( 404) = (   0.2248879   0.1320089   0.6010965  )
       405           H   tau( 405) = (   0.4797748   0.3868958  -0.4384168  )
       406           H   tau( 406) = (   0.2248879   0.6417827  -0.0919123  )
       407           H   tau( 407) = (   0.7346617   0.1320089  -0.0919123  )
       408           H   tau( 408) = (   0.4797748   0.3868958   0.2545921  )
       409           C   tau( 409) = (  -0.1617165   0.2782942   0.2661087  )
       410           C   tau( 410) = (  -0.4166034   0.5331811   0.6126131  )
       411           C   tau( 411) = (   0.0931704   0.0234072   0.6126131  )
       412           C   tau( 412) = (  -0.1617165   0.2782942   0.9591176  )
       413           C   tau( 413) = (   0.0931704   0.5331811  -0.0803957  )
       414           C   tau( 414) = (  -0.1617165   0.7880680   0.2661087  )
       415           C   tau( 415) = (   0.3480573   0.2782942   0.2661087  )
       416           C   tau( 416) = (   0.0931704   0.5331811   0.6126131  )
       417           H   tau( 417) = (  -0.1751034   0.2248802   0.2650870  )
       418           H   tau( 418) = (  -0.4299903   0.4797671   0.6115915  )
       419           H   tau( 419) = (   0.0797836  -0.0300067   0.6115915  )
       420           H   tau( 420) = (  -0.1751034   0.2248802   0.9580959  )
       421           H   tau( 421) = (   0.0797836   0.4797671  -0.0814174  )
       422           H   tau( 422) = (  -0.1751034   0.7346540   0.2650870  )
       423           H   tau( 423) = (   0.3346705   0.2248802   0.2650870  )
       424           H   tau( 424) = (   0.0797836   0.4797671   0.6115915  )
       425           N   tau( 425) = (   0.1757347   0.2686298  -0.0598561  )
       426           N   tau( 426) = (  -0.0791523   0.5235167   0.2866484  )
       427           N   tau( 427) = (   0.4306216   0.0137429   0.2866484  )
       428           N   tau( 428) = (   0.1757347   0.2686298   0.6331528  )
       429           N   tau( 429) = (   0.4306216   0.5235167  -0.4063605  )
       430           N   tau( 430) = (   0.1757347   0.7784037  -0.0598561  )
       431           N   tau( 431) = (   0.6855085   0.2686298  -0.0598561  )
       432           N   tau( 432) = (   0.4306216   0.5235167   0.2866484  )
       433           N   tau( 433) = (   0.1619189   0.3327505  -0.0771948  )
       434           N   tau( 434) = (  -0.0929680   0.5876374   0.2693096  )
       435           N   tau( 435) = (   0.4168059   0.0778636   0.2693096  )
       436           N   tau( 436) = (   0.1619189   0.3327505   0.6158141  )
       437           N   tau( 437) = (   0.4168059   0.5876374  -0.4236992  )
       438           N   tau( 438) = (   0.1619189   0.8425243  -0.0771948  )
       439           N   tau( 439) = (   0.6716928   0.3327505  -0.0771948  )
       440           N   tau( 440) = (   0.4168059   0.5876374   0.2693096  )
       441           C   tau( 441) = (   0.0547751   0.1310583  -0.0740469  )
       442           C   tau( 442) = (  -0.2001118   0.3859452   0.2724575  )
       443           C   tau( 443) = (   0.3096620  -0.1238286   0.2724575  )
       444           C   tau( 444) = (   0.0547751   0.1310583   0.6189619  )
       445           C   tau( 445) = (   0.3096620   0.3859452  -0.4205514  )
       446           C   tau( 446) = (   0.0547751   0.6408321  -0.0740469  )
       447           C   tau( 447) = (   0.5645489   0.1310583  -0.0740469  )
       448           C   tau( 448) = (   0.3096620   0.3859452   0.2724575  )
       449           H   tau( 449) = (   0.2663802  -0.0903755   0.2792431  )
       450           H   tau( 450) = (   0.0114933   0.1645114   0.6257475  )
       451           H   tau( 451) = (   0.5212672  -0.3452624   0.6257475  )
       452           H   tau( 452) = (   0.2663802  -0.0903755   0.9722520  )
       453           H   tau( 453) = (   0.5212672   0.1645114  -0.0672613  )
       454           H   tau( 454) = (   0.2663802   0.4193983   0.2792431  )
       455           H   tau( 455) = (   0.7761541  -0.0903755   0.2792431  )
       456           H   tau( 456) = (   0.5212672   0.1645114   0.6257475  )
       457           N   tau( 457) = (   0.2963571  -0.1890817   0.2718980  )
       458           N   tau( 458) = (   0.0414701   0.0658052   0.6184024  )
       459           N   tau( 459) = (   0.5512440  -0.4439686   0.6184024  )
       460           N   tau( 460) = (   0.2963571  -0.1890817   0.9649069  )
       461           N   tau( 461) = (   0.5512440   0.0658052  -0.0746064  )
       462           N   tau( 462) = (   0.2963571   0.3206921   0.2718980  )
       463           N   tau( 463) = (   0.8061309  -0.1890817   0.2718980  )
       464           N   tau( 464) = (   0.5512440   0.0658052   0.6184024  )
       465           C   tau( 465) = (   0.0952547   0.2096875   0.2614205  )
       466           C   tau( 466) = (  -0.1596322   0.4645744   0.6079250  )
       467           C   tau( 467) = (   0.3501416  -0.0451994   0.6079250  )
       468           C   tau( 468) = (   0.0952547   0.2096875   0.9544294  )
       469           C   tau( 469) = (   0.3501416   0.4645744  -0.0850839  )
       470           C   tau( 470) = (   0.0952547   0.7194613   0.2614205  )
       471           C   tau( 471) = (   0.6050285   0.2096875   0.2614205  )
       472           C   tau( 472) = (   0.3501416   0.4645744   0.6079250  )
       473           H   tau( 473) = (  -0.0549167   0.2630936   0.2569907  )
       474           H   tau( 474) = (  -0.3098036   0.5179805   0.6034951  )
       475           H   tau( 475) = (   0.1999702   0.0082067   0.6034951  )
       476           H   tau( 476) = (  -0.0549167   0.2630936   0.9499995  )
       477           H   tau( 477) = (   0.1999702   0.5179805  -0.0895138  )
       478           H   tau( 478) = (  -0.0549167   0.7728675   0.2569907  )
       479           H   tau( 479) = (   0.4548571   0.2630936   0.2569907  )
       480           H   tau( 480) = (   0.1999702   0.5179805   0.6034951  )
       481           Zn  tau( 481) = (   0.2548869   0.0000000   0.1732522  )
       482           Zn  tau( 482) = (   0.0000000   0.2548869   0.5197567  )
       483           Zn  tau( 483) = (   0.5097738  -0.2548869   0.5197567  )
       484           Zn  tau( 484) = (   0.2548869   0.0000000   0.8662611  )
       485           Zn  tau( 485) = (   0.5097738   0.2548869  -0.1732522  )
       486           Zn  tau( 486) = (   0.2548869   0.5097738   0.1732522  )
       487           Zn  tau( 487) = (   0.7646607   0.0000000   0.1732522  )
       488           Zn  tau( 488) = (   0.5097738   0.2548869   0.5197567  )
       489           Zn  tau( 489) = (   0.0000000   0.0000000   0.3465044  )
       490           Zn  tau( 490) = (  -0.2548869   0.2548869   0.6930089  )
       491           Zn  tau( 491) = (   0.2548869  -0.2548869   0.6930089  )
       492           Zn  tau( 492) = (   0.0000000   0.0000000   1.0395133  )
       493           Zn  tau( 493) = (   0.2548869   0.2548869   0.0000000  )
       494           Zn  tau( 494) = (   0.0000000   0.5097738   0.3465044  )
       495           Zn  tau( 495) = (   0.5097738   0.0000000   0.3465044  )
       496           Zn  tau( 496) = (   0.2548869   0.2548869   0.6930089  )

   Crystallographic axes

     site n.     atom                  positions (cryst. coord.)
         1           N   tau(   1) = (  0.0032815  0.3505269  0.1844547  )
         2           N   tau(   2) = (  0.5032815  0.3505269  0.1844547  )
         3           N   tau(   3) = (  0.0032815  0.8505269  0.1844547  )
         4           N   tau(   4) = (  0.5032815  0.8505269  0.1844547  )
         5           N   tau(   5) = (  0.0032815  0.3505269  0.6844547  )
         6           N   tau(   6) = (  0.5032815  0.3505269  0.6844547  )
         7           N   tau(   7) = (  0.0032815  0.8505269  0.6844547  )
         8           N   tau(   8) = (  0.5032815  0.8505269  0.6844547  )
         9           N   tau(   9) = (  0.4754485  0.4079607  0.2230258  )
        10           N   tau(  10) = (  0.9754485  0.4079607  0.2230258  )
        11           N   tau(  11) = (  0.4754485  0.9079607  0.2230258  )
        12           N   tau(  12) = (  0.9754485  0.9079607  0.2230258  )
        13           N   tau(  13) = (  0.4754485  0.4079607  0.7230258  )
        14           N   tau(  14) = (  0.9754485  0.4079607  0.7230258  )
        15           N   tau(  15) = (  0.4754485  0.9079607  0.7230258  )
        16           N   tau(  16) = (  0.9754485  0.9079607  0.7230258  )
        17           C   tau(  17) = (  0.4413312  0.2133592  0.0380182  )
        18           C   tau(  18) = (  0.9413312  0.2133592  0.0380182  )
        19           C   tau(  19) = (  0.4413312  0.7133592  0.0380182  )
        20           C   tau(  20) = (  0.9413312  0.7133592  0.0380182  )
        21           C   tau(  21) = (  0.4413312  0.2133592  0.5380182  )
        22           C   tau(  22) = (  0.9413312  0.2133592  0.5380182  )
        23           C   tau(  23) = (  0.4413312  0.7133592  0.5380182  )
        24           C   tau(  24) = (  0.9413312  0.7133592  0.5380182  )
        25           C   tau(  25) = (  0.4375339  0.2875827  0.1019219  )
        26           C   tau(  26) = (  0.9375339  0.2875827  0.1019219  )
        27           C   tau(  27) = (  0.4375339  0.7875827  0.1019219  )
        28           C   tau(  28) = (  0.9375339  0.7875827  0.1019219  )
        29           C   tau(  29) = (  0.4375339  0.2875827  0.6019219  )
        30           C   tau(  30) = (  0.9375339  0.2875827  0.6019219  )
        31           C   tau(  31) = (  0.4375339  0.7875827  0.6019219  )
        32           C   tau(  32) = (  0.9375339  0.7875827  0.6019219  )
        33           C   tau(  33) = (  0.3919396  0.1733611  0.4413630  )
        34           C   tau(  34) = (  0.8919396  0.1733611  0.4413630  )
        35           C   tau(  35) = (  0.3919396  0.6733611  0.4413630  )
        36           C   tau(  36) = (  0.8919396  0.6733611  0.4413630  )
        37           C   tau(  37) = (  0.3919396  0.1733611  0.9413630  )
        38           C   tau(  38) = (  0.8919396  0.1733611  0.9413630  )
        39           C   tau(  39) = (  0.3919396  0.6733611  0.9413630  )
        40           C   tau(  40) = (  0.8919396  0.6733611  0.9413630  )
        41           H   tau(  41) = (  0.3457378  0.1957919  0.4089018  )
        42           H   tau(  42) = (  0.8457378  0.1957919  0.4089018  )
        43           H   tau(  43) = (  0.3457378  0.6957919  0.4089018  )
        44           H   tau(  44) = (  0.8457378  0.6957919  0.4089018  )
        45           H   tau(  45) = (  0.3457378  0.1957919  0.9089018  )
        46           H   tau(  46) = (  0.8457378  0.1957919  0.9089018  )
        47           H   tau(  47) = (  0.3457378  0.6957919  0.9089018  )
        48           H   tau(  48) = (  0.8457378  0.6957919  0.9089018  )
        49           C   tau(  49) = (  0.4666208  0.0809633  0.4315744  )
        50           C   tau(  50) = (  0.9666208  0.0809633  0.4315744  )
        51           C   tau(  51) = (  0.4666208  0.5809633  0.4315744  )
        52           C   tau(  52) = (  0.9666208  0.5809633  0.4315744  )
        53           C   tau(  53) = (  0.4666208  0.0809633  0.9315744  )
        54           C   tau(  54) = (  0.9666208  0.0809633  0.9315744  )
        55           C   tau(  55) = (  0.4666208  0.5809633  0.9315744  )
        56           C   tau(  56) = (  0.9666208  0.5809633  0.9315744  )
        57           H   tau(  57) = (  0.4804881  0.0293106  0.3923147  )
        58           H   tau(  58) = (  0.9804881  0.0293106  0.3923147  )
        59           H   tau(  59) = (  0.4804881  0.5293106  0.3923147  )
        60           H   tau(  60) = (  0.9804881  0.5293106  0.3923147  )
        61           H   tau(  61) = (  0.4804881  0.0293106  0.8923147  )
        62           H   tau(  62) = (  0.9804881  0.0293106  0.8923147  )
        63           H   tau(  63) = (  0.4804881  0.5293106  0.8923147  )
        64           H   tau(  64) = (  0.9804881  0.5293106  0.8923147  )
        65           N   tau(  65) = (  0.3708203  0.3066651  0.0911141  )
        66           N   tau(  66) = (  0.8708203  0.3066651  0.0911141  )
        67           N   tau(  67) = (  0.3708203  0.8066651  0.0911141  )
        68           N   tau(  68) = (  0.8708203  0.8066651  0.0911141  )
        69           N   tau(  69) = (  0.3708203  0.3066651  0.5911141  )
        70           N   tau(  70) = (  0.8708203  0.3066651  0.5911141  )
        71           N   tau(  71) = (  0.3708203  0.8066651  0.5911141  )
        72           N   tau(  72) = (  0.8708203  0.8066651  0.5911141  )
        73           N   tau(  73) = (  0.3968809  0.3820661  0.1675562  )
        74           N   tau(  74) = (  0.8968809  0.3820661  0.1675562  )
        75           N   tau(  75) = (  0.3968809  0.8820661  0.1675562  )
        76           N   tau(  76) = (  0.8968809  0.8820661  0.1675562  )
        77           N   tau(  77) = (  0.3968809  0.3820661  0.6675562  )
        78           N   tau(  78) = (  0.8968809  0.3820661  0.6675562  )
        79           N   tau(  79) = (  0.3968809  0.8820661  0.6675562  )
        80           N   tau(  80) = (  0.8968809  0.8820661  0.6675562  )
        81           C   tau(  81) = (  0.5002307  0.1819698  0.0748207  )
        82           C   tau(  82) = (  0.9996994  0.1819698  0.0748207  )
        83           C   tau(  83) = (  0.4996994  0.6819698  0.0748207  )
        84           C   tau(  84) = (  0.9996994  0.6819698  0.0748207  )
        85           C   tau(  85) = (  0.4996994  0.1819698  0.5748207  )
        86           C   tau(  86) = (  0.9996994  0.1819698  0.5748207  )
        87           C   tau(  87) = (  0.4996994  0.6819698  0.5748207  )
        88           C   tau(  88) = (  0.9996994  0.6819698  0.5748207  )
        89           H   tau(  89) = (  0.0372555  0.2098857  0.1500843  )
        90           H   tau(  90) = (  0.5372555  0.2098857  0.1500843  )
        91           H   tau(  91) = (  0.0372555  0.7098857  0.1500843  )
        92           H   tau(  92) = (  0.5372555  0.7098857  0.1500843  )
        93           H   tau(  93) = (  0.0372555  0.2098857  0.6500843  )
        94           H   tau(  94) = (  0.5372555  0.2098857  0.6500843  )
        95           H   tau(  95) = (  0.0372555  0.7098857  0.6500843  )
        96           H   tau(  96) = (  0.5372555  0.7098857  0.6500843  )
        97           N   tau(  97) = (  0.0131529  0.1183715  0.0238685  )
        98           N   tau(  98) = (  0.5131529  0.1183715  0.0238685  )
        99           N   tau(  99) = (  0.0131529  0.6183715  0.0238685  )
       100           N   tau( 100) = (  0.5131529  0.6183715  0.0238685  )
       101           N   tau( 101) = (  0.0131529  0.1183715  0.5238685  )
       102           N   tau( 102) = (  0.5131529  0.1183715  0.5238685  )
       103           N   tau( 103) = (  0.0131529  0.6183715  0.5238685  )
       104           N   tau( 104) = (  0.5131529  0.6183715  0.5238685  )
       105           C   tau( 105) = (  0.2179589  0.0170545  0.1122388  )
       106           C   tau( 106) = (  0.7179589  0.0170545  0.1122388  )
       107           C   tau( 107) = (  0.2179589  0.5170545  0.1122388  )
       108           C   tau( 108) = (  0.7179589  0.5170545  0.1122388  )
       109           C   tau( 109) = (  0.2179589  0.0170545  0.6122388  )
       110           C   tau( 110) = (  0.7179589  0.0170545  0.6122388  )
       111           C   tau( 111) = (  0.2179589  0.5170545  0.6122388  )
       112           C   tau( 112) = (  0.7179589  0.5170545  0.6122388  )
       113           H   tau( 113) = (  0.3684472  0.0726328  0.3119132  )
       114           H   tau( 114) = (  0.8684472  0.0726328  0.3119132  )
       115           H   tau( 115) = (  0.3684472  0.5726328  0.3119132  )
       116           H   tau( 116) = (  0.8684472  0.5726328  0.3119132  )
       117           H   tau( 117) = (  0.3684472  0.0726328  0.8119132  )
       118           H   tau( 118) = (  0.8684472  0.0726328  0.8119132  )
       119           H   tau( 119) = (  0.3684472  0.5726328  0.8119132  )
       120           H   tau( 120) = (  0.8684472  0.5726328  0.8119132  )
       121           N   tau( 121) = (  0.1660722  0.3188268  0.3155453  )
       122           N   tau( 122) = (  0.6660722  0.3188268  0.3155453  )
       123           N   tau( 123) = (  0.1660722  0.8188268  0.3155453  )
       124           N   tau( 124) = (  0.6660722  0.8188268  0.3155453  )
       125           N   tau( 125) = (  0.1660722  0.3188268  0.8155453  )
       126           N   tau( 126) = (  0.6660722  0.3188268  0.8155453  )
       127           N   tau( 127) = (  0.1660722  0.8188268  0.8155453  )
       128           N   tau( 128) = (  0.6660722  0.8188268  0.8155453  )
       129           N   tau( 129) = (  0.1849349  0.2524227  0.2769742  )
       130           N   tau( 130) = (  0.6849349  0.2524227  0.2769742  )
       131           N   tau( 131) = (  0.1849349  0.7524227  0.2769742  )
       132           N   tau( 132) = (  0.6849349  0.7524227  0.2769742  )
       133           N   tau( 133) = (  0.1849349  0.2524227  0.7769742  )
       134           N   tau( 134) = (  0.6849349  0.2524227  0.7769742  )
       135           N   tau( 135) = (  0.1849349  0.7524227  0.7769742  )
       136           N   tau( 136) = (  0.6849349  0.7524227  0.7769742  )
       137           C   tau( 137) = (  0.1753410  0.4033130  0.4619818  )
       138           C   tau( 138) = (  0.6753410  0.4033130  0.4619818  )
       139           C   tau( 139) = (  0.1753410  0.9033130  0.4619818  )
       140           C   tau( 140) = (  0.6753410  0.9033130  0.4619818  )
       141           C   tau( 141) = (  0.1753410  0.4033130  0.9619818  )
       142           C   tau( 142) = (  0.6753410  0.4033130  0.9619818  )
       143           C   tau( 143) = (  0.1753410  0.9033130  0.9619818  )
       144           C   tau( 144) = (  0.6753410  0.9033130  0.9619818  )
       145           C   tau( 145) = (  0.1856608  0.3356120  0.3980781  )
       146           C   tau( 146) = (  0.6856608  0.3356120  0.3980781  )
       147           C   tau( 147) = (  0.1856608  0.8356120  0.3980781  )
       148           C   tau( 148) = (  0.6856608  0.8356120  0.3980781  )
       149           C   tau( 149) = (  0.1856608  0.3356120  0.8980781  )
       150           C   tau( 150) = (  0.6856608  0.3356120  0.8980781  )
       151           C   tau( 151) = (  0.1856608  0.8356120  0.8980781  )
       152           C   tau( 152) = (  0.6856608  0.8356120  0.8980781  )
       153           C   tau( 153) = (  0.2319981  0.4505766  0.0586370  )
       154           C   tau( 154) = (  0.7319981  0.4505766  0.0586370  )
       155           C   tau( 155) = (  0.2319981  0.9505766  0.0586370  )
       156           C   tau( 156) = (  0.7319981  0.9505766  0.0586370  )
       157           C   tau( 157) = (  0.2319981  0.4505766  0.5586370  )
       158           C   tau( 158) = (  0.7319981  0.4505766  0.5586370  )
       159           C   tau( 159) = (  0.2319981  0.9505766  0.5586370  )
       160           C   tau( 160) = (  0.7319981  0.9505766  0.5586370  )
       161           H   tau( 161) = (  0.2868901  0.4368360  0.0910982  )
       162           H   tau( 162) = (  0.7868901  0.4368360  0.0910982  )
       163           H   tau( 163) = (  0.2868901  0.9368360  0.0910982  )
       164           H   tau( 164) = (  0.7868901  0.9368360  0.0910982  )
       165           H   tau( 165) = (  0.2868901  0.4368360  0.5910982  )
       166           H   tau( 166) = (  0.7868901  0.4368360  0.5910982  )
       167           H   tau( 167) = (  0.2868901  0.9368360  0.5910982  )
       168           H   tau( 168) = (  0.7868901  0.9368360  0.5910982  )
       169           C   tau( 169) = (  0.1493889  0.0350464  0.0684256  )
       170           C   tau( 170) = (  0.6493889  0.0350464  0.0684256  )
       171           C   tau( 171) = (  0.1493889  0.5350464  0.0684256  )
       172           C   tau( 172) = (  0.6493889  0.5350464  0.0684256  )
       173           C   tau( 173) = (  0.1493889  0.0350464  0.5684256  )
       174           C   tau( 174) = (  0.6493889  0.0350464  0.5684256  )
       175           C   tau( 175) = (  0.1493889  0.5350464  0.5684256  )
       176           C   tau( 176) = (  0.6493889  0.5350464  0.5684256  )
       177           H   tau( 177) = (  0.1369958  0.0881734  0.1076853  )
       178           H   tau( 178) = (  0.6369958  0.0881734  0.1076853  )
       179           H   tau( 179) = (  0.1369958  0.5881734  0.1076853  )
       180           H   tau( 180) = (  0.6369958  0.5881734  0.1076853  )
       181           H   tau( 181) = (  0.1369958  0.0881734  0.6076853  )
       182           H   tau( 182) = (  0.6369958  0.0881734  0.6076853  )
       183           H   tau( 183) = (  0.1369958  0.5881734  0.6076853  )
       184           H   tau( 184) = (  0.6369958  0.5881734  0.6076853  )
       185           N   tau( 185) = (  0.2155510  0.2797062  0.4088859  )
       186           N   tau( 186) = (  0.7155510  0.2797062  0.4088859  )
       187           N   tau( 187) = (  0.2155510  0.7797062  0.4088859  )
       188           N   tau( 188) = (  0.7155510  0.7797062  0.4088859  )
       189           N   tau( 189) = (  0.2155510  0.2797062  0.9088859  )
       190           N   tau( 190) = (  0.7155510  0.2797062  0.9088859  )
       191           N   tau( 191) = (  0.2155510  0.7797062  0.9088859  )
       192           N   tau( 192) = (  0.7155510  0.7797062  0.9088859  )
       193           N   tau( 193) = (  0.2145099  0.2293247  0.3324438  )
       194           N   tau( 194) = (  0.7145099  0.2293247  0.3324438  )
       195           N   tau( 195) = (  0.2145099  0.7293247  0.3324438  )
       196           N   tau( 196) = (  0.7145099  0.7293247  0.3324438  )
       197           N   tau( 197) = (  0.2145099  0.2293247  0.8324438  )
       198           N   tau( 198) = (  0.7145099  0.2293247  0.8324438  )
       199           N   tau( 199) = (  0.2145099  0.7293247  0.8324438  )
       200           N   tau( 200) = (  0.7145099  0.7293247  0.8324438  )
       201           C   tau( 201) = (  0.1071491  0.4248787  0.4251793  )
       202           C   tau( 202) = (  0.6071491  0.4248787  0.4251793  )
       203           C   tau( 203) = (  0.1071491  0.9248787  0.4251793  )
       204           C   tau( 204) = (  0.6071491  0.9248787  0.4251793  )
       205           C   tau( 205) = (  0.1071491  0.4248787  0.9251793  )
       206           C   tau( 206) = (  0.6071491  0.4248787  0.9251793  )
       207           C   tau( 207) = (  0.1071491  0.9248787  0.9251793  )
       208           C   tau( 208) = (  0.6071491  0.9248787  0.9251793  )
       209           H   tau( 209) = (  0.0598014  0.3871712  0.3499157  )
       210           H   tau( 210) = (  0.5598014  0.3871712  0.3499157  )
       211           H   tau( 211) = (  0.0598014  0.8871712  0.3499157  )
       212           H   tau( 212) = (  0.5598014  0.8871712  0.3499157  )
       213           H   tau( 213) = (  0.0598014  0.3871712  0.8499157  )
       214           H   tau( 214) = (  0.5598014  0.3871712  0.8499157  )
       215           H   tau( 215) = (  0.0598014  0.8871712  0.8499157  )
       216           H   tau( 216) = (  0.5598014  0.8871712  0.8499157  )
       217           N   tau( 217) = (  0.0945030  0.4892844  0.4761315  )
       218           N   tau( 218) = (  0.5945030  0.4892844  0.4761315  )
       219           N   tau( 219) = (  0.0945030  0.9892844  0.4761315  )
       220           N   tau( 220) = (  0.5945030  0.9892844  0.4761315  )
       221           N   tau( 221) = (  0.0945030  0.4892844  0.9761315  )
       222           N   tau( 222) = (  0.5945030  0.4892844  0.9761315  )
       223           N   tau( 223) = (  0.0945030  0.9892844  0.9761315  )
       224           N   tau( 224) = (  0.5945030  0.9892844  0.9761315  )
       225           C   tau( 225) = (  0.4048157  0.1057201  0.3877612  )
       226           C   tau( 226) = (  0.9048157  0.1057201  0.3877612  )
       227           C   tau( 227) = (  0.4048157  0.6057201  0.3877612  )
       228           C   tau( 228) = (  0.9048157  0.6057201  0.3877612  )
       229           C   tau( 229) = (  0.4048157  0.1057201  0.8877612  )
       230           C   tau( 230) = (  0.9048157  0.1057201  0.8877612  )
       231           C   tau( 231) = (  0.4048157  0.6057201  0.8877612  )
       232           C   tau( 232) = (  0.9048157  0.6057201  0.8877612  )
       233           H   tau( 233) = (  0.2607196  0.0565340  0.1880868  )
       234           H   tau( 234) = (  0.7607196  0.0565340  0.1880868  )
       235           H   tau( 235) = (  0.2607196  0.5565340  0.1880868  )
       236           H   tau( 236) = (  0.7607196  0.5565340  0.1880868  )
       237           H   tau( 237) = (  0.2607196  0.0565340  0.6880868  )
       238           H   tau( 238) = (  0.7607196  0.0565340  0.6880868  )
       239           H   tau( 239) = (  0.2607196  0.5565340  0.6880868  )
       240           H   tau( 240) = (  0.7607196  0.5565340  0.6880868  )
       241           N   tau( 241) = (  0.1494731  0.3339278  0.1527546  )
       242           N   tau( 242) = (  0.6494731  0.3339278  0.1527546  )
       243           N   tau( 243) = (  0.1494731  0.8339278  0.1527546  )
       244           N   tau( 244) = (  0.6494731  0.8339278  0.1527546  )
       245           N   tau( 245) = (  0.1494731  0.3339278  0.6527546  )
       246           N   tau( 246) = (  0.6494731  0.3339278  0.6527546  )
       247           N   tau( 247) = (  0.1494731  0.8339278  0.6527546  )
       248           N   tau( 248) = (  0.6494731  0.8339278  0.6527546  )
       249           N   tau( 249) = (  0.0920393  0.3150651  0.0674878  )
       250           N   tau( 250) = (  0.5920393  0.3150651  0.0674878  )
       251           N   tau( 251) = (  0.0920393  0.8150651  0.0674878  )
       252           N   tau( 252) = (  0.5920393  0.8150651  0.0674878  )
       253           N   tau( 253) = (  0.0920393  0.3150651  0.5674878  )
       254           N   tau( 254) = (  0.5920393  0.3150651  0.5674878  )
       255           N   tau( 255) = (  0.0920393  0.8150651  0.5674878  )
       256           N   tau( 256) = (  0.5920393  0.8150651  0.5674878  )
       257           C   tau( 257) = (  0.2866408  0.3246590  0.2279720  )
       258           C   tau( 258) = (  0.7866408  0.3246590  0.2279720  )
       259           C   tau( 259) = (  0.2866408  0.8246590  0.2279720  )
       260           C   tau( 260) = (  0.7866408  0.8246590  0.2279720  )
       261           C   tau( 261) = (  0.2866408  0.3246590  0.7279720  )
       262           C   tau( 262) = (  0.7866408  0.3246590  0.7279720  )
       263           C   tau( 263) = (  0.2866408  0.8246590  0.7279720  )
       264           C   tau( 264) = (  0.7866408  0.8246590  0.7279720  )
       265           C   tau( 265) = (  0.2124173  0.3143392  0.1499511  )
       266           C   tau( 266) = (  0.7124173  0.3143392  0.1499511  )
       267           C   tau( 267) = (  0.2124173  0.8143392  0.1499511  )
       268           C   tau( 268) = (  0.7124173  0.8143392  0.1499511  )
       269           C   tau( 269) = (  0.2124173  0.3143392  0.6499511  )
       270           C   tau( 270) = (  0.7124173  0.3143392  0.6499511  )
       271           C   tau( 271) = (  0.2124173  0.8143392  0.6499511  )
       272           C   tau( 272) = (  0.7124173  0.8143392  0.6499511  )
       273           C   tau( 273) = (  0.3266389  0.2680019  0.2185785  )
       274           C   tau( 274) = (  0.8266389  0.2680019  0.2185785  )
       275           C   tau( 275) = (  0.3266389  0.7680019  0.2185785  )
       276           C   tau( 276) = (  0.8266389  0.7680019  0.2185785  )
       277           C   tau( 277) = (  0.3266389  0.2680019  0.7185785  )
       278           C   tau( 278) = (  0.8266389  0.2680019  0.7185785  )
       279           C   tau( 279) = (  0.3266389  0.7680019  0.7185785  )
       280           C   tau( 280) = (  0.8266389  0.7680019  0.7185785  )
       281           H   tau( 281) = (  0.3042081  0.2131099  0.1499459  )
       282           H   tau( 282) = (  0.8042081  0.2131099  0.1499459  )
       283           H   tau( 283) = (  0.3042081  0.7131099  0.1499459  )
       284           H   tau( 284) = (  0.8042081  0.7131099  0.1499459  )
       285           H   tau( 285) = (  0.3042081  0.2131099  0.6499459  )
       286           H   tau( 286) = (  0.8042081  0.2131099  0.6499459  )
       287           H   tau( 287) = (  0.3042081  0.7131099  0.6499459  )
       288           H   tau( 288) = (  0.8042081  0.7131099  0.6499459  )
       289           C   tau( 289) = (  0.4190367  0.3506111  0.3856575  )
       290           C   tau( 290) = (  0.9190367  0.3506111  0.3856575  )
       291           C   tau( 291) = (  0.4190367  0.8506111  0.3856575  )
       292           C   tau( 292) = (  0.9190367  0.8506111  0.3856575  )
       293           C   tau( 293) = (  0.4190367  0.3506111  0.8856575  )
       294           C   tau( 294) = (  0.9190367  0.3506111  0.8856575  )
       295           C   tau( 295) = (  0.4190367  0.8506111  0.8856575  )
       296           C   tau( 296) = (  0.9190367  0.8506111  0.8856575  )
       297           H   tau( 297) = (  0.4706894  0.3630042  0.4511775  )
       298           H   tau( 298) = (  0.9706894  0.3630042  0.4511775  )
       299           H   tau( 299) = (  0.4706894  0.8630042  0.4511775  )
       300           H   tau( 300) = (  0.9706894  0.8630042  0.4511775  )
       301           H   tau( 301) = (  0.4706894  0.3630042  0.9511775  )
       302           H   tau( 302) = (  0.9706894  0.3630042  0.9511775  )
       303           H   tau( 303) = (  0.4706894  0.8630042  0.9511775  )
       304           H   tau( 304) = (  0.9706894  0.8630042  0.9511775  )
       305           N   tau( 305) = (  0.1933349  0.2844490  0.0641553  )
       306           N   tau( 306) = (  0.6933349  0.2844490  0.0641553  )
       307           N   tau( 307) = (  0.1933349  0.7844490  0.0641553  )
       308           N   tau( 308) = (  0.6933349  0.7844490  0.0641553  )
       309           N   tau( 309) = (  0.1933349  0.2844490  0.5641553  )
       310           N   tau( 310) = (  0.6933349  0.2844490  0.5641553  )
       311           N   tau( 311) = (  0.1933349  0.7844490  0.5641553  )
       312           N   tau( 312) = (  0.6933349  0.7844490  0.5641553  )
       313           N   tau( 313) = (  0.1179339  0.2854901  0.0148148  )
       314           N   tau( 314) = (  0.6179339  0.2854901  0.0148148  )
       315           N   tau( 315) = (  0.1179339  0.7854901  0.0148148  )
       316           N   tau( 316) = (  0.6179339  0.7854901  0.0148148  )
       317           N   tau( 317) = (  0.1179339  0.2854901  0.5148148  )
       318           N   tau( 318) = (  0.6179339  0.2854901  0.5148148  )
       319           N   tau( 319) = (  0.1179339  0.7854901  0.5148148  )
       320           N   tau( 320) = (  0.6179339  0.7854901  0.5148148  )
       321           C   tau( 321) = (  0.3180302  0.3928509  0.3177296  )
       322           C   tau( 322) = (  0.8180302  0.3928509  0.3177296  )
       323           C   tau( 323) = (  0.3180302  0.8928509  0.3177296  )
       324           C   tau( 324) = (  0.8180302  0.8928509  0.3177296  )
       325           C   tau( 325) = (  0.3180302  0.3928509  0.8177296  )
       326           C   tau( 326) = (  0.8180302  0.3928509  0.8177296  )
       327           C   tau( 327) = (  0.3180302  0.8928509  0.8177296  )
       328           C   tau( 328) = (  0.8180302  0.8928509  0.8177296  )
       329           H   tau( 329) = (  0.2901143  0.4401986  0.3273698  )
       330           H   tau( 330) = (  0.7901143  0.4401986  0.3273698  )
       331           H   tau( 331) = (  0.2901143  0.9401986  0.3273698  )
       332           H   tau( 332) = (  0.7901143  0.9401986  0.3273698  )
       333           H   tau( 333) = (  0.2901143  0.4401986  0.8273698  )
       334           H   tau( 334) = (  0.7901143  0.4401986  0.8273698  )
       335           H   tau( 335) = (  0.2901143  0.9401986  0.8273698  )
       336           H   tau( 336) = (  0.7901143  0.9401986  0.8273698  )
       337           N   tau( 337) = (  0.3816285  0.4054970  0.3947814  )
       338           N   tau( 338) = (  0.8816285  0.4054970  0.3947814  )
       339           N   tau( 339) = (  0.3816285  0.9054970  0.3947814  )
       340           N   tau( 340) = (  0.8816285  0.9054970  0.3947814  )
       341           N   tau( 341) = (  0.3816285  0.4054970  0.8947814  )
       342           N   tau( 342) = (  0.8816285  0.4054970  0.8947814  )
       343           N   tau( 343) = (  0.3816285  0.9054970  0.8947814  )
       344           N   tau( 344) = (  0.8816285  0.9054970  0.8947814  )
       345           C   tau( 345) = (  0.4829455  0.0951843  0.2009044  )
       346           C   tau( 346) = (  0.9829455  0.0951843  0.2009044  )
       347           C   tau( 347) = (  0.4829455  0.5951843  0.2009044  )
       348           C   tau( 348) = (  0.9829455  0.5951843  0.2009044  )
       349           C   tau( 349) = (  0.4829455  0.0951843  0.7009044  )
       350           C   tau( 350) = (  0.9829455  0.0951843  0.7009044  )
       351           C   tau( 351) = (  0.4829455  0.5951843  0.7009044  )
       352           C   tau( 352) = (  0.9829455  0.5951843  0.7009044  )
       353           H   tau( 353) = (  0.4273672  0.2392804  0.2958144  )
       354           H   tau( 354) = (  0.9273672  0.2392804  0.2958144  )
       355           H   tau( 355) = (  0.4273672  0.7392804  0.2958144  )
       356           H   tau( 356) = (  0.9273672  0.7392804  0.2958144  )
       357           H   tau( 357) = (  0.4273672  0.2392804  0.7958144  )
       358           H   tau( 358) = (  0.9273672  0.2392804  0.7958144  )
       359           H   tau( 359) = (  0.4273672  0.7392804  0.7958144  )
       360           H   tau( 360) = (  0.9273672  0.7392804  0.7958144  )
       361           N   tau( 361) = (  0.1811732  0.4967185  0.3472454  )
       362           N   tau( 362) = (  0.6811732  0.4967185  0.3472454  )
       363           N   tau( 363) = (  0.1811732  0.9967185  0.3472454  )
       364           N   tau( 364) = (  0.6811732  0.9967185  0.3472454  )
       365           N   tau( 365) = (  0.1811732  0.4967185  0.8472454  )
       366           N   tau( 366) = (  0.6811732  0.4967185  0.8472454  )
       367           N   tau( 367) = (  0.1811732  0.9967185  0.8472454  )
       368           N   tau( 368) = (  0.6811732  0.9967185  0.8472454  )
       369           N   tau( 369) = (  0.2475773  0.0245515  0.4325122  )
       370           N   tau( 370) = (  0.7475773  0.0245515  0.4325122  )
       371           N   tau( 371) = (  0.2475773  0.5245515  0.4325122  )
       372           N   tau( 372) = (  0.7475773  0.5245515  0.4325122  )
       373           N   tau( 373) = (  0.2475773  0.0245515  0.9325122  )
       374           N   tau( 374) = (  0.7475773  0.0245515  0.9325122  )
       375           N   tau( 375) = (  0.2475773  0.5245515  0.9325122  )
       376           N   tau( 376) = (  0.7475773  0.5245515  0.9325122  )
       377           C   tau( 377) = (  0.0966870  0.0586688  0.2720280  )
       378           C   tau( 378) = (  0.5966870  0.0586688  0.2720280  )
       379           C   tau( 379) = (  0.0966870  0.5586688  0.2720280  )
       380           C   tau( 380) = (  0.5966870  0.5586688  0.2720280  )
       381           C   tau( 381) = (  0.0966870  0.0586688  0.7720280  )
       382           C   tau( 382) = (  0.5966870  0.0586688  0.7720280  )
       383           C   tau( 383) = (  0.0966870  0.5586688  0.7720280  )
       384           C   tau( 384) = (  0.5966870  0.5586688  0.7720280  )
       385           C   tau( 385) = (  0.1643880  0.0624661  0.3500489  )
       386           C   tau( 386) = (  0.6643880  0.0624661  0.3500489  )
       387           C   tau( 387) = (  0.1643880  0.5624661  0.3500489  )
       388           C   tau( 388) = (  0.6643880  0.5624661  0.3500489  )
       389           C   tau( 389) = (  0.1643880  0.0624661  0.8500489  )
       390           C   tau( 390) = (  0.6643880  0.0624661  0.8500489  )
       391           C   tau( 391) = (  0.1643880  0.5624661  0.8500489  )
       392           C   tau( 392) = (  0.6643880  0.5624661  0.8500489  )
       393           C   tau( 393) = (  0.0494234  0.1080604  0.2814215  )
       394           C   tau( 394) = (  0.5494234  0.1080604  0.2814215  )
       395           C   tau( 395) = (  0.0494234  0.6080604  0.2814215  )
       396           C   tau( 396) = (  0.5494234  0.6080604  0.2814215  )
       397           C   tau( 397) = (  0.0494234  0.1080604  0.7814215  )
       398           C   tau( 398) = (  0.5494234  0.1080604  0.7814215  )
       399           C   tau( 399) = (  0.0494234  0.6080604  0.7814215  )
       400           C   tau( 400) = (  0.5494234  0.6080604  0.7814215  )
       401           H   tau( 401) = (  0.0631640  0.1542622  0.3500541  )
       402           H   tau( 402) = (  0.5631640  0.1542622  0.3500541  )
       403           H   tau( 403) = (  0.0631640  0.6542622  0.3500541  )
       404           H   tau( 404) = (  0.5631640  0.6542622  0.3500541  )
       405           H   tau( 405) = (  0.0631640  0.1542622  0.8500541  )
       406           H   tau( 406) = (  0.5631640  0.1542622  0.8500541  )
       407           H   tau( 407) = (  0.0631640  0.6542622  0.8500541  )
       408           H   tau( 408) = (  0.5631640  0.6542622  0.8500541  )
       409           C   tau( 409) = (  0.4649536  0.0333792  0.1143425  )
       410           C   tau( 410) = (  0.9649536  0.0333792  0.1143425  )
       411           C   tau( 411) = (  0.4649536  0.5333792  0.1143425  )
       412           C   tau( 412) = (  0.9649536  0.5333792  0.1143425  )
       413           C   tau( 413) = (  0.4649536  0.0333792  0.6143425  )
       414           C   tau( 414) = (  0.9649536  0.0333792  0.6143425  )
       415           C   tau( 415) = (  0.4649536  0.5333792  0.6143425  )
       416           C   tau( 416) = (  0.9649536  0.5333792  0.6143425  )
       417           H   tau( 417) = (  0.4118266  0.0195119  0.0488225  )
       418           H   tau( 418) = (  0.9118266  0.0195119  0.0488225  )
       419           H   tau( 419) = (  0.4118266  0.5195119  0.0488225  )
       420           H   tau( 420) = (  0.9118266  0.5195119  0.0488225  )
       421           H   tau( 421) = (  0.4118266  0.0195119  0.5488225  )
       422           H   tau( 422) = (  0.9118266  0.0195119  0.5488225  )
       423           H   tau( 423) = (  0.4118266  0.5195119  0.5488225  )
       424           H   tau( 424) = (  0.9118266  0.5195119  0.5488225  )
       425           N   tau( 425) = (  0.2202938  0.1291797  0.4358447  )
       426           N   tau( 426) = (  0.7202938  0.1291797  0.4358447  )
       427           N   tau( 427) = (  0.2202938  0.6291797  0.4358447  )
       428           N   tau( 428) = (  0.7202938  0.6291797  0.4358447  )
       429           N   tau( 429) = (  0.2202938  0.1291797  0.9358447  )
       430           N   tau( 430) = (  0.7202938  0.1291797  0.9358447  )
       431           N   tau( 431) = (  0.2202938  0.6291797  0.9358447  )
       432           N   tau( 432) = (  0.7202938  0.6291797  0.9358447  )
       433           N   tau( 433) = (  0.2706753  0.1031191  0.4851852  )
       434           N   tau( 434) = (  0.7706753  0.1031191  0.4851852  )
       435           N   tau( 435) = (  0.2706753  0.6031191  0.4851852  )
       436           N   tau( 436) = (  0.7706753  0.6031191  0.4851852  )
       437           N   tau( 437) = (  0.2706753  0.1031191  0.9851852  )
       438           N   tau( 438) = (  0.7706753  0.1031191  0.9851852  )
       439           N   tau( 439) = (  0.2706753  0.6031191  0.9851852  )
       440           N   tau( 440) = (  0.7706753  0.6031191  0.9851852  )
       441           C   tau( 441) = (  0.0751213  0.0003006  0.1822704  )
       442           C   tau( 442) = (  0.5751213  0.0003006  0.1822704  )
       443           C   tau( 443) = (  0.0751213  0.5003006  0.1822704  )
       444           C   tau( 444) = (  0.5751213  0.5003006  0.1822704  )
       445           C   tau( 445) = (  0.0751213  0.0003006  0.6822704  )
       446           C   tau( 446) = (  0.5751213  0.0003006  0.6822704  )
       447           C   tau( 447) = (  0.0751213  0.5003006  0.6822704  )
       448           C   tau( 448) = (  0.5751213  0.5003006  0.6822704  )
       449           H   tau( 449) = (  0.1128288  0.4627445  0.1726302  )
       450           H   tau( 450) = (  0.6128288  0.4627445  0.1726302  )
       451           H   tau( 451) = (  0.1128288  0.9627445  0.1726302  )
       452           H   tau( 452) = (  0.6128288  0.9627445  0.1726302  )
       453           H   tau( 453) = (  0.1128288  0.4627445  0.6726302  )
       454           H   tau( 454) = (  0.6128288  0.4627445  0.6726302  )
       455           H   tau( 455) = (  0.1128288  0.9627445  0.6726302  )
       456           H   tau( 456) = (  0.6128288  0.9627445  0.6726302  )
       457           N   tau( 457) = (  0.0107156  0.4868471  0.1052186  )
       458           N   tau( 458) = (  0.5107156  0.4868471  0.1052186  )
       459           N   tau( 459) = (  0.0107156  0.9868471  0.1052186  )
       460           N   tau( 460) = (  0.5107156  0.9868471  0.1052186  )
       461           N   tau( 461) = (  0.0107156  0.4868471  0.6052186  )
       462           N   tau( 462) = (  0.5107156  0.4868471  0.6052186  )
       463           N   tau( 463) = (  0.0107156  0.9868471  0.6052186  )
       464           N   tau( 464) = (  0.5107156  0.9868471  0.6052186  )
       465           C   tau( 465) = (  0.3942799  0.2820411  0.2990956  )
       466           C   tau( 466) = (  0.8942799  0.2820411  0.2990956  )
       467           C   tau( 467) = (  0.3942799  0.7820411  0.2990956  )
       468           C   tau( 468) = (  0.8942799  0.7820411  0.2990956  )
       469           C   tau( 469) = (  0.3942799  0.2820411  0.7990956  )
       470           C   tau( 470) = (  0.8942799  0.2820411  0.7990956  )
       471           C   tau( 471) = (  0.3942799  0.7820411  0.7990956  )
       472           C   tau( 472) = (  0.8942799  0.7820411  0.7990956  )
       473           H   tau( 473) = (  0.4434660  0.1315528  0.2041856  )
       474           H   tau( 474) = (  0.9434660  0.1315528  0.2041856  )
       475           H   tau( 475) = (  0.4434660  0.6315528  0.2041856  )
       476           H   tau( 476) = (  0.9434660  0.6315528  0.2041856  )
       477           H   tau( 477) = (  0.4434660  0.1315528  0.7041856  )
       478           H   tau( 478) = (  0.9434660  0.1315528  0.7041856  )
       479           H   tau( 479) = (  0.4434660  0.6315528  0.7041856  )
       480           H   tau( 480) = (  0.9434660  0.6315528  0.7041856  )
       481           Zn  tau( 481) = (  0.1250000  0.3750000  0.2500000  )
       482           Zn  tau( 482) = (  0.6250000  0.3750000  0.2500000  )
       483           Zn  tau( 483) = (  0.1250000  0.8750000  0.2500000  )
       484           Zn  tau( 484) = (  0.6250000  0.8750000  0.2500000  )
       485           Zn  tau( 485) = (  0.1250000  0.3750000  0.7500000  )
       486           Zn  tau( 486) = (  0.6250000  0.3750000  0.7500000  )
       487           Zn  tau( 487) = (  0.1250000  0.8750000  0.7500000  )
       488           Zn  tau( 488) = (  0.6250000  0.8750000  0.7500000  )
       489           Zn  tau( 489) = (  0.2500000  0.2500000  0.0000000  )
       490           Zn  tau( 490) = (  0.7500000  0.2500000  0.0000000  )
       491           Zn  tau( 491) = (  0.2500000  0.7500000  0.0000000  )
       492           Zn  tau( 492) = (  0.7500000  0.7500000  0.0000000  )
       493           Zn  tau( 493) = (  0.2500000  0.2500000  0.5000000  )
       494           Zn  tau( 494) = (  0.7500000  0.2500000  0.5000000  )
       495           Zn  tau( 495) = (  0.2500000  0.7500000  0.5000000  )
       496           Zn  tau( 496) = (  0.7500000  0.7500000  0.5000000  )

     number of k points=     1
                       cart. coord. in units 2pi/alat
        k(    1) = (   0.0000000   0.0000000   0.0000000), wk =   2.0000000

                       cryst. coord.
        k(    1) = (   0.0000000   0.0000000   0.0000000), wk =   2.0000000

     Dense  grid:  2563819 G-vectors     FFT dimensions: ( 192, 192, 192)

     Smooth grid:  2411581 G-vectors     FFT dimensions: ( 192, 192, 192)

     Dynamical RAM for                 wfc:     144.89 MB

     Dynamical RAM for     wfc (w. buffer):     144.89 MB

     Dynamical RAM for           str. fact:       4.89 MB

     Dynamical RAM for           local pot:       0.00 MB

     Dynamical RAM for          nlocal pot:     482.96 MB

     Dynamical RAM for                qrad:       5.08 MB

     Dynamical RAM for          rho,v,vnew:       8.73 MB

     Dynamical RAM for               rhoin:       2.91 MB

     Dynamical RAM for            rho*nmix:      19.56 MB

     Dynamical RAM for           G-vectors:       5.16 MB

     Dynamical RAM for          h,s,v(r/c):       7.43 MB

     Dynamical RAM for          <psi|beta>:      51.68 MB

     Dynamical RAM for                 psi:     289.78 MB

     Dynamical RAM for                hpsi:     289.78 MB

     Dynamical RAM for                spsi:     289.78 MB

     Dynamical RAM for      wfcinit/wfcrot:     570.99 MB

     Dynamical RAM for           addusdens:     462.11 MB

     Dynamical RAM for          addusforce:     930.48 MB

     Dynamical RAM for         addusstress:     245.73 MB

     Estimated static dynamical RAM per process >     669.17 MB

     Estimated max dynamical RAM per process >       1.58 GB

     Estimated total dynamical RAM >      50.60 GB

     Check: negative core charge=   -0.000014

     Initial potential from superposition of free atoms

     starting charge    2015.9874, renormalised to    2016.0000
     Starting wfcs are 1744 randomized atomic wfcs
     Checking if some PAW data can be deallocated... 
       PAW data deallocated on   10 nodes for type:  2

     total cpu time spent up to now is      157.5 secs

     Self-consistent Calculation

     iteration #  1     ecut=    60.00 Ry     beta= 0.40
     Davidson diagonalization with overlap

---- Real-time Memory Report at c_bands before calling an iterative solver
          1337 MiB given to the printing process from OS
             0 MiB allocation reported by mallinfo(arena+hblkhd)
        161659 MiB available memory on the node where the printing process lives
------------------
     ethr =  1.00E-02,  avg # of iterations =  3.0

     total cpu time spent up to now is      492.0 secs

     total energy              =  -14223.11805278 Ry
     estimated scf accuracy    <      42.09371265 Ry

     iteration #  2     ecut=    60.00 Ry     beta= 0.40
     Davidson diagonalization with overlap

---- Real-time Memory Report at c_bands before calling an iterative solver
          1719 MiB given to the printing process from OS
             0 MiB allocation reported by mallinfo(arena+hblkhd)
        162004 MiB available memory on the node where the printing process lives
------------------
     ethr =  2.09E-03,  avg # of iterations =  2.0

     total cpu time spent up to now is      765.1 secs

     total energy              =  -14223.74967233 Ry
     estimated scf accuracy    <       7.71996138 Ry

     iteration #  3     ecut=    60.00 Ry     beta= 0.40
     Davidson diagonalization with overlap

---- Real-time Memory Report at c_bands before calling an iterative solver
          1745 MiB given to the printing process from OS
             0 MiB allocation reported by mallinfo(arena+hblkhd)
        160484 MiB available memory on the node where the printing process lives
------------------
     ethr =  3.83E-04,  avg # of iterations =  4.0

     total cpu time spent up to now is     1120.4 secs

     total energy              =  -14225.17465823 Ry
     estimated scf accuracy    <       0.85119541 Ry

     iteration #  4     ecut=    60.00 Ry     beta= 0.40
     Davidson diagonalization with overlap

---- Real-time Memory Report at c_bands before calling an iterative solver
          1750 MiB given to the printing process from OS
             0 MiB allocation reported by mallinfo(arena+hblkhd)
        159418 MiB available memory on the node where the printing process lives
------------------
     ethr =  4.22E-05,  avg # of iterations =  4.0

     total cpu time spent up to now is     1440.4 secs

     total energy              =  -14225.24887500 Ry
     estimated scf accuracy    <       0.17102816 Ry

     iteration #  5     ecut=    60.00 Ry     beta= 0.40
     Davidson diagonalization with overlap

---- Real-time Memory Report at c_bands before calling an iterative solver
          1753 MiB given to the printing process from OS
             0 MiB allocation reported by mallinfo(arena+hblkhd)
        159485 MiB available memory on the node where the printing process lives
------------------
     ethr =  8.48E-06,  avg # of iterations =  5.0

     total cpu time spent up to now is     1799.2 secs

     total energy              =  -14225.27766335 Ry
     estimated scf accuracy    <       0.03029860 Ry

     iteration #  6     ecut=    60.00 Ry     beta= 0.40
     Davidson diagonalization with overlap

---- Real-time Memory Report at c_bands before calling an iterative solver
          1764 MiB given to the printing process from OS
             0 MiB allocation reported by mallinfo(arena+hblkhd)
        159545 MiB available memory on the node where the printing process lives
------------------
     ethr =  1.50E-06,  avg # of iterations =  6.0

     total cpu time spent up to now is     2182.9 secs

     total energy              =  -14225.28460060 Ry
     estimated scf accuracy    <       0.00803212 Ry

     iteration #  7     ecut=    60.00 Ry     beta= 0.40
     Davidson diagonalization with overlap

---- Real-time Memory Report at c_bands before calling an iterative solver
          1764 MiB given to the printing process from OS
             0 MiB allocation reported by mallinfo(arena+hblkhd)
        159497 MiB available memory on the node where the printing process lives
------------------
     ethr =  3.98E-07,  avg # of iterations =  5.0

     total cpu time spent up to now is     2575.3 secs

     total energy              =  -14225.28690050 Ry
     estimated scf accuracy    <       0.00155167 Ry

     iteration #  8     ecut=    60.00 Ry     beta= 0.40
     Davidson diagonalization with overlap

---- Real-time Memory Report at c_bands before calling an iterative solver
          1764 MiB given to the printing process from OS
             0 MiB allocation reported by mallinfo(arena+hblkhd)
        160216 MiB available memory on the node where the printing process lives
------------------
     ethr =  7.70E-08,  avg # of iterations =  5.0

     total cpu time spent up to now is     2937.0 secs

     total energy              =  -14225.28728559 Ry
     estimated scf accuracy    <       0.00013696 Ry

     iteration #  9     ecut=    60.00 Ry     beta= 0.40
     Davidson diagonalization with overlap

---- Real-time Memory Report at c_bands before calling an iterative solver
          1768 MiB given to the printing process from OS
             0 MiB allocation reported by mallinfo(arena+hblkhd)
        154497 MiB available memory on the node where the printing process lives
------------------
     ethr =  6.79E-09,  avg # of iterations =  5.0

     total cpu time spent up to now is     3364.9 secs

     total energy              =  -14225.28734262 Ry
     estimated scf accuracy    <       0.00005131 Ry

     iteration # 10     ecut=    60.00 Ry     beta= 0.40
     Davidson diagonalization with overlap

---- Real-time Memory Report at c_bands before calling an iterative solver
          1778 MiB given to the printing process from OS
             0 MiB allocation reported by mallinfo(arena+hblkhd)
        160949 MiB available memory on the node where the printing process lives
------------------
     ethr =  2.54E-09,  avg # of iterations =  5.0

     total cpu time spent up to now is     3647.7 secs

     total energy              =  -14225.28734226 Ry
     estimated scf accuracy    <       0.00001273 Ry

     iteration # 11     ecut=    60.00 Ry     beta= 0.40
     Davidson diagonalization with overlap

---- Real-time Memory Report at c_bands before calling an iterative solver
          1779 MiB given to the printing process from OS
             0 MiB allocation reported by mallinfo(arena+hblkhd)
        157553 MiB available memory on the node where the printing process lives
------------------
     ethr =  6.32E-10,  avg # of iterations =  6.0

     total cpu time spent up to now is     4105.1 secs

     total energy              =  -14225.28734811 Ry
     estimated scf accuracy    <       0.00001051 Ry

     iteration # 12     ecut=    60.00 Ry     beta= 0.40
     Davidson diagonalization with overlap

---- Real-time Memory Report at c_bands before calling an iterative solver
          1779 MiB given to the printing process from OS
             0 MiB allocation reported by mallinfo(arena+hblkhd)
        160497 MiB available memory on the node where the printing process lives
------------------
     ethr =  5.21E-10,  avg # of iterations =  5.0

     total cpu time spent up to now is     4376.9 secs

     total energy              =  -14225.28734768 Ry
     estimated scf accuracy    <       0.00000238 Ry

     iteration # 13     ecut=    60.00 Ry     beta= 0.40
     Davidson diagonalization with overlap

---- Real-time Memory Report at c_bands before calling an iterative solver
          1779 MiB given to the printing process from OS
             0 MiB allocation reported by mallinfo(arena+hblkhd)
        160508 MiB available memory on the node where the printing process lives
------------------
     ethr =  1.18E-10,  avg # of iterations =  6.0

     total cpu time spent up to now is     4856.0 secs

     total energy              =  -14225.28734876 Ry
     estimated scf accuracy    <       0.00000309 Ry

     iteration # 14     ecut=    60.00 Ry     beta= 0.40
     Davidson diagonalization with overlap

---- Real-time Memory Report at c_bands before calling an iterative solver
          1779 MiB given to the printing process from OS
             0 MiB allocation reported by mallinfo(arena+hblkhd)
        159736 MiB available memory on the node where the printing process lives
------------------
     ethr =  1.18E-10,  avg # of iterations =  5.0

     total cpu time spent up to now is     5173.8 secs

     total energy              =  -14225.28734915 Ry
     estimated scf accuracy    <       0.00000011 Ry

     iteration # 15     ecut=    60.00 Ry     beta= 0.40
     Davidson diagonalization with overlap

---- Real-time Memory Report at c_bands before calling an iterative solver
          1779 MiB given to the printing process from OS
             0 MiB allocation reported by mallinfo(arena+hblkhd)
        158475 MiB available memory on the node where the printing process lives
------------------
     ethr =  5.64E-12,  avg # of iterations =  7.0

     total cpu time spent up to now is     5726.8 secs

     total energy              =  -14225.28734925 Ry
     estimated scf accuracy    <       0.00000010 Ry

     iteration # 16     ecut=    60.00 Ry     beta= 0.40
     Davidson diagonalization with overlap

---- Real-time Memory Report at c_bands before calling an iterative solver
          1779 MiB given to the printing process from OS
             0 MiB allocation reported by mallinfo(arena+hblkhd)
        164049 MiB available memory on the node where the printing process lives
------------------
     ethr =  4.81E-12,  avg # of iterations =  2.0

     total cpu time spent up to now is     5960.6 secs

     total energy              =  -14225.28734922 Ry
     estimated scf accuracy    <       0.00000009 Ry

     iteration # 17     ecut=    60.00 Ry     beta= 0.40
     Davidson diagonalization with overlap

---- Real-time Memory Report at c_bands before calling an iterative solver
          1779 MiB given to the printing process from OS
             0 MiB allocation reported by mallinfo(arena+hblkhd)
        157134 MiB available memory on the node where the printing process lives
------------------
     ethr =  4.49E-12,  avg # of iterations =  4.0

     total cpu time spent up to now is     6245.5 secs

     End of self-consistent calculation

          k = 0.0000 0.0000 0.0000 (301561 PWs)   bands (ev):

  -122.8788-122.8788-122.8787-122.8787-122.8786-122.8786-122.8786-122.8781
  -122.8413-122.8412-122.8411-122.8411-122.8411-122.8410-122.8410-122.8402
   -77.2237 -77.2237 -77.2236 -77.2236 -77.2235 -77.2235 -77.2235 -77.2230
   -77.2190 -77.2190 -77.2190 -77.2190 -77.2189 -77.2189 -77.2189 -77.2189
   -77.2188 -77.2188 -77.2188 -77.2187 -77.2187 -77.2187 -77.2182 -77.2182
   -77.1924 -77.1924 -77.1923 -77.1923 -77.1922 -77.1922 -77.1922 -77.1922
   -77.1922 -77.1922 -77.1921 -77.1921 -77.1921 -77.1921 -77.1913 -77.1913
   -77.1650 -77.1649 -77.1648 -77.1648 -77.1647 -77.1647 -77.1647 -77.1639
   -21.8269 -21.8201 -21.8200 -21.8200 -21.8198 -21.8142 -21.8140 -21.8135
   -21.8134 -21.8118 -21.8097 -21.8059 -21.8058 -21.8058 -21.8057 -21.8008
   -21.8007 -21.8007 -21.8006 -21.8006 -21.8006 -21.8004 -21.8000 -21.7990
   -21.7988 -21.7963 -21.7963 -21.7963 -21.7962 -21.7961 -21.7959 -21.7944
   -16.7577 -16.7489 -16.7476 -16.7471 -16.7466 -16.7465 -16.7465 -16.7425
   -16.7170 -16.7115 -16.7071 -16.7070 -16.7070 -16.7022 -16.7000 -16.6995
   -16.6944 -16.6923 -16.6888 -16.6852 -16.6852 -16.6852 -16.6831 -16.6821
   -16.6811 -16.6803 -16.6794 -16.6785 -16.6784 -16.6784 -16.6784 -16.6783
   -16.5789 -16.5403 -16.5400 -16.5400 -16.5398 -16.5181 -16.5179 -16.5062
   -16.4943 -16.4942 -16.4921 -16.4682 -16.4681 -16.4681 -16.4680 -16.4374
   -16.4373 -16.4364 -16.4364 -16.4363 -16.4361 -16.4348 -16.4346 -16.4335
   -16.4333 -16.4247 -16.4247 -16.4246 -16.4245 -16.4231 -16.4230 -16.4198
   -15.4995 -15.4987 -15.4969 -15.4937 -15.4937 -15.4936 -15.4936 -15.4916
   -15.4877 -15.4877 -15.4877 -15.4876 -15.4874 -15.4874 -15.4870 -15.4869
   -15.4810 -15.4810 -15.4801 -15.4801 -15.4800 -15.4800 -15.4799 -15.4798
   -15.4788 -15.4787 -15.4787 -15.4786 -15.4763 -15.4762 -15.4748 -15.4747
   -13.2306 -13.2197 -13.2122 -13.2122 -13.2121 -13.2121 -13.2096 -13.2096
   -13.2074 -13.2042 -13.2042 -13.2035 -13.2034 -13.2034 -13.2033 -13.1950
   -13.1918 -13.1917 -13.1908 -13.1907 -13.1907 -13.1907 -13.1796 -13.1794
   -13.1794 -13.1794 -13.1782 -13.1781 -13.1778 -13.1777 -13.1777 -13.1777
   -12.1896 -12.1896 -12.1896 -12.1890 -12.1882 -12.1877 -12.1838 -12.1800
   -12.1794 -12.1718 -12.1690 -12.1690 -12.1689 -12.1679 -12.1524 -12.1522
   -12.1521 -12.1515 -12.1501 -12.1500 -12.1500 -12.1498 -12.1497 -12.1480
   -12.1333 -12.1253 -12.1249 -12.1208 -12.1178 -12.1178 -12.1177 -12.1166
    -9.9200  -9.9015  -9.8904  -9.8866  -9.8862  -9.8861  -9.8861  -9.8772
    -9.8615  -9.8609  -9.8609  -9.8608  -9.8575  -9.8573  -9.8500  -9.8497
    -9.8272  -9.8265  -9.8265  -9.8265  -9.8246  -9.8244  -9.8066  -9.8063
    -9.8056  -9.8054  -9.7979  -9.7973  -9.7973  -9.7972  -9.7959  -9.7956
    -9.6801  -9.6658  -9.6657  -9.6644  -9.6643  -9.6643  -9.6639  -9.6484
    -9.6483  -9.6470  -9.6469  -9.6469  -9.6465  -9.6447  -9.6444  -9.6386
    -9.6383  -9.6152  -9.6152  -9.6152  -9.6148  -9.6021  -9.6019  -9.5860
    -9.5825  -9.5596  -9.5594  -9.5456  -9.5455  -9.5455  -9.5450  -9.5258
    -8.5892  -8.5636  -8.5509  -8.5508  -8.5479  -8.5388  -8.5384  -8.5384
    -8.5381  -8.5302  -8.5296  -8.5296  -8.5293  -8.5123  -8.5118  -8.5114
    -8.4958  -8.4956  -8.4955  -8.4951  -8.4928  -8.4926  -8.4628  -8.4627
    -8.4625  -8.4622  -8.4622  -8.4617  -8.4504  -8.4496  -8.4496  -8.4495
    -8.4234  -8.4177  -8.4174  -8.4125  -8.4121  -8.4120  -8.4115  -8.3748
    -8.3699  -8.3698  -8.3697  -8.3691  -8.3631  -8.3628  -8.3625  -8.3624
    -8.3612  -8.3594  -8.3589  -8.3572  -8.3560  -8.3319  -8.3316  -8.3316
    -8.3310  -8.3228  -8.3224  -8.3222  -8.3221  -8.3214  -8.3124  -8.3122
    -7.0582  -6.9053  -6.8983  -6.8980  -6.8979  -6.8979  -6.8970  -6.7919
    -6.7914  -6.7583  -6.7580  -6.7138  -6.7138  -6.7138  -6.7132  -6.6756
    -6.6018  -6.6015  -6.5983  -6.5982  -6.5982  -6.5975  -6.5709  -6.5706
    -6.5610  -6.5609  -6.5609  -6.5604  -6.4881  -6.4878  -6.4859  -6.4856
    -5.8777  -5.8313  -5.8310  -5.8310  -5.8309  -5.8291  -5.7985  -5.7984
    -5.7835  -5.7835  -5.7762  -5.7759  -5.7759  -5.7758  -5.7634  -5.7634
    -5.7376  -5.7373  -5.7372  -5.7372  -5.7302  -5.7301  -5.7279  -5.7246
    -5.6855  -5.6855  -5.6855  -5.6853  -5.6451  -5.6451  -5.6349  -5.6324
    -5.6322  -5.6092  -5.6045  -5.6044  -5.5958  -5.5957  -5.5957  -5.5954
    -5.5809  -5.5601  -5.5453  -5.5453  -5.5421  -5.5421  -5.5420  -5.5420
    -5.5374  -5.5374  -5.5364  -5.5364  -5.5122  -5.5122  -5.5029  -5.5029
    -5.5011  -5.5011  -5.5010  -5.5010  -5.4825  -5.4825  -5.4825  -5.4824
    -5.0622  -5.0613  -5.0489  -5.0474  -5.0474  -5.0474  -5.0447  -5.0442
    -5.0317  -5.0302  -5.0301  -5.0297  -5.0297  -5.0297  -5.0262  -5.0184
    -5.0179  -5.0035  -4.9994  -4.9956  -4.9948  -4.9947  -4.9947  -4.9790
    -4.9786  -4.9665  -4.9660  -4.9660  -4.9659  -4.9570  -4.9535  -4.9532
    -4.9457  -4.8944  -4.8916  -4.8913  -4.8681  -4.8679  -4.8679  -4.8677
    -4.8623  -4.8521  -4.8518  -4.8443  -4.8441  -4.8440  -4.8439  -4.8341
    -4.8340  -4.8300  -4.8298  -4.8298  -4.8296  -4.8269  -4.8260  -4.8259
    -4.8038  -4.8036  -4.7992  -4.7991  -4.7926  -4.7925  -4.7924  -4.7924
    -4.7802  -4.7801  -4.7580  -4.7579  -4.7578  -4.7578  -4.7433  -4.7431
    -4.7409  -4.7408  -4.7217  -4.7216  -4.7216  -4.7214  -4.7132  -4.7131
    -4.7115  -4.7114  -4.7114  -4.7112  -4.6863  -4.6862  -4.6689  -4.6689
    -4.6476  -4.6132  -4.6131  -4.5879  -4.5879  -4.5879  -4.5878  -4.5015
    -4.3229  -4.2809  -4.2809  -4.2808  -4.2807  -4.2187  -4.2125  -4.2077
    -4.2076  -4.1876  -4.1874  -4.1412  -4.1412  -4.1411  -4.1410  -4.1409
    -4.1407  -4.1363  -4.1136  -4.1077  -4.1076  -4.1076  -4.1074  -4.1032
    -4.0975  -4.0973  -4.0853  -4.0853  -4.0852  -4.0851  -4.0652  -4.0571
    -3.9875  -3.9556  -3.9553  -3.8258  -3.8257  -3.8257  -3.8248  -3.7662
    -3.7662  -3.7662  -3.7655  -3.7306  -3.7101  -3.7100  -3.7100  -3.7090
    -3.6715  -3.6558  -3.6552  -3.6265  -3.5756  -3.5753  -3.5732  -3.5727
    -3.5595  -3.5592  -3.5040  -3.5034  -3.4254  -3.4254  -3.4253  -3.4244
    -3.4240  -3.4234  -3.3757  -3.3749  -3.3661  -3.3648  -3.3645  -3.3645
    -3.3644  -3.2782  -3.2779  -3.2779  -3.2775  -3.2417  -3.2410  -3.2410
    -3.2408  -3.2347  -3.2310  -3.2307  -3.2305  -3.2288  -3.2282  -3.2100
    -3.2098  -3.1857  -3.1765  -3.1761  -3.1761  -3.1758  -3.1714  -3.0963
    -3.0957  -3.0948  -3.0948  -3.0901  -3.0899  -3.0872  -3.0868  -3.0868
    -3.0865  -3.0456  -3.0454  -3.0453  -3.0452  -3.0179  -3.0055  -3.0053
    -2.9784  -2.9748  -2.9740  -2.9740  -2.9739  -2.9689  -2.9382  -2.9378
    -2.9351  -2.9350  -2.9349  -2.9347  -2.9294  -2.9292  -2.8985  -2.8838
    -2.8834  -2.7760  -2.7758  -2.7612  -2.7611  -2.7611  -2.7609  -2.7263
    -2.7262  -2.7176  -2.7175  -2.7029  -2.7027  -2.7010  -2.7008  -2.7008
    -2.7008  -2.6122  -2.6119  -2.6119  -2.6119  -2.5572  -2.4828  -2.4417
    -2.4415  -2.3679  -2.3678  -2.2685  -2.2681  -2.2681  -2.2680  -2.1967
    -2.1962  -2.1604  -2.0960  -2.0768  -2.0618  -2.0609  -2.0608  -2.0608
    -2.0147  -2.0133  -2.0133  -2.0133  -2.0067  -2.0061  -2.0059  -1.9949
    -1.9944  -1.9551  -1.9538  -1.9538  -1.9537  -1.9488  -1.9483  -1.9186
    -1.9179  -1.8924  -1.8920  -1.8713  -1.8708  -1.8708  -1.8708  -1.7604
    -1.7601  -1.6303  -1.6296  -1.6295  -1.6295  -1.5900  -1.5896  -1.5192
    -1.4440  -1.4437  -1.4437  -1.4436  -1.4245  -1.4242  -1.4185  -1.4183
    -1.4157  -1.4090  -1.4088  -1.3813  -1.3747  -1.3745  -1.3744  -1.3743
    -1.3640  -1.3635  -1.3635  -1.3634  -1.3624  -1.3624  -1.3484  -1.3483
    -1.3471  -1.3470  -1.3470  -1.3468  -1.3404  -1.3403  -1.3373  -1.3333
    -1.2995  -1.2994  -1.2969  -1.2814  -1.2813  -1.2812  -1.2811  -1.2536
    -1.2535  -1.2419  -1.2416  -1.2416  -1.2415  -1.2337  -1.2299  -1.2298
    -1.2202  -1.2199  -1.2098  -1.2097  -1.2091  -1.2090  -1.2089  -1.2089
    -1.1527  -1.1525  -1.1525  -1.1524  -1.1478  -1.1477  -1.0928  -1.0680
    -1.0404  -0.9019  -0.9018  -0.9018  -0.9018  -0.9012  -0.9010  -0.8036
    -0.8035  -0.8017  -0.7826  -0.7825  -0.7825  -0.7825  -0.7795  -0.7794
    -0.7694  -0.7625  -0.7624  -0.7285  -0.7284  -0.7284  -0.7283  -0.7178
    -0.7177  -0.7143  -0.7124  -0.7123  -0.7123  -0.7121  -0.6636  -0.6635
    -0.6293  -0.6293  -0.5995  -0.5995  -0.5994  -0.5993  -0.5722  -0.5721
    -0.4879  -0.4244  -0.4240  -0.4240  -0.4240  -0.4158  -0.4157  -0.4009
    -0.3838  -0.3838  -0.3639  -0.3633  -0.3632  -0.3631  -0.3470  -0.3410
    -0.3406  -0.3366  -0.3361  -0.3361  -0.3359  -0.3316  -0.3312  -0.3287
    -0.3287  -0.3267  -0.2972  -0.2968  -0.2849  -0.2845  -0.2845  -0.2844
    -0.2807  -0.2800  -0.2768  -0.2760  -0.2759  -0.2758  -0.2728  -0.2447
    -0.2431  -0.2431  -0.2430  -0.2405  -0.2400  -0.2399  -0.2228  -0.2214
    -0.2212  -0.2209  -0.2208  -0.2208  -0.2186  -0.2089  -0.2081  -0.2077
    -0.2040  -0.2036  -0.1922  -0.1908  -0.1908  -0.1907  -0.1907  -0.1906
     0.3868   0.4185   0.4185   0.4186   0.4200   0.4350   0.4359   0.4860
     0.4863   0.4874   0.4948   0.4948   0.4949   0.4964   0.5127   0.5132
     0.5145   0.5156   0.5243   0.5272   0.5272   0.5272   0.5293   0.5738
     0.5743   0.5762   0.5774   0.6100   0.6101   0.6101   0.6117   0.6267
     1.0982   1.0987   1.1046   1.1051   1.1158   1.1159   1.1160   1.1169
     1.1373   1.1374   1.1374   1.1383   1.1549   1.1617   1.1621   1.1635
     1.1639   1.1650   1.1737   1.1737   1.1738   1.1748   1.1846   1.1852
     1.2170   1.2207   1.2421   1.2421   1.2421   1.2425   1.2427   1.2432

     occupation numbers 
     1.0000   1.0000   1.0000   1.0000   1.0000   1.0000   1.0000   1.0000
     1.0000   1.0000   1.0000   1.0000   1.0000   1.0000   1.0000   1.0000
     1.0000   1.0000   1.0000   1.0000   1.0000   1.0000   1.0000   1.0000
     1.0000   1.0000   1.0000   1.0000   1.0000   1.0000   1.0000   1.0000
     1.0000   1.0000   1.0000   1.0000   1.0000   1.0000   1.0000   1.0000
     1.0000   1.0000   1.0000   1.0000   1.0000   1.0000   1.0000   1.0000
     1.0000   1.0000   1.0000   1.0000   1.0000   1.0000   1.0000   1.0000
     1.0000   1.0000   1.0000   1.0000   1.0000   1.0000   1.0000   1.0000
     1.0000   1.0000   1.0000   1.0000   1.0000   1.0000   1.0000   1.0000
     1.0000   1.0000   1.0000   1.0000   1.0000   1.0000   1.0000   1.0000
     1.0000   1.0000   1.0000   1.0000   1.0000   1.0000   1.0000   1.0000
     1.0000   1.0000   1.0000   1.0000   1.0000   1.0000   1.0000   1.0000
     1.0000   1.0000   1.0000   1.0000   1.0000   1.0000   1.0000   1.0000
     1.0000   1.0000   1.0000   1.0000   1.0000   1.0000   1.0000   1.0000
     1.0000   1.0000   1.0000   1.0000   1.0000   1.0000   1.0000   1.0000
     1.0000   1.0000   1.0000   1.0000   1.0000   1.0000   1.0000   1.0000
     1.0000   1.0000   1.0000   1.0000   1.0000   1.0000   1.0000   1.0000
     1.0000   1.0000   1.0000   1.0000   1.0000   1.0000   1.0000   1.0000
     1.0000   1.0000   1.0000   1.0000   1.0000   1.0000   1.0000   1.0000
     1.0000   1.0000   1.0000   1.0000   1.0000   1.0000   1.0000   1.0000
     1.0000   1.0000   1.0000   1.0000   1.0000   1.0000   1.0000   1.0000
     1.0000   1.0000   1.0000   1.0000   1.0000   1.0000   1.0000   1.0000
     1.0000   1.0000   1.0000   1.0000   1.0000   1.0000   1.0000   1.0000
     1.0000   1.0000   1.0000   1.0000   1.0000   1.0000   1.0000   1.0000
     1.0000   1.0000   1.0000   1.0000   1.0000   1.0000   1.0000   1.0000
     1.0000   1.0000   1.0000   1.0000   1.0000   1.0000   1.0000   1.0000
     1.0000   1.0000   1.0000   1.0000   1.0000   1.0000   1.0000   1.0000
     1.0000   1.0000   1.0000   1.0000   1.0000   1.0000   1.0000   1.0000
     1.0000   1.0000   1.0000   1.0000   1.0000   1.0000   1.0000   1.0000
     1.0000   1.0000   1.0000   1.0000   1.0000   1.0000   1.0000   1.0000
     1.0000   1.0000   1.0000   1.0000   1.0000   1.0000   1.0000   1.0000
     1.0000   1.0000   1.0000   1.0000   1.0000   1.0000   1.0000   1.0000
     1.0000   1.0000   1.0000   1.0000   1.0000   1.0000   1.0000   1.0000
     1.0000   1.0000   1.0000   1.0000   1.0000   1.0000   1.0000   1.0000
     1.0000   1.0000   1.0000   1.0000   1.0000   1.0000   1.0000   1.0000
     1.0000   1.0000   1.0000   1.0000   1.0000   1.0000   1.0000   1.0000
     1.0000   1.0000   1.0000   1.0000   1.0000   1.0000   1.0000   1.0000
     1.0000   1.0000   1.0000   1.0000   1.0000   1.0000   1.0000   1.0000
     1.0000   1.0000   1.0000   1.0000   1.0000   1.0000   1.0000   1.0000
     1.0000   1.0000   1.0000   1.0000   1.0000   1.0000   1.0000   1.0000
     1.0000   1.0000   1.0000   1.0000   1.0000   1.0000   1.0000   1.0000
     1.0000   1.0000   1.0000   1.0000   1.0000   1.0000   1.0000   1.0000
     1.0000   1.0000   1.0000   1.0000   1.0000   1.0000   1.0000   1.0000
     1.0000   1.0000   1.0000   1.0000   1.0000   1.0000   1.0000   1.0000
     1.0000   1.0000   1.0000   1.0000   1.0000   1.0000   1.0000   1.0000
     1.0000   1.0000   1.0000   1.0000   1.0000   1.0000   1.0000   1.0000
     1.0000   1.0000   1.0000   1.0000   1.0000   1.0000   1.0000   1.0000
     1.0000   1.0000   1.0000   1.0000   1.0000   1.0000   1.0000   1.0000
     1.0000   1.0000   1.0000   1.0000   1.0000   1.0000   1.0000   1.0000
     1.0000   1.0000   1.0000   1.0000   1.0000   1.0000   1.0000   1.0000
     1.0000   1.0000   1.0000   1.0000   1.0000   1.0000   1.0000   1.0000
     1.0000   1.0000   1.0000   1.0000   1.0000   1.0000   1.0000   1.0000
     1.0000   1.0000   1.0000   1.0000   1.0000   1.0000   1.0000   1.0000
     1.0000   1.0000   1.0000   1.0000   1.0000   1.0000   1.0000   1.0000
     1.0000   1.0000   1.0000   1.0000   1.0000   1.0000   1.0000   1.0000
     1.0000   1.0000   1.0000   1.0000   1.0000   1.0000   1.0000   1.0000
     1.0000   1.0000   1.0000   1.0000   1.0000   1.0000   1.0000   1.0000
     1.0000   1.0000   1.0000   1.0000   1.0000   1.0000   1.0000   1.0000
     1.0000   1.0000   1.0000   1.0000   1.0000   1.0000   1.0000   1.0000
     1.0000   1.0000   1.0000   1.0000   1.0000   1.0000   1.0000   1.0000
     1.0000   1.0000   1.0000   1.0000   1.0000   1.0000   1.0000   1.0000
     1.0000   1.0000   1.0000   1.0000   1.0000   1.0000   1.0000   1.0000
     1.0000   1.0000   1.0000   1.0000   1.0000   1.0000   1.0000   1.0000
     1.0000   1.0000   1.0000   1.0000   1.0000   1.0000   1.0000   1.0000
     1.0000   1.0000   1.0000   1.0000   1.0000   1.0000   1.0000   1.0000
     1.0000   1.0000   1.0000   1.0000   1.0000   1.0000   1.0000   1.0000
     1.0000   1.0000   1.0000   1.0000   1.0000   1.0000   1.0000   1.0000
     1.0000   1.0000   1.0000   1.0000   1.0000   1.0000   1.0000   1.0000
     1.0000   1.0000   1.0000   1.0000   1.0000   1.0000   1.0000   1.0000
     1.0000   1.0000   1.0000   1.0000   1.0000   1.0000   1.0000   1.0000
     1.0000   1.0000   1.0000   1.0000   1.0000   1.0000   1.0000   1.0000
     1.0000   1.0000   1.0000   1.0000   1.0000   1.0000   1.0000   1.0000
     1.0000   1.0000   1.0000   1.0000   1.0000   1.0000   1.0000   1.0000
     1.0000   1.0000   1.0000   1.0000   1.0000   1.0000   1.0000   1.0000
     1.0000   1.0000   1.0000   1.0000   1.0000   1.0000   1.0000   1.0000
     1.0000   1.0000   1.0000   1.0000   1.0000   1.0000   1.0000   1.0000
     1.0000   1.0000   1.0000   1.0000   1.0000   1.0000   1.0000   1.0000
     1.0000   1.0000   1.0000   1.0000   1.0000   1.0000   1.0000   1.0000
     1.0000   1.0000   1.0000   1.0000   1.0000   1.0000   1.0000   1.0000
     1.0000   1.0000   1.0000   1.0000   1.0000   1.0000   1.0000   1.0000
     1.0000   1.0000   1.0000   1.0000   1.0000   1.0000   1.0000   1.0000
     1.0000   1.0000   1.0000   1.0000   1.0000   1.0000   1.0000   1.0000
     1.0000   1.0000   1.0000   1.0000   1.0000   1.0000   1.0000   1.0000
     1.0000   1.0000   1.0000   1.0000   1.0000   1.0000   1.0000   1.0000
     1.0000   1.0000   1.0000   1.0000   1.0000   1.0000   1.0000   1.0000
     1.0000   1.0000   1.0000   1.0000   1.0000   1.0000   1.0000   1.0000
     1.0000   1.0000   1.0000   1.0000   1.0000   1.0000   1.0000   1.0000
     1.0000   1.0000   1.0000   1.0000   1.0000   1.0000   1.0000   1.0000
     1.0000   1.0000   1.0000   1.0000   1.0000   1.0000   1.0000   1.0000
     1.0000   1.0000   1.0000   1.0000   1.0000   1.0000   1.0000   1.0000
     1.0000   1.0000   1.0000   1.0000   1.0000   1.0000   1.0000   1.0000
     1.0000   1.0000   1.0000   1.0000   1.0000   1.0000   1.0000   1.0000
     1.0000   1.0000   1.0000   1.0000   1.0000   1.0000   1.0000   1.0000
     1.0000   1.0000   1.0000   1.0000   1.0000   1.0000   1.0000   1.0000
     1.0000   1.0000   1.0000   1.0000   1.0000   1.0000   1.0000   1.0000
     1.0000   1.0000   1.0000   1.0000   1.0000   1.0000   1.0000   1.0000
     1.0000   1.0000   1.0000   1.0000   1.0000   1.0000   1.0000   1.0000
     1.0000   1.0000   1.0000   1.0000   1.0000   1.0000   1.0000   1.0000
     1.0000   1.0000   1.0000   1.0000   1.0000   1.0000   1.0000   1.0000
     1.0000   1.0000   1.0000   1.0000   1.0000   1.0000   1.0000   1.0000
     1.0000   1.0000   1.0000   1.0000   1.0000   1.0000   1.0000   1.0000
     1.0000   1.0000   1.0000   1.0000   1.0000   1.0000   1.0000   1.0000
     1.0000   1.0000   1.0000   1.0000   1.0000   1.0000   1.0000   1.0000
     1.0000   1.0000   1.0000   1.0000   1.0000   1.0000   1.0000   1.0000
     1.0000   1.0000   1.0000   1.0000   1.0000   1.0000   1.0000   1.0000
     1.0000   1.0000   1.0000   1.0000   1.0000   1.0000   1.0000   1.0000
     1.0000   1.0000   1.0000   1.0000   1.0000   1.0000   1.0000   1.0000
     1.0000   1.0000   1.0000   1.0000   1.0000   1.0000   1.0000   1.0000
     1.0000   1.0000   1.0000   1.0000   1.0000   1.0000   1.0000   1.0000
     1.0000   1.0000   1.0000   1.0000   1.0000   1.0000   1.0000   1.0000
     1.0000   1.0000   1.0000   1.0000   1.0000   1.0000   1.0000   1.0000
     1.0000   1.0000   1.0000   1.0000   1.0000   1.0000   1.0000   1.0000
     1.0000   1.0000   1.0000   1.0000   1.0000   1.0000   1.0000   1.0000
     1.0000   1.0000   1.0000   1.0000   1.0000   1.0000   1.0000   1.0000
     1.0000   1.0000   1.0000   1.0000   1.0000   1.0000   1.0000   1.0000
     1.0000   1.0000   1.0000   1.0000   1.0000   1.0000   1.0000   1.0000
     1.0000   1.0000   1.0000   1.0000   1.0000   1.0000   1.0000   1.0000
     1.0000   1.0000   1.0000   1.0000   1.0000   1.0000   1.0000   1.0000
     1.0000   1.0000   1.0000   1.0000   1.0000   1.0000   1.0000   1.0000
     1.0000   1.0000   1.0000   1.0000   1.0000   1.0000   1.0000   1.0000
     1.0000   1.0000   1.0000   1.0000   1.0000   1.0000   1.0000   1.0000
     1.0000   1.0000   1.0000   1.0000   1.0000   1.0000   1.0000   1.0000
     1.0000   1.0000   1.0000   1.0000   1.0000   1.0000   1.0000   1.0000
     1.0000   1.0000   1.0000   1.0000   1.0000   1.0000   1.0000   1.0000
     1.0000   1.0000   1.0000   1.0000   1.0000   1.0000   1.0000   1.0000
     1.0000   1.0000   1.0000   1.0000   1.0000   1.0000   1.0000   1.0000

     highest occupied level (ev):     1.2432

!    total energy              =  -14225.28734922 Ry
     estimated scf accuracy    <       0.00000001 Ry

     The total energy is the sum of the following terms:
     one-electron contribution =  -15720.00869902 Ry
     hartree contribution      =    8487.45636827 Ry
     xc contribution           =   -2486.48027962 Ry
     ewald contribution        =   -3375.05562358 Ry
     one-center paw contrib.   =   -1131.19911527 Ry
      -> PAW hartree energy AE =       0.00000000 Ry
      -> PAW hartree energy PS =       0.00000000 Ry
      -> PAW xc energy AE      =       0.00000000 Ry
      -> PAW xc energy PS      =       0.00000000 Ry
      -> total E_H with PAW    =    8487.45636827 Ry
      -> total E_XC with PAW   =   -2486.48027962 Ry

     convergence has been achieved in  17 iterations

     Forces acting on atoms (cartesian axes, Ry/au):

     atom    1 type  1   force =    -0.00000162   -0.00024153   -0.00013729
     atom    2 type  1   force =     0.00010719   -0.00006386   -0.00009205
     atom    3 type  1   force =    -0.00000157   -0.00024113   -0.00013683
     atom    4 type  1   force =    -0.00000225   -0.00023985   -0.00013504
     atom    5 type  1   force =    -0.00000183   -0.00024023   -0.00013554
     atom    6 type  1   force =    -0.00000115   -0.00023942   -0.00013594
     atom    7 type  1   force =    -0.00000125   -0.00024019   -0.00013651
     atom    8 type  1   force =    -0.00000269   -0.00023806   -0.00013569
     atom    9 type  1   force =    -0.00014948   -0.00015008   -0.00015310
     atom   10 type  1   force =    -0.00019570   -0.00013049   -0.00017355
     atom   11 type  1   force =    -0.00019485   -0.00013066   -0.00017242
     atom   12 type  1   force =    -0.00019577   -0.00012935   -0.00017283
     atom   13 type  1   force =    -0.00019561   -0.00012968   -0.00017283
     atom   14 type  1   force =    -0.00019604   -0.00012956   -0.00017242
     atom   15 type  1   force =    -0.00019306   -0.00012993   -0.00017360
     atom   16 type  1   force =    -0.00019543   -0.00012921   -0.00017277
     atom   17 type  2   force =    -0.00380884    0.00525059    0.00140752
     atom   18 type  2   force =    -0.00001354    0.00000419    0.00001140
     atom   19 type  2   force =    -0.00001429    0.00000468    0.00001150
     atom   20 type  2   force =    -0.00001374    0.00000517    0.00001124
     atom   21 type  2   force =    -0.00001514    0.00000493    0.00001165
     atom   22 type  2   force =    -0.00001468    0.00000524    0.00001141
     atom   23 type  2   force =    -0.00001323    0.00000561    0.00001129
     atom   24 type  2   force =    -0.00001509    0.00000498    0.00001174
     atom   25 type  2   force =    -0.00083887    0.00057028   -0.00002828
     atom   26 type  2   force =     0.00019594   -0.00004397    0.00002785
     atom   27 type  2   force =     0.00019596   -0.00004540    0.00002635
     atom   28 type  2   force =     0.00019652   -0.00004425    0.00002735
     atom   29 type  2   force =     0.00019864   -0.00004427    0.00002750
     atom   30 type  2   force =     0.00019966   -0.00004454    0.00002766
     atom   31 type  2   force =     0.00019436   -0.00004458    0.00002701
     atom   32 type  2   force =     0.00019905   -0.00004450    0.00002738
     atom   33 type  2   force =    -0.00008577    0.00015306    0.00008283
     atom   34 type  2   force =    -0.00008518    0.00015316    0.00008282
     atom   35 type  2   force =    -0.00008639    0.00015338    0.00008284
     atom   36 type  2   force =    -0.00008595    0.00015344    0.00008315
     atom   37 type  2   force =     0.00175847    0.00108083   -0.00035012
     atom   38 type  2   force =    -0.00008536    0.00015321    0.00008228
     atom   39 type  2   force =    -0.00008561    0.00015340    0.00008275
     atom   40 type  2   force =    -0.00008556    0.00015331    0.00008247
     atom   41 type  3   force =     0.00002354    0.00004498   -0.00005401
     atom   42 type  3   force =     0.00002440    0.00004440   -0.00005418
     atom   43 type  3   force =     0.00002370    0.00004482   -0.00005415
     atom   44 type  3   force =     0.00002357    0.00004504   -0.00005442
     atom   45 type  3   force =     0.00003679   -0.00003627   -0.00024126
     atom   46 type  3   force =     0.00002363    0.00004489   -0.00005386
     atom   47 type  3   force =     0.00002357    0.00004476   -0.00005438
     atom   48 type  3   force =     0.00002343    0.00004514   -0.00005406
     atom   49 type  2   force =     0.00014408   -0.00000531   -0.00000161
     atom   50 type  2   force =     0.00014406   -0.00000409   -0.00000186
     atom   51 type  2   force =     0.00014168   -0.00000412   -0.00000159
     atom   52 type  2   force =     0.00014405   -0.00000577   -0.00000183
     atom   53 type  2   force =    -0.00109693   -0.00194633    0.00010667
     atom   54 type  2   force =     0.00014363   -0.00000478   -0.00000119
     atom   55 type  2   force =     0.00014394   -0.00000452   -0.00000163
     atom   56 type  2   force =     0.00014392   -0.00000473   -0.00000142
     atom   57 type  3   force =     0.00003735   -0.00007006   -0.00004886
     atom   58 type  3   force =     0.00003730   -0.00007011   -0.00004856
     atom   59 type  3   force =     0.00003644   -0.00007057   -0.00004831
     atom   60 type  3   force =     0.00003740   -0.00007018   -0.00004844
     atom   61 type  3   force =     0.00005826   -0.00016617   -0.00032129
     atom   62 type  3   force =     0.00003713   -0.00007017   -0.00004834
     atom   63 type  3   force =     0.00003710   -0.00007021   -0.00004857
     atom   64 type  3   force =     0.00003752   -0.00006988   -0.00004858
     atom   65 type  1   force =     0.00009854    0.00008646    0.00002366
     atom   66 type  1   force =     0.00005441    0.00020698    0.00017890
     atom   67 type  1   force =     0.00005583    0.00020856    0.00018090
     atom   68 type  1   force =     0.00005349    0.00020721    0.00017998
     atom   69 type  1   force =     0.00005462    0.00020784    0.00018011
     atom   70 type  1   force =     0.00005442    0.00020821    0.00017924
     atom   71 type  1   force =     0.00005455    0.00020922    0.00018141
     atom   72 type  1   force =     0.00005465    0.00020707    0.00018027
     atom   73 type  1   force =    -0.00018757    0.00027963    0.00014429
     atom   74 type  1   force =    -0.00015617    0.00025301    0.00011391
     atom   75 type  1   force =    -0.00015782    0.00025225    0.00011385
     atom   76 type  1   force =    -0.00015805    0.00025342    0.00011499
     atom   77 type  1   force =    -0.00015733    0.00025459    0.00011486
     atom   78 type  1   force =    -0.00015802    0.00025406    0.00011400
     atom   79 type  1   force =    -0.00015682    0.00025401    0.00011537
     atom   80 type  1   force =    -0.00015747    0.00025472    0.00011504
     atom   81 type  2   force =     0.01397054   -0.01087120   -0.00338141
     atom   82 type  2   force =    -0.00010051   -0.00007633   -0.00003270
     atom   83 type  2   force =    -0.00010093   -0.00007548   -0.00003228
     atom   84 type  2   force =    -0.00010131   -0.00007533   -0.00003249
     atom   85 type  2   force =    -0.00010088   -0.00007565   -0.00003264
     atom   86 type  2   force =    -0.00010028   -0.00007485   -0.00003307
     atom   87 type  2   force =    -0.00010176   -0.00007667   -0.00003213
     atom   88 type  2   force =    -0.00010105   -0.00007577   -0.00003258
     atom   89 type  3   force =    -0.00000462   -0.00001999    0.00001400
     atom   90 type  3   force =    -0.00079582    0.00119022    0.00094090
     atom   91 type  3   force =    -0.00000491   -0.00002012    0.00001380
     atom   92 type  3   force =    -0.00000482   -0.00001994    0.00001349
     atom   93 type  3   force =    -0.00000500   -0.00001983    0.00001408
     atom   94 type  3   force =    -0.00000471   -0.00002010    0.00001387
     atom   95 type  3   force =    -0.00000479   -0.00002019    0.00001384
     atom   96 type  3   force =    -0.00000457   -0.00002017    0.00001355
     atom   97 type  1   force =     0.00013024   -0.00020428    0.00002045
     atom   98 type  1   force =    -0.00797628    0.00319983    0.00165739
     atom   99 type  1   force =     0.00013058   -0.00020366    0.00002093
     atom  100 type  1   force =     0.00012989   -0.00020407    0.00002199
     atom  101 type  1   force =     0.00012888   -0.00020385    0.00002138
     atom  102 type  1   force =     0.00012960   -0.00020321    0.00002104
     atom  103 type  1   force =     0.00012918   -0.00020335    0.00002110
     atom  104 type  1   force =     0.00013185   -0.00020270    0.00002086
     atom  105 type  2   force =    -0.00006384   -0.00004482    0.00007431
     atom  106 type  2   force =    -0.00004785   -0.00004464    0.00007427
     atom  107 type  2   force =    -0.00006276   -0.00004740    0.00007283
     atom  108 type  2   force =    -0.00006311   -0.00004492    0.00007317
     atom  109 type  2   force =    -0.00006472   -0.00004650    0.00007290
     atom  110 type  2   force =    -0.00006320   -0.00004555    0.00007274
     atom  111 type  2   force =    -0.00006322   -0.00004530    0.00007295
     atom  112 type  2   force =    -0.00006213   -0.00004592    0.00007286
     atom  113 type  3   force =    -0.00006638   -0.00002169   -0.00002962
     atom  114 type  3   force =    -0.00006698   -0.00002113   -0.00002922
     atom  115 type  3   force =    -0.00006681   -0.00002090   -0.00002941
     atom  116 type  3   force =    -0.00006645   -0.00002148   -0.00002936
     atom  117 type  3   force =    -0.00010312    0.00004587   -0.00001736
     atom  118 type  3   force =    -0.00006644   -0.00002135   -0.00002925
     atom  119 type  3   force =    -0.00006638   -0.00002146   -0.00002947
     atom  120 type  3   force =    -0.00006664   -0.00002159   -0.00002940
     atom  121 type  1   force =     0.00000227    0.00024050   -0.00013713
     atom  122 type  1   force =    -0.00000585    0.00026392   -0.00013354
     atom  123 type  1   force =     0.00000243    0.00023947   -0.00013596
     atom  124 type  1   force =     0.00000249    0.00023912   -0.00013556
     atom  125 type  1   force =     0.00000333    0.00023492   -0.00013199
     atom  126 type  1   force =     0.00000160    0.00024051   -0.00013651
     atom  127 type  1   force =     0.00000107    0.00024009   -0.00013656
     atom  128 type  1   force =     0.00000405    0.00024082   -0.00013730
     atom  129 type  1   force =     0.00019542    0.00012999   -0.00017358
     atom  130 type  1   force =     0.00021144    0.00016940   -0.00015893
     atom  131 type  1   force =     0.00019493    0.00013008   -0.00017304
     atom  132 type  1   force =     0.00019485    0.00013062   -0.00017302
     atom  133 type  1   force =     0.00019549    0.00012736   -0.00017199
     atom  134 type  1   force =     0.00019522    0.00013118   -0.00017368
     atom  135 type  1   force =     0.00019518    0.00013085   -0.00017358
     atom  136 type  1   force =     0.00019869    0.00012906   -0.00017184
     atom  137 type  2   force =     0.00001409   -0.00000464    0.00001152
     atom  138 type  2   force =     0.00001525   -0.00000267    0.00001230
     atom  139 type  2   force =     0.00001475   -0.00000461    0.00001140
     atom  140 type  2   force =     0.00001439   -0.00000490    0.00001146
     atom  141 type  2   force =     0.00001503   -0.00000568    0.00001119
     atom  142 type  2   force =     0.00001426   -0.00000430    0.00001126
     atom  143 type  2   force =     0.00001437   -0.00000419    0.00001168
     atom  144 type  2   force =     0.00001988   -0.00000577    0.00001164
     atom  145 type  2   force =    -0.00019797    0.00004474    0.00002715
     atom  146 type  2   force =    -0.00021117    0.00004000    0.00003818
     atom  147 type  2   force =    -0.00019828    0.00004509    0.00002681
     atom  148 type  2   force =    -0.00019800    0.00004539    0.00002662
     atom  149 type  2   force =    -0.00020268    0.00004838    0.00002569
     atom  150 type  2   force =    -0.00019664    0.00004371    0.00002795
     atom  151 type  2   force =    -0.00019678    0.00004420    0.00002786
     atom  152 type  2   force =    -0.00020759    0.00004506    0.00002768
     atom  153 type  2   force =     0.00008499   -0.00015240    0.00008322
     atom  154 type  2   force =     0.00008637   -0.00015356    0.00008283
     atom  155 type  2   force =     0.00008609   -0.00015419    0.00008389
     atom  156 type  2   force =     0.00008371   -0.00015843    0.00008304
     atom  157 type  2   force =     0.00008581   -0.00015385    0.00008292
     atom  158 type  2   force =     0.00008486   -0.00015399    0.00008290
     atom  159 type  2   force =     0.00008571   -0.00015241    0.00008316
     atom  160 type  2   force =     0.00008581   -0.00015378    0.00008262
     atom  161 type  3   force =    -0.00002469   -0.00004391   -0.00005447
     atom  162 type  3   force =    -0.00002363   -0.00004479   -0.00005375
     atom  163 type  3   force =    -0.00002367   -0.00004513   -0.00005464
     atom  164 type  3   force =    -0.00002229   -0.00004482   -0.00005447
     atom  165 type  3   force =    -0.00002367   -0.00004519   -0.00005420
     atom  166 type  3   force =    -0.00002362   -0.00004505   -0.00005412
     atom  167 type  3   force =    -0.00002360   -0.00004480   -0.00005433
     atom  168 type  3   force =    -0.00002363   -0.00004511   -0.00005415
     atom  169 type  2   force =    -0.00014428    0.00000501   -0.00000099
     atom  170 type  2   force =    -0.00016980    0.00000533   -0.00000114
     atom  171 type  2   force =    -0.00014408    0.00000548   -0.00000129
     atom  172 type  2   force =    -0.00014361    0.00000445   -0.00000102
     atom  173 type  2   force =    -0.00014199    0.00000454   -0.00000150
     atom  174 type  2   force =    -0.00014360    0.00000564   -0.00000139
     atom  175 type  2   force =    -0.00014342    0.00000538   -0.00000151
     atom  176 type  2   force =    -0.00014542    0.00000566   -0.00000093
     atom  177 type  3   force =    -0.00003727    0.00007025   -0.00004829
     atom  178 type  3   force =    -0.00004516    0.00009979   -0.00005068
     atom  179 type  3   force =    -0.00003759    0.00007018   -0.00004868
     atom  180 type  3   force =    -0.00003725    0.00007020   -0.00004884
     atom  181 type  3   force =    -0.00003723    0.00007028   -0.00004866
     atom  182 type  3   force =    -0.00003723    0.00007009   -0.00004850
     atom  183 type  3   force =    -0.00003717    0.00007008   -0.00004865
     atom  184 type  3   force =    -0.00003760    0.00007022   -0.00004863
     atom  185 type  1   force =    -0.00005407   -0.00020745    0.00017987
     atom  186 type  1   force =    -0.00004838   -0.00019552    0.00015908
     atom  187 type  1   force =    -0.00005492   -0.00020805    0.00018049
     atom  188 type  1   force =    -0.00005496   -0.00020911    0.00018138
     atom  189 type  1   force =    -0.00005659   -0.00021542    0.00018123
     atom  190 type  1   force =    -0.00005532   -0.00020717    0.00017912
     atom  191 type  1   force =    -0.00005601   -0.00020697    0.00018039
     atom  192 type  1   force =    -0.00005201   -0.00020884    0.00018112
     atom  193 type  1   force =     0.00015737   -0.00025355    0.00011387
     atom  194 type  1   force =     0.00016114   -0.00025228    0.00012596
     atom  195 type  1   force =     0.00015781   -0.00025375    0.00011409
     atom  196 type  1   force =     0.00015813   -0.00025342    0.00011436
     atom  197 type  1   force =     0.00016188   -0.00025688    0.00011148
     atom  198 type  1   force =     0.00015591   -0.00025311    0.00011397
     atom  199 type  1   force =     0.00015646   -0.00025226    0.00011392
     atom  200 type  1   force =     0.00016138   -0.00025432    0.00011313
     atom  201 type  2   force =     0.00010062    0.00007614   -0.00003280
     atom  202 type  2   force =     0.00009752    0.00007339   -0.00003349
     atom  203 type  2   force =     0.00010107    0.00007596   -0.00003253
     atom  204 type  2   force =     0.00010029    0.00007644   -0.00003251
     atom  205 type  2   force =     0.00010079    0.00007656   -0.00003221
     atom  206 type  2   force =     0.00010158    0.00007546   -0.00003266
     atom  207 type  2   force =     0.00010098    0.00007562   -0.00003276
     atom  208 type  2   force =     0.00009348    0.00007359   -0.00003408
     atom  209 type  3   force =     0.00000452    0.00002002    0.00001398
     atom  210 type  3   force =     0.00000435    0.00001845    0.00001554
     atom  211 type  3   force =     0.00000462    0.00001986    0.00001382
     atom  212 type  3   force =     0.00000459    0.00002007    0.00001358
     atom  213 type  3   force =     0.00000470    0.00001997    0.00001388
     atom  214 type  3   force =     0.00000452    0.00001967    0.00001389
     atom  215 type  3   force =     0.00000458    0.00001991    0.00001400
     atom  216 type  3   force =     0.00000712    0.00002008    0.00001443
     atom  217 type  1   force =    -0.00012992    0.00020334    0.00002083
     atom  218 type  1   force =    -0.00012577    0.00020474    0.00002110
     atom  219 type  1   force =    -0.00012912    0.00020423    0.00002144
     atom  220 type  1   force =    -0.00012968    0.00020327    0.00002145
     atom  221 type  1   force =    -0.00012878    0.00020187    0.00002109
     atom  222 type  1   force =    -0.00012950    0.00020388    0.00002170
     atom  223 type  1   force =    -0.00012966    0.00020428    0.00002069
     atom  224 type  1   force =    -0.00011728    0.00020240    0.00002379
     atom  225 type  2   force =     0.00006296    0.00004587    0.00007306
     atom  226 type  2   force =     0.00006327    0.00004644    0.00007318
     atom  227 type  2   force =     0.00006379    0.00004443    0.00007309
     atom  228 type  2   force =     0.00006306    0.00004559    0.00007301
     atom  229 type  2   force =    -0.00106687    0.00133219    0.00025677
     atom  230 type  2   force =     0.00006353    0.00004477    0.00007281
     atom  231 type  2   force =     0.00006345    0.00004495    0.00007301
     atom  232 type  2   force =     0.00006291    0.00004519    0.00007301
     atom  233 type  3   force =     0.00006653    0.00002112   -0.00002941
     atom  234 type  3   force =     0.00006615    0.00002146   -0.00002934
     atom  235 type  3   force =     0.00006646    0.00002150   -0.00002940
     atom  236 type  3   force =     0.00006635    0.00002111   -0.00002950
     atom  237 type  3   force =     0.00006607    0.00001945   -0.00002938
     atom  238 type  3   force =     0.00006634    0.00002132   -0.00002929
     atom  239 type  3   force =     0.00006643    0.00002130   -0.00002948
     atom  240 type  3   force =     0.00006657    0.00002153   -0.00002939
     atom  241 type  1   force =    -0.00023701    0.00000118    0.00013394
     atom  242 type  1   force =    -0.00023517    0.00002119    0.00017046
     atom  243 type  1   force =    -0.00023948    0.00000183    0.00013584
     atom  244 type  1   force =    -0.00023980    0.00000133    0.00013648
     atom  245 type  1   force =    -0.00023976    0.00000032    0.00013621
     atom  246 type  1   force =    -0.00023935    0.00000262    0.00013618
     atom  247 type  1   force =    -0.00024109    0.00000225    0.00013655
     atom  248 type  1   force =    -0.00023841    0.00000172    0.00013514
     atom  249 type  1   force =    -0.00012708    0.00019282    0.00017117
     atom  250 type  1   force =    -0.00012598    0.00017480    0.00021522
     atom  251 type  1   force =    -0.00012939    0.00019560    0.00017269
     atom  252 type  1   force =    -0.00012994    0.00019474    0.00017414
     atom  253 type  1   force =    -0.00013066    0.00019519    0.00017333
     atom  254 type  1   force =    -0.00013059    0.00019509    0.00017304
     atom  255 type  1   force =    -0.00013045    0.00019605    0.00017318
     atom  256 type  1   force =    -0.00012999    0.00019369    0.00017304
     atom  257 type  2   force =     0.00000506    0.00001558   -0.00001113
     atom  258 type  2   force =     0.00000399    0.00001613   -0.00000997
     atom  259 type  2   force =     0.00000519    0.00001436   -0.00001173
     atom  260 type  2   force =     0.00000441    0.00001428   -0.00001161
     atom  261 type  2   force =     0.00000360    0.00001520   -0.00001161
     atom  262 type  2   force =     0.00000473    0.00001387   -0.00001140
     atom  263 type  2   force =     0.00000806    0.00001934   -0.00001584
     atom  264 type  2   force =     0.00000510    0.00001465   -0.00001167
     atom  265 type  2   force =    -0.00004835   -0.00019907   -0.00002497
     atom  266 type  2   force =    -0.00003897   -0.00018661   -0.00002017
     atom  267 type  2   force =    -0.00004431   -0.00019775   -0.00002773
     atom  268 type  2   force =    -0.00004523   -0.00019594   -0.00002732
     atom  269 type  2   force =    -0.00004455   -0.00019756   -0.00002778
     atom  270 type  2   force =    -0.00004524   -0.00019780   -0.00002669
     atom  271 type  2   force =    -0.00004372   -0.00019858   -0.00002717
     atom  272 type  2   force =    -0.00004546   -0.00019792   -0.00002682
     atom  273 type  2   force =     0.00015235    0.00008514   -0.00008402
     atom  274 type  2   force =     0.00015458    0.00008765   -0.00008221
     atom  275 type  2   force =     0.00015374    0.00008569   -0.00008319
     atom  276 type  2   force =     0.00015293    0.00008595   -0.00008279
     atom  277 type  2   force =     0.00015325    0.00008484   -0.00008364
     atom  278 type  2   force =     0.00015367    0.00008591   -0.00008287
     atom  279 type  2   force =     0.00015397    0.00008576   -0.00008169
     atom  280 type  2   force =     0.00015338    0.00008612   -0.00008316
     atom  281 type  3   force =     0.00004547   -0.00002414    0.00005631
     atom  282 type  3   force =     0.00004367   -0.00002285    0.00005575
     atom  283 type  3   force =     0.00004480   -0.00002357    0.00005393
     atom  284 type  3   force =     0.00004479   -0.00002362    0.00005406
     atom  285 type  3   force =     0.00004501   -0.00002384    0.00005409
     atom  286 type  3   force =     0.00004521   -0.00002367    0.00005417
     atom  287 type  3   force =     0.00004458   -0.00002340    0.00005495
     atom  288 type  3   force =     0.00004465   -0.00002377    0.00005408
     atom  289 type  2   force =    -0.00000664   -0.00014393    0.00000151
     atom  290 type  2   force =    -0.00000453   -0.00014421    0.00000159
     atom  291 type  2   force =    -0.00000549   -0.00014403    0.00000140
     atom  292 type  2   force =    -0.00000478   -0.00014418    0.00000172
     atom  293 type  2   force =    -0.00000407   -0.00014162    0.00000154
     atom  294 type  2   force =    -0.00000444   -0.00014346    0.00000178
     atom  295 type  2   force =    -0.00000499   -0.00014236    0.00000135
     atom  296 type  2   force =    -0.00000567   -0.00014341    0.00000158
     atom  297 type  3   force =    -0.00007043   -0.00003773    0.00004887
     atom  298 type  3   force =    -0.00007002   -0.00003715    0.00004838
     atom  299 type  3   force =    -0.00007041   -0.00003740    0.00004847
     atom  300 type  3   force =    -0.00006983   -0.00003749    0.00004850
     atom  301 type  3   force =    -0.00006886   -0.00003707    0.00004699
     atom  302 type  3   force =    -0.00007033   -0.00003726    0.00004871
     atom  303 type  3   force =    -0.00007199   -0.00003759    0.00004874
     atom  304 type  3   force =    -0.00007025   -0.00003724    0.00004859
     atom  305 type  1   force =     0.00021026   -0.00005927   -0.00018422
     atom  306 type  1   force =     0.00019224   -0.00004044   -0.00017762
     atom  307 type  1   force =     0.00020814   -0.00005409   -0.00018013
     atom  308 type  1   force =     0.00020804   -0.00005629   -0.00018015
     atom  309 type  1   force =     0.00020661   -0.00005701   -0.00018003
     atom  310 type  1   force =     0.00020781   -0.00005409   -0.00018161
     atom  311 type  1   force =     0.00020765   -0.00005447   -0.00018013
     atom  312 type  1   force =     0.00020862   -0.00005641   -0.00018044
     atom  313 type  1   force =     0.00025446    0.00016181   -0.00011475
     atom  314 type  1   force =     0.00025733    0.00015129   -0.00011354
     atom  315 type  1   force =     0.00025434    0.00015785   -0.00011478
     atom  316 type  1   force =     0.00025318    0.00015707   -0.00011316
     atom  317 type  1   force =     0.00025214    0.00015648   -0.00011379
     atom  318 type  1   force =     0.00025218    0.00015827   -0.00011449
     atom  319 type  1   force =     0.00025250    0.00015786   -0.00011352
     atom  320 type  1   force =     0.00025450    0.00015735   -0.00011405
     atom  321 type  2   force =    -0.00007733    0.00010016    0.00003237
     atom  322 type  2   force =    -0.00007173    0.00010024    0.00003248
     atom  323 type  2   force =    -0.00007585    0.00010029    0.00003222
     atom  324 type  2   force =    -0.00007594    0.00010187    0.00003190
     atom  325 type  2   force =    -0.00007578    0.00010264    0.00003214
     atom  326 type  2   force =    -0.00007571    0.00010104    0.00003227
     atom  327 type  2   force =    -0.00007341    0.00009301    0.00002961
     atom  328 type  2   force =    -0.00007643    0.00010068    0.00003215
     atom  329 type  3   force =    -0.00002010    0.00000461   -0.00001366
     atom  330 type  3   force =    -0.00001989    0.00000484   -0.00001425
     atom  331 type  3   force =    -0.00001998    0.00000460   -0.00001387
     atom  332 type  3   force =    -0.00001982    0.00000471   -0.00001376
     atom  333 type  3   force =    -0.00001985    0.00000451   -0.00001403
     atom  334 type  3   force =    -0.00002009    0.00000454   -0.00001381
     atom  335 type  3   force =    -0.00002308    0.00000823   -0.00001098
     atom  336 type  3   force =    -0.00002008    0.00000438   -0.00001356
     atom  337 type  1   force =    -0.00020259   -0.00012888   -0.00002178
     atom  338 type  1   force =    -0.00020593   -0.00013119   -0.00002033
     atom  339 type  1   force =    -0.00020312   -0.00012975   -0.00002117
     atom  340 type  1   force =    -0.00020362   -0.00013021   -0.00002101
     atom  341 type  1   force =    -0.00020507   -0.00013091   -0.00001994
     atom  342 type  1   force =    -0.00020307   -0.00012987   -0.00002144
     atom  343 type  1   force =    -0.00020293   -0.00013094   -0.00000821
     atom  344 type  1   force =    -0.00020313   -0.00012991   -0.00002182
     atom  345 type  2   force =    -0.00004524    0.00004999   -0.00006125
     atom  346 type  2   force =    -0.00004579    0.00006348   -0.00007294
     atom  347 type  2   force =    -0.00004534    0.00006362   -0.00007268
     atom  348 type  2   force =    -0.00004565    0.00006285   -0.00007321
     atom  349 type  2   force =    -0.00004519    0.00006352   -0.00007318
     atom  350 type  2   force =    -0.00004674    0.00006254   -0.00007322
     atom  351 type  2   force =    -0.00004529    0.00006346   -0.00007281
     atom  352 type  2   force =    -0.00004591    0.00006299   -0.00007303
     atom  353 type  3   force =    -0.00002082    0.00006674    0.00002942
     atom  354 type  3   force =    -0.00002137    0.00006644    0.00002956
     atom  355 type  3   force =    -0.00002145    0.00006625    0.00002925
     atom  356 type  3   force =    -0.00002132    0.00006638    0.00002937
     atom  357 type  3   force =    -0.00002278    0.00006640    0.00003104
     atom  358 type  3   force =    -0.00002132    0.00006660    0.00002958
     atom  359 type  3   force =    -0.00002096    0.00006659    0.00002896
     atom  360 type  3   force =    -0.00002126    0.00006619    0.00002939
     atom  361 type  1   force =     0.00024075   -0.00000229    0.00013597
     atom  362 type  1   force =     0.00023958    0.00000273    0.00014017
     atom  363 type  1   force =     0.00023931   -0.00000087    0.00013547
     atom  364 type  1   force =     0.00023987   -0.00000396    0.00013727
     atom  365 type  1   force =     0.00024077   -0.00000248    0.00013706
     atom  366 type  1   force =     0.00024040   -0.00000180    0.00013607
     atom  367 type  1   force =     0.00022769   -0.00000536    0.00013307
     atom  368 type  1   force =     0.00024056   -0.00000143    0.00013579
     atom  369 type  1   force =     0.00012933   -0.00019510    0.00017246
     atom  370 type  1   force =     0.00012910   -0.00019763    0.00017182
     atom  371 type  1   force =     0.00013055   -0.00019574    0.00017282
     atom  372 type  1   force =     0.00012891   -0.00019687    0.00017418
     atom  373 type  1   force =     0.00013347   -0.00019368    0.00017103
     atom  374 type  1   force =     0.00013038   -0.00019548    0.00017248
     atom  375 type  1   force =     0.00012981   -0.00019564    0.00017318
     atom  376 type  1   force =     0.00013068   -0.00019552    0.00017337
     atom  377 type  2   force =    -0.00000448   -0.00001545   -0.00001113
     atom  378 type  2   force =    -0.00000031   -0.00002128   -0.00001447
     atom  379 type  2   force =    -0.00000408   -0.00001477   -0.00001165
     atom  380 type  2   force =    -0.00000436   -0.00001517   -0.00001233
     atom  381 type  2   force =    -0.00000505   -0.00001519   -0.00001242
     atom  382 type  2   force =    -0.00000464   -0.00001489   -0.00001132
     atom  383 type  2   force =    -0.00000470   -0.00001398   -0.00001166
     atom  384 type  2   force =    -0.00000438   -0.00001429   -0.00001161
     atom  385 type  2   force =     0.00004459    0.00019858   -0.00002803
     atom  386 type  2   force =     0.00004741    0.00020764   -0.00002743
     atom  387 type  2   force =     0.00004501    0.00019775   -0.00002737
     atom  388 type  2   force =     0.00004160    0.00019716   -0.00002984
     atom  389 type  2   force =     0.00005033    0.00020568   -0.00002231
     atom  390 type  2   force =     0.00004240    0.00019439   -0.00002702
     atom  391 type  2   force =     0.00004436    0.00019773   -0.00002747
     atom  392 type  2   force =     0.00004418    0.00019670   -0.00002808
     atom  393 type  2   force =    -0.00015300   -0.00008622   -0.00008349
     atom  394 type  2   force =    -0.00015571   -0.00007396   -0.00008269
     atom  395 type  2   force =    -0.00015334   -0.00008557   -0.00008277
     atom  396 type  2   force =    -0.00015491   -0.00008606   -0.00008240
     atom  397 type  2   force =    -0.00015392   -0.00008554   -0.00008321
     atom  398 type  2   force =    -0.00015445   -0.00008609   -0.00008199
     atom  399 type  2   force =    -0.00015389   -0.00008612   -0.00008283
     atom  400 type  2   force =    -0.00015319   -0.00008595   -0.00008241
     atom  401 type  3   force =    -0.00004497    0.00002361    0.00005426
     atom  402 type  3   force =    -0.00004497    0.00002321    0.00005530
     atom  403 type  3   force =    -0.00004493    0.00002359    0.00005412
     atom  404 type  3   force =    -0.00004560    0.00002349    0.00005390
     atom  405 type  3   force =    -0.00004512    0.00002397    0.00005468
     atom  406 type  3   force =    -0.00004586    0.00002207    0.00005333
     atom  407 type  3   force =    -0.00004502    0.00002359    0.00005410
     atom  408 type  3   force =    -0.00004503    0.00002367    0.00005381
     atom  409 type  2   force =     0.00001400    0.00014402    0.00000108
     atom  410 type  2   force =     0.00000530    0.00014429    0.00000135
     atom  411 type  2   force =     0.00000501    0.00014526    0.00000072
     atom  412 type  2   force =     0.00000463    0.00014417    0.00000132
     atom  413 type  2   force =     0.00000552    0.00014415    0.00000139
     atom  414 type  2   force =     0.00000534    0.00014431    0.00000132
     atom  415 type  2   force =     0.00000449    0.00014383    0.00000149
     atom  416 type  2   force =     0.00000536    0.00014327    0.00000149
     atom  417 type  3   force =     0.00007120    0.00003364    0.00004463
     atom  418 type  3   force =     0.00006983    0.00003702    0.00004887
     atom  419 type  3   force =     0.00007045    0.00003720    0.00004822
     atom  420 type  3   force =     0.00007008    0.00003721    0.00004861
     atom  421 type  3   force =     0.00007008    0.00003730    0.00004849
     atom  422 type  3   force =     0.00007034    0.00003760    0.00004866
     atom  423 type  3   force =     0.00006968    0.00003737    0.00004863
     atom  424 type  3   force =     0.00007078    0.00003737    0.00004832
     atom  425 type  1   force =    -0.00020734    0.00005555   -0.00018027
     atom  426 type  1   force =    -0.00020910    0.00005389   -0.00018243
     atom  427 type  1   force =    -0.00020729    0.00005454   -0.00017990
     atom  428 type  1   force =    -0.00020509    0.00005554   -0.00017892
     atom  429 type  1   force =    -0.00021098    0.00005933   -0.00019211
     atom  430 type  1   force =    -0.00020623    0.00005411   -0.00018127
     atom  431 type  1   force =    -0.00020723    0.00005360   -0.00017971
     atom  432 type  1   force =    -0.00020720    0.00005480   -0.00017991
     atom  433 type  1   force =    -0.00025454   -0.00015738   -0.00011495
     atom  434 type  1   force =    -0.00025338   -0.00016166   -0.00011284
     atom  435 type  1   force =    -0.00025282   -0.00015774   -0.00011400
     atom  436 type  1   force =    -0.00025219   -0.00015531   -0.00011463
     atom  437 type  1   force =    -0.00024946   -0.00016499   -0.00011996
     atom  438 type  1   force =    -0.00025232   -0.00015570   -0.00011582
     atom  439 type  1   force =    -0.00025407   -0.00015738   -0.00011448
     atom  440 type  1   force =    -0.00025367   -0.00015707   -0.00011457
     atom  441 type  2   force =     0.00007600   -0.00010093    0.00003228
     atom  442 type  2   force =     0.00007436   -0.00009659    0.00003187
     atom  443 type  2   force =     0.00007487   -0.00010093    0.00003268
     atom  444 type  2   force =     0.00007553   -0.00010297    0.00003133
     atom  445 type  2   force =     0.00007760   -0.00010137    0.00003260
     atom  446 type  2   force =     0.00007444   -0.00010126    0.00003226
     atom  447 type  2   force =     0.00007608   -0.00010012    0.00003239
     atom  448 type  2   force =     0.00007496   -0.00010146    0.00003231
     atom  449 type  3   force =     0.00001970   -0.00000486   -0.00001387
     atom  450 type  3   force =     0.00002106   -0.00000489   -0.00001432
     atom  451 type  3   force =     0.00001980   -0.00000467   -0.00001386
     atom  452 type  3   force =     0.00002002   -0.00000533   -0.00001462
     atom  453 type  3   force =     0.00002011   -0.00000468   -0.00001392
     atom  454 type  3   force =     0.00001994   -0.00000491   -0.00001367
     atom  455 type  3   force =     0.00002002   -0.00000478   -0.00001414
     atom  456 type  3   force =     0.00001980   -0.00000482   -0.00001384
     atom  457 type  1   force =     0.00020371    0.00012854   -0.00002167
     atom  458 type  1   force =     0.00020508    0.00013018   -0.00001787
     atom  459 type  1   force =     0.00020416    0.00012894   -0.00002178
     atom  460 type  1   force =     0.00020032    0.00012816   -0.00001299
     atom  461 type  1   force =     0.00020358    0.00012933   -0.00002110
     atom  462 type  1   force =     0.00020420    0.00012964   -0.00002160
     atom  463 type  1   force =     0.00020270    0.00012835   -0.00002101
     atom  464 type  1   force =     0.00020388    0.00013046   -0.00002092
     atom  465 type  2   force =     0.00004817   -0.00006467   -0.00007334
     atom  466 type  2   force =     0.00004357   -0.00006358   -0.00007347
     atom  467 type  2   force =     0.00004536   -0.00006274   -0.00007270
     atom  468 type  2   force =     0.00004502   -0.00006344   -0.00007308
     atom  469 type  2   force =     0.00004697   -0.00006409   -0.00007395
     atom  470 type  2   force =     0.00004536   -0.00006317   -0.00007342
     atom  471 type  2   force =     0.00004603   -0.00006281   -0.00007465
     atom  472 type  2   force =     0.00004563   -0.00006311   -0.00007296
     atom  473 type  3   force =     0.00002246   -0.00006696    0.00002645
     atom  474 type  3   force =     0.00002159   -0.00006632    0.00002983
     atom  475 type  3   force =     0.00002145   -0.00006655    0.00002912
     atom  476 type  3   force =     0.00002146   -0.00006665    0.00002934
     atom  477 type  3   force =     0.00002116   -0.00006656    0.00002942
     atom  478 type  3   force =     0.00002148   -0.00006665    0.00002946
     atom  479 type  3   force =     0.00002123   -0.00006673    0.00002929
     atom  480 type  3   force =     0.00002104   -0.00006653    0.00002929
     atom  481 type  4   force =    -0.00000417    0.00000178    0.00000377
     atom  482 type  4   force =     0.00001312   -0.00002252   -0.00003118
     atom  483 type  4   force =     0.00000200   -0.00000249    0.00000306
     atom  484 type  4   force =    -0.00000325    0.00000436   -0.00000309
     atom  485 type  4   force =    -0.00000069    0.00000717   -0.00000207
     atom  486 type  4   force =     0.00000465   -0.00000229   -0.00000075
     atom  487 type  4   force =     0.00000891    0.00000020    0.00000180
     atom  488 type  4   force =    -0.00000489   -0.00000243    0.00000181
     atom  489 type  4   force =    -0.00000596    0.00003590    0.00001968
     atom  490 type  4   force =    -0.00000110    0.00000155    0.00000667
     atom  491 type  4   force =     0.00000032   -0.00000192   -0.00000347
     atom  492 type  4   force =    -0.00000140    0.00000403   -0.00000238
     atom  493 type  4   force =    -0.00000014    0.00000007   -0.00000165
     atom  494 type  4   force =     0.00000175   -0.00000697    0.00000772
     atom  495 type  4   force =     0.00000030    0.00000075    0.00000067
     atom  496 type  4   force =    -0.00000346    0.00000233   -0.00000305
     The non-local contrib.  to forces
     atom    1 type  1   force =     0.42451262   -0.94529076   -0.55500914
     atom    2 type  1   force =     0.42455613   -0.94495468   -0.55492964
     atom    3 type  1   force =     0.42451140   -0.94528282   -0.55500189
     atom    4 type  1   force =     0.42450967   -0.94527612   -0.55499052
     atom    5 type  1   force =     0.42450687   -0.94528525   -0.55499839
     atom    6 type  1   force =     0.42450669   -0.94527572   -0.55499815
     atom    7 type  1   force =     0.42450757   -0.94528171   -0.55500235
     atom    8 type  1   force =     0.42450484   -0.94525646   -0.55499196
     atom    9 type  1   force =    -1.90150257   -0.92015021   -0.83653438
     atom   10 type  1   force =    -1.90169607   -0.92018472   -0.83651102
     atom   11 type  1   force =    -1.90168688   -0.92017511   -0.83650218
     atom   12 type  1   force =    -1.90169483   -0.92018170   -0.83651021
     atom   13 type  1   force =    -1.90169367   -0.92017867   -0.83650812
     atom   14 type  1   force =    -1.90169497   -0.92017985   -0.83650794
     atom   15 type  1   force =    -1.90168644   -0.92016949   -0.83650287
     atom   16 type  1   force =    -1.90169688   -0.92018134   -0.83651139
     atom   17 type  2   force =     0.20594071   -0.03925088    0.01127999
     atom   18 type  2   force =     0.20917753   -0.04486471    0.00801781
     atom   19 type  2   force =     0.20917895   -0.04486434    0.00802250
     atom   20 type  2   force =     0.20917859   -0.04486338    0.00802018
     atom   21 type  2   force =     0.20917302   -0.04486166    0.00801941
     atom   22 type  2   force =     0.20916941   -0.04486499    0.00801986
     atom   23 type  2   force =     0.20917980   -0.04486008    0.00802015
     atom   24 type  2   force =     0.20917209   -0.04486217    0.00802075
     atom   25 type  2   force =     0.17968792   -0.00892721    0.01082085
     atom   26 type  2   force =     0.18057816   -0.00954312    0.01138365
     atom   27 type  2   force =     0.18058008   -0.00953837    0.01138702
     atom   28 type  2   force =     0.18058028   -0.00954140    0.01138498
     atom   29 type  2   force =     0.18057455   -0.00953923    0.01138587
     atom   30 type  2   force =     0.18057050   -0.00953929    0.01138576
     atom   31 type  2   force =     0.18058121   -0.00953627    0.01138789
     atom   32 type  2   force =     0.18057345   -0.00954025    0.01138541
     atom   33 type  2   force =     0.03833418    0.04943729   -0.02159126
     atom   34 type  2   force =     0.03833090    0.04943360   -0.02159135
     atom   35 type  2   force =     0.03834287    0.04943419   -0.02158935
     atom   36 type  2   force =     0.03833407    0.04943447   -0.02158927
     atom   37 type  2   force =     0.03835475    0.04924581   -0.02244060
     atom   38 type  2   force =     0.03833897    0.04943212   -0.02159224
     atom   39 type  2   force =     0.03833847    0.04943480   -0.02158815
     atom   40 type  2   force =     0.03834008    0.04943182   -0.02158977
     atom   41 type  3   force =    -0.02448918    0.07095381   -0.00853856
     atom   42 type  3   force =    -0.02448935    0.07095374   -0.00853850
     atom   43 type  3   force =    -0.02448905    0.07095370   -0.00853849
     atom   44 type  3   force =    -0.02448917    0.07095374   -0.00853843
     atom   45 type  3   force =    -0.02450147    0.07094326   -0.00855416
     atom   46 type  3   force =    -0.02448908    0.07095367   -0.00853859
     atom   47 type  3   force =    -0.02448911    0.07095376   -0.00853842
     atom   48 type  3   force =    -0.02448905    0.07095368   -0.00853850
     atom   49 type  2   force =     0.19564441    0.10407040   -0.02183041
     atom   50 type  2   force =     0.19564404    0.10406679   -0.02183108
     atom   51 type  2   force =     0.19566634    0.10406877   -0.02183233
     atom   52 type  2   force =     0.19564408    0.10407018   -0.02183128
     atom   53 type  2   force =     0.19656075    0.10520714   -0.02251478
     atom   54 type  2   force =     0.19564977    0.10406799   -0.02183275
     atom   55 type  2   force =     0.19564768    0.10406871   -0.02183117
     atom   56 type  2   force =     0.19565122    0.10406949   -0.02183165
     atom   57 type  3   force =     0.07447304   -0.02094777   -0.00102125
     atom   58 type  3   force =     0.07447304   -0.02094778   -0.00102131
     atom   59 type  3   force =     0.07447363   -0.02094767   -0.00102136
     atom   60 type  3   force =     0.07447303   -0.02094776   -0.00102139
     atom   61 type  3   force =     0.07447912   -0.02094236   -0.00104412
     atom   62 type  3   force =     0.07447319   -0.02094778   -0.00102140
     atom   63 type  3   force =     0.07447316   -0.02094776   -0.00102129
     atom   64 type  3   force =     0.07447318   -0.02094780   -0.00102131
     atom   65 type  1   force =     0.46043773    0.90170395    0.60857471
     atom   66 type  1   force =     0.46059582    0.90169872    0.60853111
     atom   67 type  1   force =     0.46060505    0.90172237    0.60855522
     atom   68 type  1   force =     0.46059913    0.90170412    0.60854249
     atom   69 type  1   force =     0.46059900    0.90171558    0.60854610
     atom   70 type  1   force =     0.46059842    0.90171843    0.60854384
     atom   71 type  1   force =     0.46059795    0.90171580    0.60854727
     atom   72 type  1   force =     0.46059960    0.90171345    0.60854732
     atom   73 type  1   force =    -1.81421366    1.18893828    0.50409435
     atom   74 type  1   force =    -1.81427097    1.18901967    0.50398669
     atom   75 type  1   force =    -1.81427373    1.18902860    0.50399285
     atom   76 type  1   force =    -1.81426614    1.18901634    0.50398824
     atom   77 type  1   force =    -1.81427696    1.18902717    0.50399154
     atom   78 type  1   force =    -1.81427878    1.18902780    0.50399102
     atom   79 type  1   force =    -1.81429226    1.18903960    0.50400120
     atom   80 type  1   force =    -1.81427228    1.18902320    0.50398927
     atom   81 type  2   force =    -0.10827901   -0.01014679    0.00820202
     atom   82 type  2   force =    -0.12229011    0.00072165    0.01060758
     atom   83 type  2   force =    -0.12229088    0.00072000    0.01061054
     atom   84 type  2   force =    -0.12228957    0.00072273    0.01060898
     atom   85 type  2   force =    -0.12229207    0.00072507    0.01060826
     atom   86 type  2   force =    -0.12229871    0.00071695    0.01060994
     atom   87 type  2   force =    -0.12228262    0.00073016    0.01060842
     atom   88 type  2   force =    -0.12229316    0.00072436    0.01060920
     atom   89 type  3   force =    -0.04392395   -0.06010588    0.00989219
     atom   90 type  3   force =    -0.04438989   -0.05963176    0.01046319
     atom   91 type  3   force =    -0.04392394   -0.06010585    0.00989230
     atom   92 type  3   force =    -0.04392396   -0.06010593    0.00989243
     atom   93 type  3   force =    -0.04392412   -0.06010605    0.00989229
     atom   94 type  3   force =    -0.04392397   -0.06010579    0.00989224
     atom   95 type  3   force =    -0.04392401   -0.06010582    0.00989228
     atom   96 type  3   force =    -0.04392377   -0.06010561    0.00989230
     atom   97 type  1   force =     0.67099753   -1.73657983    0.15449616
     atom   98 type  1   force =     0.66813477   -1.72582882    0.16394820
     atom   99 type  1   force =     0.67099981   -1.73658237    0.15449978
     atom  100 type  1   force =     0.67099684   -1.73658157    0.15450268
     atom  101 type  1   force =     0.67099102   -1.73658273    0.15450039
     atom  102 type  1   force =     0.67099374   -1.73657546    0.15449871
     atom  103 type  1   force =     0.67099274   -1.73657529    0.15449936
     atom  104 type  1   force =     0.67100660   -1.73657325    0.15449921
     atom  105 type  2   force =    -0.02521534    0.04109166   -0.00104464
     atom  106 type  2   force =    -0.02519021    0.04103001   -0.00104692
     atom  107 type  2   force =    -0.02520536    0.04108455   -0.00104297
     atom  108 type  2   force =    -0.02521781    0.04108790   -0.00104347
     atom  109 type  2   force =    -0.02519903    0.04110606   -0.00104085
     atom  110 type  2   force =    -0.02521448    0.04108707   -0.00104370
     atom  111 type  2   force =    -0.02521425    0.04108852   -0.00104301
     atom  112 type  2   force =    -0.02520633    0.04109433   -0.00104339
     atom  113 type  3   force =     0.05071350    0.05410630   -0.00605697
     atom  114 type  3   force =     0.05071340    0.05410589   -0.00605704
     atom  115 type  3   force =     0.05071386    0.05410634   -0.00605703
     atom  116 type  3   force =     0.05071352    0.05410622   -0.00605704
     atom  117 type  3   force =     0.05071654    0.05410509   -0.00605594
     atom  118 type  3   force =     0.05071362    0.05410623   -0.00605710
     atom  119 type  3   force =     0.05071363    0.05410628   -0.00605701
     atom  120 type  3   force =     0.05071367    0.05410635   -0.00605703
     atom  121 type  1   force =    -0.42450626    0.94528095   -0.55500437
     atom  122 type  1   force =    -0.42454418    0.94542631   -0.55495829
     atom  123 type  1   force =    -0.42450448    0.94527480   -0.55499722
     atom  124 type  1   force =    -0.42450231    0.94526550   -0.55498950
     atom  125 type  1   force =    -0.42449875    0.94524825   -0.55497389
     atom  126 type  1   force =    -0.42451036    0.94528324   -0.55500255
     atom  127 type  1   force =    -0.42451362    0.94528680   -0.55500401
     atom  128 type  1   force =    -0.42449246    0.94529496   -0.55500337
     atom  129 type  1   force =     1.90170065    0.92018338   -0.83651321
     atom  130 type  1   force =     1.90173382    0.92031869   -0.83643019
     atom  131 type  1   force =     1.90169698    0.92017951   -0.83650880
     atom  132 type  1   force =     1.90169380    0.92017610   -0.83650631
     atom  133 type  1   force =     1.90167760    0.92015922   -0.83648661
     atom  134 type  1   force =     1.90169689    0.92018416   -0.83651172
     atom  135 type  1   force =     1.90169177    0.92018224   -0.83650919
     atom  136 type  1   force =     1.90171506    0.92018645   -0.83651531
     atom  137 type  2   force =    -0.20917243    0.04486205    0.00801954
     atom  138 type  2   force =    -0.20916415    0.04487175    0.00802018
     atom  139 type  2   force =    -0.20917125    0.04486348    0.00802042
     atom  140 type  2   force =    -0.20917281    0.04486143    0.00802105
     atom  141 type  2   force =    -0.20916737    0.04485436    0.00801976
     atom  142 type  2   force =    -0.20917619    0.04486483    0.00801866
     atom  143 type  2   force =    -0.20917477    0.04486610    0.00801930
     atom  144 type  2   force =    -0.20914764    0.04485420    0.00801913
     atom  145 type  2   force =    -0.18057239    0.00954140    0.01138463
     atom  146 type  2   force =    -0.18056723    0.00954681    0.01138233
     atom  147 type  2   force =    -0.18057291    0.00953870    0.01138623
     atom  148 type  2   force =    -0.18057307    0.00953731    0.01138709
     atom  149 type  2   force =    -0.18056673    0.00952934    0.01139389
     atom  150 type  2   force =    -0.18057739    0.00954224    0.01138424
     atom  151 type  2   force =    -0.18057656    0.00954110    0.01138489
     atom  152 type  2   force =    -0.18054429    0.00953768    0.01138444
     atom  153 type  2   force =    -0.03832557   -0.04945247   -0.02159185
     atom  154 type  2   force =    -0.03833870   -0.04943182   -0.02159192
     atom  155 type  2   force =    -0.03833832   -0.04942674   -0.02158933
     atom  156 type  2   force =    -0.03830489   -0.04945840   -0.02159672
     atom  157 type  2   force =    -0.03833582   -0.04943451   -0.02159046
     atom  158 type  2   force =    -0.03833020   -0.04942405   -0.02159143
     atom  159 type  2   force =    -0.03833024   -0.04943630   -0.02159010
     atom  160 type  2   force =    -0.03833516   -0.04943743   -0.02159040
     atom  161 type  3   force =     0.02448953   -0.07095425   -0.00853849
     atom  162 type  3   force =     0.02448910   -0.07095369   -0.00853862
     atom  163 type  3   force =     0.02448911   -0.07095356   -0.00853836
     atom  164 type  3   force =     0.02448958   -0.07095430   -0.00853857
     atom  165 type  3   force =     0.02448916   -0.07095371   -0.00853849
     atom  166 type  3   force =     0.02448921   -0.07095352   -0.00853850
     atom  167 type  3   force =     0.02448920   -0.07095383   -0.00853846
     atom  168 type  3   force =     0.02448916   -0.07095380   -0.00853850
     atom  169 type  2   force =    -0.19564772   -0.10406748   -0.02183278
     atom  170 type  2   force =    -0.19545408   -0.10413781   -0.02182228
     atom  171 type  2   force =    -0.19563920   -0.10407540   -0.02183073
     atom  172 type  2   force =    -0.19565093   -0.10406854   -0.02183099
     atom  173 type  2   force =    -0.19565269   -0.10406457   -0.02183073
     atom  174 type  2   force =    -0.19564600   -0.10406995   -0.02183145
     atom  175 type  2   force =    -0.19564730   -0.10406940   -0.02183097
     atom  176 type  2   force =    -0.19563267   -0.10406586   -0.02183020
     atom  177 type  3   force =    -0.07447313    0.02094776   -0.00102143
     atom  178 type  3   force =    -0.07446872    0.02094172   -0.00102071
     atom  179 type  3   force =    -0.07447293    0.02094765   -0.00102131
     atom  180 type  3   force =    -0.07447322    0.02094775   -0.00102119
     atom  181 type  3   force =    -0.07447327    0.02094777   -0.00102127
     atom  182 type  3   force =    -0.07447309    0.02094774   -0.00102134
     atom  183 type  3   force =    -0.07447311    0.02094776   -0.00102131
     atom  184 type  3   force =    -0.07447278    0.02094777   -0.00102133
     atom  185 type  1   force =    -0.46059584   -0.90171037    0.60854293
     atom  186 type  1   force =    -0.46059045   -0.90168301    0.60845529
     atom  187 type  1   force =    -0.46059816   -0.90171607    0.60854760
     atom  188 type  1   force =    -0.46059927   -0.90172203    0.60855385
     atom  189 type  1   force =    -0.46061979   -0.90178496    0.60857269
     atom  190 type  1   force =    -0.46059609   -0.90170164    0.60853308
     atom  191 type  1   force =    -0.46060058   -0.90170880    0.60854702
     atom  192 type  1   force =    -0.46058571   -0.90173057    0.60855323
     atom  193 type  1   force =     1.81427379   -1.18902228    0.50398924
     atom  194 type  1   force =     1.81422167   -1.18899350    0.50393400
     atom  195 type  1   force =     1.81427949   -1.18902934    0.50399292
     atom  196 type  1   force =     1.81427988   -1.18903056    0.50399506
     atom  197 type  1   force =     1.81429303   -1.18905239    0.50400390
     atom  198 type  1   force =     1.81427557   -1.18902326    0.50398879
     atom  199 type  1   force =     1.81427205   -1.18902268    0.50399068
     atom  200 type  1   force =     1.81429473   -1.18903460    0.50399637
     atom  201 type  2   force =     0.12229016   -0.00072553    0.01060810
     atom  202 type  2   force =     0.12231157   -0.00070024    0.01060970
     atom  203 type  2   force =     0.12229284   -0.00072431    0.01060931
     atom  204 type  2   force =     0.12229033   -0.00072539    0.01060972
     atom  205 type  2   force =     0.12229419   -0.00073191    0.01060846
     atom  206 type  2   force =     0.12229082   -0.00072160    0.01060851
     atom  207 type  2   force =     0.12229161   -0.00072136    0.01060778
     atom  208 type  2   force =     0.12234308   -0.00070980    0.01061236
     atom  209 type  3   force =     0.04392398    0.06010577    0.00989219
     atom  210 type  3   force =     0.04392454    0.06010662    0.00989193
     atom  211 type  3   force =     0.04392401    0.06010581    0.00989228
     atom  212 type  3   force =     0.04392399    0.06010579    0.00989236
     atom  213 type  3   force =     0.04392400    0.06010565    0.00989229
     atom  214 type  3   force =     0.04392398    0.06010591    0.00989229
     atom  215 type  3   force =     0.04392402    0.06010591    0.00989222
     atom  216 type  3   force =     0.04392466    0.06010642    0.00989241
     atom  217 type  1   force =    -0.67099541    1.73657345    0.15449779
     atom  218 type  1   force =    -0.67097936    1.73658659    0.15450043
     atom  219 type  1   force =    -0.67099587    1.73657914    0.15449992
     atom  220 type  1   force =    -0.67099512    1.73657340    0.15450013
     atom  221 type  1   force =    -0.67098751    1.73656293    0.15449889
     atom  222 type  1   force =    -0.67099733    1.73657951    0.15450047
     atom  223 type  1   force =    -0.67099465    1.73657835    0.15449577
     atom  224 type  1   force =    -0.67091048    1.73655888    0.15450534
     atom  225 type  2   force =     0.02521222   -0.04108783   -0.00104281
     atom  226 type  2   force =     0.02520538   -0.04109752   -0.00104350
     atom  227 type  2   force =     0.02522342   -0.04108512   -0.00104370
     atom  228 type  2   force =     0.02521160   -0.04108850   -0.00104321
     atom  229 type  2   force =     0.02486665   -0.04043185   -0.00105899
     atom  230 type  2   force =     0.02521662   -0.04108981   -0.00104565
     atom  231 type  2   force =     0.02521637   -0.04108813   -0.00104218
     atom  232 type  2   force =     0.02521839   -0.04108598   -0.00104357
     atom  233 type  3   force =    -0.05071360   -0.05410618   -0.00605708
     atom  234 type  3   force =    -0.05071382   -0.05410703   -0.00605712
     atom  235 type  3   force =    -0.05071343   -0.05410628   -0.00605701
     atom  236 type  3   force =    -0.05071367   -0.05410629   -0.00605700
     atom  237 type  3   force =    -0.05071320   -0.05410558   -0.00605697
     atom  238 type  3   force =    -0.05071358   -0.05410629   -0.00605706
     atom  239 type  3   force =    -0.05071358   -0.05410623   -0.00605700
     atom  240 type  3   force =    -0.05071336   -0.05410609   -0.00605702
     atom  241 type  1   force =    -0.94525240   -0.42450668    0.55498102
     atom  242 type  1   force =    -0.94541012   -0.42449999    0.55502427
     atom  243 type  1   force =    -0.94527431   -0.42450719    0.55499686
     atom  244 type  1   force =    -0.94527710   -0.42451589    0.55500327
     atom  245 type  1   force =    -0.94528561   -0.42451476    0.55500400
     atom  246 type  1   force =    -0.94527197   -0.42450625    0.55499551
     atom  247 type  1   force =    -0.94528989   -0.42450924    0.55500068
     atom  248 type  1   force =    -0.94526249   -0.42450405    0.55499020
     atom  249 type  1   force =    -0.92016335    1.90167907    0.83649746
     atom  250 type  1   force =    -0.92032295    1.90188599    0.83662535
     atom  251 type  1   force =    -0.92017761    1.90169330    0.83650784
     atom  252 type  1   force =    -0.92017653    1.90168708    0.83650769
     atom  253 type  1   force =    -0.92018219    1.90168994    0.83650925
     atom  254 type  1   force =    -0.92017895    1.90169657    0.83650960
     atom  255 type  1   force =    -0.92018218    1.90169587    0.83650953
     atom  256 type  1   force =    -0.92017758    1.90169488    0.83650787
     atom  257 type  2   force =    -0.04485531   -0.20917202   -0.00802502
     atom  258 type  2   force =    -0.04487611   -0.20919211   -0.00802888
     atom  259 type  2   force =    -0.04486110   -0.20917500   -0.00801921
     atom  260 type  2   force =    -0.04486227   -0.20918016   -0.00801942
     atom  261 type  2   force =    -0.04486790   -0.20917306   -0.00801853
     atom  262 type  2   force =    -0.04486224   -0.20917425   -0.00802089
     atom  263 type  2   force =    -0.04485889   -0.20916534   -0.00802285
     atom  264 type  2   force =    -0.04485934   -0.20917331   -0.00802084
     atom  265 type  2   force =    -0.00953011   -0.18057491   -0.01139192
     atom  266 type  2   force =    -0.00955444   -0.18058132   -0.01138772
     atom  267 type  2   force =    -0.00953887   -0.18057628   -0.01138614
     atom  268 type  2   force =    -0.00954007   -0.18058305   -0.01138700
     atom  269 type  2   force =    -0.00954144   -0.18057689   -0.01138432
     atom  270 type  2   force =    -0.00953786   -0.18057570   -0.01138613
     atom  271 type  2   force =    -0.00954104   -0.18057121   -0.01138566
     atom  272 type  2   force =    -0.00953769   -0.18057476   -0.01138765
     atom  273 type  2   force =     0.04944826   -0.03832468    0.02158354
     atom  274 type  2   force =     0.04942083   -0.03834964    0.02158045
     atom  275 type  2   force =     0.04943753   -0.03833677    0.02159167
     atom  276 type  2   force =     0.04943571   -0.03833825    0.02159020
     atom  277 type  2   force =     0.04942925   -0.03833316    0.02159041
     atom  278 type  2   force =     0.04943202   -0.03833859    0.02158912
     atom  279 type  2   force =     0.04943385   -0.03832819    0.02159185
     atom  280 type  2   force =     0.04944083   -0.03833458    0.02159026
     atom  281 type  3   force =     0.07095408    0.02448948    0.00853790
     atom  282 type  3   force =     0.07095354    0.02448870    0.00853796
     atom  283 type  3   force =     0.07095381    0.02448913    0.00853857
     atom  284 type  3   force =     0.07095380    0.02448912    0.00853852
     atom  285 type  3   force =     0.07095367    0.02448919    0.00853848
     atom  286 type  3   force =     0.07095367    0.02448909    0.00853845
     atom  287 type  3   force =     0.07095383    0.02448926    0.00853857
     atom  288 type  3   force =     0.07095389    0.02448920    0.00853853
     atom  289 type  2   force =     0.10407294   -0.19563886    0.02182874
     atom  290 type  2   force =     0.10406288   -0.19565396    0.02183289
     atom  291 type  2   force =     0.10407189   -0.19564604    0.02183172
     atom  292 type  2   force =     0.10406959   -0.19565167    0.02183175
     atom  293 type  2   force =     0.10405919   -0.19565699    0.02183230
     atom  294 type  2   force =     0.10407041   -0.19565104    0.02183065
     atom  295 type  2   force =     0.10408824   -0.19563191    0.02182387
     atom  296 type  2   force =     0.10407151   -0.19564735    0.02183095
     atom  297 type  3   force =    -0.02094767   -0.07447292    0.00102126
     atom  298 type  3   force =    -0.02094784   -0.07447327    0.00102131
     atom  299 type  3   force =    -0.02094770   -0.07447310    0.00102135
     atom  300 type  3   force =    -0.02094782   -0.07447320    0.00102134
     atom  301 type  3   force =    -0.02094816   -0.07447337    0.00102175
     atom  302 type  3   force =    -0.02094770   -0.07447321    0.00102126
     atom  303 type  3   force =    -0.02094733   -0.07447290    0.00102174
     atom  304 type  3   force =    -0.02094771   -0.07447314    0.00102129
     atom  305 type  1   force =     0.90177220   -0.46062738   -0.60859338
     atom  306 type  1   force =     0.90167678   -0.46057310   -0.60860926
     atom  307 type  1   force =     0.90171432   -0.46059918   -0.60854465
     atom  308 type  1   force =     0.90171747   -0.46060784   -0.60854423
     atom  309 type  1   force =     0.90171007   -0.46060304   -0.60854425
     atom  310 type  1   force =     0.90171596   -0.46059952   -0.60855412
     atom  311 type  1   force =     0.90171340   -0.46059828   -0.60854649
     atom  312 type  1   force =     0.90172444   -0.46060321   -0.60855016
     atom  313 type  1   force =     1.18903326    1.81426072   -0.50399592
     atom  314 type  1   force =     1.18897565    1.81428007   -0.50403015
     atom  315 type  1   force =     1.18902811    1.81427816   -0.50399161
     atom  316 type  1   force =     1.18902475    1.81426841   -0.50398873
     atom  317 type  1   force =     1.18902120    1.81426924   -0.50398927
     atom  318 type  1   force =     1.18902414    1.81427411   -0.50399384
     atom  319 type  1   force =     1.18902375    1.81427346   -0.50398923
     atom  320 type  1   force =     1.18903199    1.81427905   -0.50399342
     atom  321 type  2   force =     0.00073265    0.12229172   -0.01060968
     atom  322 type  2   force =     0.00070477    0.12229217   -0.01060828
     atom  323 type  2   force =     0.00072493    0.12229073   -0.01060841
     atom  324 type  2   force =     0.00072559    0.12228817   -0.01060798
     atom  325 type  2   force =     0.00072148    0.12228946   -0.01060777
     atom  326 type  2   force =     0.00072473    0.12229072   -0.01060931
     atom  327 type  2   force =     0.00069827    0.12233063   -0.01063936
     atom  328 type  2   force =     0.00072890    0.12228848   -0.01060935
     atom  329 type  3   force =    -0.06010560    0.04392394   -0.00989233
     atom  330 type  3   force =    -0.06010630    0.04392411   -0.00989211
     atom  331 type  3   force =    -0.06010579    0.04392398   -0.00989228
     atom  332 type  3   force =    -0.06010580    0.04392385   -0.00989227
     atom  333 type  3   force =    -0.06010592    0.04392399   -0.00989221
     atom  334 type  3   force =    -0.06010578    0.04392396   -0.00989230
     atom  335 type  3   force =    -0.06010648    0.04392428   -0.00989336
     atom  336 type  3   force =    -0.06010567    0.04392393   -0.00989238
     atom  337 type  1   force =    -1.73656183   -0.67098826   -0.15450126
     atom  338 type  1   force =    -1.73659870   -0.67100212   -0.15449725
     atom  339 type  1   force =    -1.73657188   -0.67099447   -0.15449841
     atom  340 type  1   force =    -1.73658102   -0.67099997   -0.15449922
     atom  341 type  1   force =    -1.73659180   -0.67100303   -0.15449508
     atom  342 type  1   force =    -1.73657393   -0.67099668   -0.15450039
     atom  343 type  1   force =    -1.73641077   -0.67091847   -0.15447584
     atom  344 type  1   force =    -1.73656976   -0.67099580   -0.15450083
     atom  345 type  2   force =     0.04106709    0.02519930    0.00108776
     atom  346 type  2   force =     0.04109227    0.02520927    0.00104077
     atom  347 type  2   force =     0.04109607    0.02520990    0.00104868
     atom  348 type  2   force =     0.04108948    0.02521251    0.00104296
     atom  349 type  2   force =     0.04108991    0.02521745    0.00104583
     atom  350 type  2   force =     0.04108731    0.02520630    0.00104248
     atom  351 type  2   force =     0.04109186    0.02521490    0.00104375
     atom  352 type  2   force =     0.04108696    0.02521488    0.00104411
     atom  353 type  3   force =     0.05410587   -0.05071326    0.00605691
     atom  354 type  3   force =     0.05410626   -0.05071373    0.00605696
     atom  355 type  3   force =     0.05410641   -0.05071366    0.00605709
     atom  356 type  3   force =     0.05410631   -0.05071364    0.00605705
     atom  357 type  3   force =     0.05410606   -0.05071314    0.00605660
     atom  358 type  3   force =     0.05410631   -0.05071368    0.00605701
     atom  359 type  3   force =     0.05410638   -0.05071343    0.00605711
     atom  360 type  3   force =     0.05410634   -0.05071361    0.00605703
     atom  361 type  1   force =     0.94528407    0.42450853    0.55499785
     atom  362 type  1   force =     0.94531043    0.42452899    0.55503615
     atom  363 type  1   force =     0.94527800    0.42450944    0.55499718
     atom  364 type  1   force =     0.94528520    0.42449470    0.55500182
     atom  365 type  1   force =     0.94528271    0.42450545    0.55500389
     atom  366 type  1   force =     0.94528069    0.42451015    0.55499834
     atom  367 type  1   force =     0.94522765    0.42449038    0.55498776
     atom  368 type  1   force =     0.94529062    0.42451507    0.55499972
     atom  369 type  1   force =     0.92017949   -1.90169270    0.83650816
     atom  370 type  1   force =     0.92018079   -1.90170789    0.83651222
     atom  371 type  1   force =     0.92018162   -1.90169635    0.83650959
     atom  372 type  1   force =     0.92018492   -1.90168047    0.83650825
     atom  373 type  1   force =     0.92014219   -1.90166337    0.83649486
     atom  374 type  1   force =     0.92018071   -1.90168994    0.83650578
     atom  375 type  1   force =     0.92018441   -1.90170277    0.83651369
     atom  376 type  1   force =     0.92018168   -1.90169530    0.83650912
     atom  377 type  2   force =     0.04486421    0.20917196   -0.00802105
     atom  378 type  2   force =     0.04485364    0.20915138   -0.00802154
     atom  379 type  2   force =     0.04486482    0.20917355   -0.00802085
     atom  380 type  2   force =     0.04486677    0.20917569   -0.00801265
     atom  381 type  2   force =     0.04485642    0.20916079   -0.00802012
     atom  382 type  2   force =     0.04486613    0.20918358   -0.00802144
     atom  383 type  2   force =     0.04486223    0.20917282   -0.00801953
     atom  384 type  2   force =     0.04486520    0.20917546   -0.00801976
     atom  385 type  2   force =     0.00953905    0.18057449   -0.01138607
     atom  386 type  2   force =     0.00953556    0.18054998   -0.01138542
     atom  387 type  2   force =     0.00954022    0.18057542   -0.01138494
     atom  388 type  2   force =     0.00954573    0.18057911   -0.01138285
     atom  389 type  2   force =     0.00952320    0.18055649   -0.01139302
     atom  390 type  2   force =     0.00954144    0.18058526   -0.01138566
     atom  391 type  2   force =     0.00954116    0.18057318   -0.01138477
     atom  392 type  2   force =     0.00954039    0.18057836   -0.01138523
     atom  393 type  2   force =    -0.04943494    0.03833333    0.02158976
     atom  394 type  2   force =    -0.04945940    0.03832009    0.02159235
     atom  395 type  2   force =    -0.04943276    0.03833521    0.02159000
     atom  396 type  2   force =    -0.04942473    0.03833754    0.02159415
     atom  397 type  2   force =    -0.04943834    0.03832828    0.02159007
     atom  398 type  2   force =    -0.04943131    0.03834281    0.02159203
     atom  399 type  2   force =    -0.04943346    0.03833606    0.02159062
     atom  400 type  2   force =    -0.04942867    0.03833779    0.02159093
     atom  401 type  3   force =    -0.07095378   -0.02448919    0.00853849
     atom  402 type  3   force =    -0.07095440   -0.02448952    0.00853848
     atom  403 type  3   force =    -0.07095369   -0.02448917    0.00853850
     atom  404 type  3   force =    -0.07095350   -0.02448910    0.00853859
     atom  405 type  3   force =    -0.07095383   -0.02448936    0.00853838
     atom  406 type  3   force =    -0.07095353   -0.02448873    0.00853869
     atom  407 type  3   force =    -0.07095370   -0.02448914    0.00853850
     atom  408 type  3   force =    -0.07095362   -0.02448911    0.00853857
     atom  409 type  2   force =    -0.10407807    0.19560627    0.02184264
     atom  410 type  2   force =    -0.10406806    0.19564246    0.02182981
     atom  411 type  2   force =    -0.10406853    0.19563923    0.02183368
     atom  412 type  2   force =    -0.10406885    0.19564439    0.02183101
     atom  413 type  2   force =    -0.10406763    0.19564965    0.02183192
     atom  414 type  2   force =    -0.10407375    0.19563885    0.02183026
     atom  415 type  2   force =    -0.10406667    0.19565162    0.02183153
     atom  416 type  2   force =    -0.10406989    0.19564773    0.02183180
     atom  417 type  3   force =     0.02094722    0.07447274    0.00102413
     atom  418 type  3   force =     0.02094783    0.07447300    0.00102118
     atom  419 type  3   force =     0.02094774    0.07447294    0.00102149
     atom  420 type  3   force =     0.02094776    0.07447304    0.00102132
     atom  421 type  3   force =     0.02094779    0.07447317    0.00102131
     atom  422 type  3   force =     0.02094768    0.07447287    0.00102131
     atom  423 type  3   force =     0.02094785    0.07447317    0.00102129
     atom  424 type  3   force =     0.02094765    0.07447316    0.00102138
     atom  425 type  1   force =    -0.90171662    0.46060244   -0.60854802
     atom  426 type  1   force =    -0.90174688    0.46059568   -0.60856362
     atom  427 type  1   force =    -0.90171048    0.46059883   -0.60854372
     atom  428 type  1   force =    -0.90169287    0.46060007   -0.60853300
     atom  429 type  1   force =    -0.90175200    0.46061495   -0.60860090
     atom  430 type  1   force =    -0.90170206    0.46059909   -0.60855880
     atom  431 type  1   force =    -0.90170661    0.46059467   -0.60853959
     atom  432 type  1   force =    -0.90170368    0.46059787   -0.60853884
     atom  433 type  1   force =    -1.18902716   -1.81427507   -0.50399140
     atom  434 type  1   force =    -1.18903583   -1.81428739   -0.50399649
     atom  435 type  1   force =    -1.18902274   -1.81427235   -0.50398968
     atom  436 type  1   force =    -1.18901322   -1.81426535   -0.50398650
     atom  437 type  1   force =    -1.18905376   -1.81431158   -0.50403228
     atom  438 type  1   force =    -1.18902252   -1.81427308   -0.50399325
     atom  439 type  1   force =    -1.18902328   -1.81427561   -0.50398919
     atom  440 type  1   force =    -1.18902482   -1.81427587   -0.50399061
     atom  441 type  2   force =    -0.00072190   -0.12229342   -0.01060924
     atom  442 type  2   force =    -0.00072139   -0.12231513   -0.01060858
     atom  443 type  2   force =    -0.00071801   -0.12229616   -0.01061021
     atom  444 type  2   force =    -0.00073025   -0.12228780   -0.01060206
     atom  445 type  2   force =    -0.00073257   -0.12229445   -0.01060834
     atom  446 type  2   force =    -0.00071948   -0.12228909   -0.01060883
     atom  447 type  2   force =    -0.00072423   -0.12229139   -0.01060851
     atom  448 type  2   force =    -0.00072032   -0.12229199   -0.01060975
     atom  449 type  3   force =     0.06010600   -0.04392406   -0.00989232
     atom  450 type  3   force =     0.06010559   -0.04392382   -0.00989181
     atom  451 type  3   force =     0.06010590   -0.04392403   -0.00989233
     atom  452 type  3   force =     0.06010599   -0.04392440   -0.00989203
     atom  453 type  3   force =     0.06010580   -0.04392401   -0.00989225
     atom  454 type  3   force =     0.06010595   -0.04392397   -0.00989237
     atom  455 type  3   force =     0.06010565   -0.04392395   -0.00989215
     atom  456 type  3   force =     0.06010594   -0.04392394   -0.00989230
     atom  457 type  1   force =     1.73658102    0.67099236   -0.15450116
     atom  458 type  1   force =     1.73657964    0.67099297   -0.15448350
     atom  459 type  1   force =     1.73658078    0.67099323   -0.15450041
     atom  460 type  1   force =     1.73657426    0.67096845   -0.15446052
     atom  461 type  1   force =     1.73656999    0.67099372   -0.15449815
     atom  462 type  1   force =     1.73658854    0.67099952   -0.15450164
     atom  463 type  1   force =     1.73656312    0.67098739   -0.15449905
     atom  464 type  1   force =     1.73658236    0.67099890   -0.15449929
     atom  465 type  2   force =    -0.04109499   -0.02519824    0.00103770
     atom  466 type  2   force =    -0.04109185   -0.02522488    0.00104222
     atom  467 type  2   force =    -0.04108312   -0.02521690    0.00104488
     atom  468 type  2   force =    -0.04108664   -0.02521696    0.00104386
     atom  469 type  2   force =    -0.04110524   -0.02520359    0.00103616
     atom  470 type  2   force =    -0.04108581   -0.02521732    0.00104241
     atom  471 type  2   force =    -0.04107385   -0.02520471    0.00104416
     atom  472 type  2   force =    -0.04108509   -0.02521433    0.00104296
     atom  473 type  3   force =    -0.05410692    0.05071378    0.00605751
     atom  474 type  3   force =    -0.05410620    0.05071346    0.00605694
     atom  475 type  3   force =    -0.05410603    0.05071344    0.00605710
     atom  476 type  3   force =    -0.05410620    0.05071352    0.00605701
     atom  477 type  3   force =    -0.05410619    0.05071360    0.00605698
     atom  478 type  3   force =    -0.05410622    0.05071341    0.00605697
     atom  479 type  3   force =    -0.05410617    0.05071359    0.00605705
     atom  480 type  3   force =    -0.05410625    0.05071364    0.00605706
     atom  481 type  4   force =     0.00003485   -0.00000546   -0.00003506
     atom  482 type  4   force =    -0.00015619    0.00020025    0.00035233
     atom  483 type  4   force =     0.00000856   -0.00001144   -0.00000226
     atom  484 type  4   force =     0.00001051   -0.00001780    0.00003415
     atom  485 type  4   force =    -0.00000168   -0.00003995    0.00003175
     atom  486 type  4   force =     0.00001029    0.00000866   -0.00000979
     atom  487 type  4   force =    -0.00005338   -0.00000069   -0.00003443
     atom  488 type  4   force =     0.00003593    0.00004975   -0.00000740
     atom  489 type  4   force =     0.00001038   -0.00031844   -0.00019590
     atom  490 type  4   force =     0.00003302   -0.00000927   -0.00007378
     atom  491 type  4   force =     0.00001294    0.00001330    0.00001591
     atom  492 type  4   force =     0.00002013   -0.00003364    0.00001768
     atom  493 type  4   force =    -0.00000774    0.00000863   -0.00000556
     atom  494 type  4   force =    -0.00002839    0.00008062   -0.00007463
     atom  495 type  4   force =     0.00000600   -0.00000059    0.00000624
     atom  496 type  4   force =     0.00003282   -0.00001006    0.00001969
     The ionic contribution  to forces
     atom    1 type  1   force =    -0.12051535   -1.15041232   -2.54563412
     atom    2 type  1   force =    -0.12286723   -1.15191689   -2.55048704
     atom    3 type  1   force =    -0.12041927   -1.15055026   -2.54589404
     atom    4 type  1   force =    -0.12026268   -1.15075494   -2.54605500
     atom    5 type  1   force =    -0.12030608   -1.15044796   -2.54599741
     atom    6 type  1   force =    -0.12043949   -1.15078166   -2.54588420
     atom    7 type  1   force =    -0.12018685   -1.15042873   -2.54577542
     atom    8 type  1   force =    -0.12074525   -1.15077498   -2.54605315
     atom    9 type  1   force =    14.27202393    1.63955206    2.01117305
     atom   10 type  1   force =    14.27339963    1.63994198    2.01293468
     atom   11 type  1   force =    14.27357646    1.63952625    2.01257448
     atom   12 type  1   force =    14.27339197    1.63986477    2.01262594
     atom   13 type  1   force =    14.27340776    1.63962380    2.01261980
     atom   14 type  1   force =    14.27351078    1.63987162    2.01256338
     atom   15 type  1   force =    14.27293980    1.63941299    2.01238945
     atom   16 type  1   force =    14.27354858    1.63997494    2.01279365
     atom   17 type  2   force =    -2.69367477   -1.08243322   -0.90776185
     atom   18 type  2   force =    -2.68756051   -1.12147194   -0.87790140
     atom   19 type  2   force =    -2.68730472   -1.12170812   -0.87826362
     atom   20 type  2   force =    -2.68740102   -1.12162003   -0.87813101
     atom   21 type  2   force =    -2.68745374   -1.12180410   -0.87808736
     atom   22 type  2   force =    -2.68729946   -1.12145696   -0.87824336
     atom   23 type  2   force =    -2.68753629   -1.12170509   -0.87823027
     atom   24 type  2   force =    -2.68721129   -1.12158039   -0.87810312
     atom   25 type  2   force =    -5.26251164   -0.25630676   -0.97137965
     atom   26 type  2   force =    -5.25586880   -0.26013927   -0.96553163
     atom   27 type  2   force =    -5.25562328   -0.26041366   -0.96590845
     atom   28 type  2   force =    -5.25575694   -0.26026668   -0.96580976
     atom   29 type  2   force =    -5.25578403   -0.26044445   -0.96578538
     atom   30 type  2   force =    -5.25563475   -0.26016232   -0.96590630
     atom   31 type  2   force =    -5.25589699   -0.26041586   -0.96592518
     atom   32 type  2   force =    -5.25558821   -0.26022497   -0.96576637
     atom   33 type  2   force =    -3.27871437   -5.22885799    2.50223314
     atom   34 type  2   force =    -3.27852528   -5.22842231    2.50199091
     atom   35 type  2   force =    -3.27875846   -5.22872532    2.50204184
     atom   36 type  2   force =    -3.27843212   -5.22864935    2.50216443
     atom   37 type  2   force =    -3.27406381   -5.22483645    2.49665748
     atom   38 type  2   force =    -3.27878562   -5.22855796    2.50233212
     atom   39 type  2   force =    -3.27853321   -5.22874433    2.50200905
     atom   40 type  2   force =    -3.27863326   -5.22867485    2.50212471
     atom   41 type  3   force =    -0.74077002   -2.14443551    1.26075085
     atom   42 type  3   force =    -0.74069718   -2.14430877    1.26066834
     atom   43 type  3   force =    -0.74076341   -2.14441029    1.26069763
     atom   44 type  3   force =    -0.74069475   -2.14439760    1.26071829
     atom   45 type  3   force =    -0.74043833   -2.14391804    1.26021942
     atom   46 type  3   force =    -0.74077673   -2.14438275    1.26076811
     atom   47 type  3   force =    -0.74070648   -2.14441836    1.26069173
     atom   48 type  3   force =    -0.74074482   -2.14439839    1.26071251
     atom   49 type  2   force =    -6.17637772   -1.54864227    0.63343502
     atom   50 type  2   force =    -6.17630599   -1.54827440    0.63329315
     atom   51 type  2   force =    -6.17657710   -1.54850826    0.63324191
     atom   52 type  2   force =    -6.17616643   -1.54835721    0.63347980
     atom   53 type  2   force =    -6.18006946   -1.55530875    0.62826667
     atom   54 type  2   force =    -6.17647233   -1.54826051    0.63357811
     atom   55 type  2   force =    -6.17629010   -1.54850724    0.63326297
     atom   56 type  2   force =    -6.17634283   -1.54842465    0.63337603
     atom   57 type  3   force =    -1.97453575    0.04597245    0.18333368
     atom   58 type  3   force =    -1.97452940    0.04605514    0.18330834
     atom   59 type  3   force =    -1.97461696    0.04599478    0.18327447
     atom   60 type  3   force =    -1.97449989    0.04604952    0.18336100
     atom   61 type  3   force =    -1.97511949    0.04552654    0.18288773
     atom   62 type  3   force =    -1.97455473    0.04606851    0.18337689
     atom   63 type  3   force =    -1.97452281    0.04599959    0.18330254
     atom   64 type  3   force =    -1.97453377    0.04602892    0.18332206
     atom   65 type  1   force =    -0.87658680    0.57645171    1.98529290
     atom   66 type  1   force =    -0.87377900    0.57418097    1.98703553
     atom   67 type  1   force =    -0.87346826    0.57382590    1.98650207
     atom   68 type  1   force =    -0.87368563    0.57406258    1.98648881
     atom   69 type  1   force =    -0.87367866    0.57387451    1.98653164
     atom   70 type  1   force =    -0.87347513    0.57410672    1.98637525
     atom   71 type  1   force =    -0.87375641    0.57381491    1.98634735
     atom   72 type  1   force =    -0.87351351    0.57406422    1.98654904
     atom   73 type  1   force =    14.19058282   -5.31410213    0.05231511
     atom   74 type  1   force =    14.19221030   -5.31449699    0.05367495
     atom   75 type  1   force =    14.19237523   -5.31492087    0.05325581
     atom   76 type  1   force =    14.19215474   -5.31455634    0.05316685
     atom   77 type  1   force =    14.19219604   -5.31478448    0.05318282
     atom   78 type  1   force =    14.19232931   -5.31460781    0.05311259
     atom   79 type  1   force =    14.19201744   -5.31501595    0.05292334
     atom   80 type  1   force =    14.19228459   -5.31455209    0.05328903
     atom   81 type  2   force =    -0.14885435    2.72876921   -3.46048585
     atom   82 type  2   force =    -0.21557935    2.77202352   -3.53134590
     atom   83 type  2   force =    -0.21533730    2.77178147   -3.53170200
     atom   84 type  2   force =    -0.21541099    2.77185516   -3.53155708
     atom   85 type  2   force =    -0.21546031    2.77166243   -3.53152395
     atom   86 type  2   force =    -0.21533361    2.77201011   -3.53166254
     atom   87 type  2   force =    -0.21556594    2.77177778   -3.53166254
     atom   88 type  2   force =    -0.21521826    2.77190447   -3.53152395
     atom   89 type  3   force =     0.26878541    1.65187607   -1.78760168
     atom   90 type  3   force =     0.27798320    1.64273555   -1.80007639
     atom   91 type  3   force =     0.26882611    1.65183541   -1.78765263
     atom   92 type  3   force =     0.26884360    1.65181781   -1.78768737
     atom   93 type  3   force =     0.26884386    1.65187803   -1.78767898
     atom   94 type  3   force =     0.26881259    1.65178559   -1.78764025
     atom   95 type  3   force =     0.26887450    1.65184759   -1.78764150
     atom   96 type  3   force =     0.26878555    1.65181794   -1.78767904
     atom   97 type  1   force =    -5.25717170    6.86298906   -1.77916435
     atom   98 type  1   force =    -5.32186573    6.85509171   -1.81439007
     atom   99 type  1   force =    -5.25698242    6.86278098   -1.77944744
     atom  100 type  1   force =    -5.25688364    6.86266868   -1.77961188
     atom  101 type  1   force =    -5.25688719    6.86295287   -1.77956899
     atom  102 type  1   force =    -5.25703167    6.86253892   -1.77941023
     atom  103 type  1   force =    -5.25675383    6.86284807   -1.77938740
     atom  104 type  1   force =    -5.25719396    6.86266059   -1.77959087
     atom  105 type  2   force =     5.12449831    4.86160893    1.84026799
     atom  106 type  2   force =     5.12402983    4.86233063    1.83944517
     atom  107 type  2   force =     5.12441052    4.86174898    1.83969689
     atom  108 type  2   force =     5.12472744    4.86150197    1.83993619
     atom  109 type  2   force =     5.12474666    4.86163368    1.83957883
     atom  110 type  2   force =     5.12449074    4.86162687    1.83979381
     atom  111 type  2   force =     5.12457888    4.86166750    1.83975885
     atom  112 type  2   force =     5.12454972    4.86152301    1.83965591
     atom  113 type  3   force =    -1.67847584   -1.91365212    0.71627711
     atom  114 type  3   force =    -1.67846504   -1.91351442    0.71619047
     atom  115 type  3   force =    -1.67851558   -1.91358797    0.71619041
     atom  116 type  3   force =    -1.67840830   -1.91358481    0.71625973
     atom  117 type  3   force =    -1.67823914   -1.91380250    0.71592282
     atom  118 type  3   force =    -1.67848641   -1.91356436    0.71625282
     atom  119 type  3   force =    -1.67844927   -1.91360147    0.71619812
     atom  120 type  3   force =    -1.67845627   -1.91359419    0.71621576
     atom  121 type  1   force =     0.12013744    1.15075827   -2.54572646
     atom  122 type  1   force =     0.12278698    1.15083685   -2.54721644
     atom  123 type  1   force =     0.12033129    1.15061844   -2.54592174
     atom  124 type  1   force =     0.12040823    1.15061959   -2.54602561
     atom  125 type  1   force =     0.12036442    1.15094315   -2.54612052
     atom  126 type  1   force =     0.12027658    1.15045762   -2.54573177
     atom  127 type  1   force =     0.12072802    1.15069355   -2.54568420
     atom  128 type  1   force =     0.12003918    1.15067423   -2.54598920
     atom  129 type  1   force =   -14.27374575   -1.63963050    2.01288928
     atom  130 type  1   force =   -14.27083036   -1.63704854    2.01153623
     atom  131 type  1   force =   -14.27351261   -1.63974429    2.01262141
     atom  132 type  1   force =   -14.27338624   -1.63975718    2.01253245
     atom  133 type  1   force =   -14.27337263   -1.63936463    2.01235401
     atom  134 type  1   force =   -14.27358850   -1.63987467    2.01280747
     atom  135 type  1   force =   -14.27317116   -1.63973296    2.01270401
     atom  136 type  1   force =   -14.27366926   -1.63972616    2.01257013
     atom  137 type  2   force =     2.68730056    1.12174545   -0.87808531
     atom  138 type  2   force =     2.68751061    1.12134919   -0.87850780
     atom  139 type  2   force =     2.68739962    1.12164527   -0.87821288
     atom  140 type  2   force =     2.68734910    1.12165073   -0.87819079
     atom  141 type  2   force =     2.68723353    1.12190262   -0.87825933
     atom  142 type  2   force =     2.68739985    1.12146282   -0.87789526
     atom  143 type  2   force =     2.68752285    1.12170138   -0.87775390
     atom  144 type  2   force =     2.68692206    1.12186111   -0.87833229
     atom  145 type  2   force =     5.25558348    0.26040567   -0.96571875
     atom  146 type  2   force =     5.25632937    0.26011000   -0.96643606
     atom  147 type  2   force =     5.25569935    0.26030442   -0.96585447
     atom  148 type  2   force =     5.25572569    0.26032361   -0.96588349
     atom  149 type  2   force =     5.25561550    0.26067681   -0.96599542
     atom  150 type  2   force =     5.25564475    0.26015686   -0.96555411
     atom  151 type  2   force =     5.25594646    0.26033299   -0.96557416
     atom  152 type  2   force =     5.25543297    0.26041293   -0.96591463
     atom  153 type  2   force =     3.27838591    5.22892750    2.50198390
     atom  154 type  2   force =     3.27869532    5.22857425    2.50241384
     atom  155 type  2   force =     3.27868815    5.22864115    2.50259331
     atom  156 type  2   force =     3.27821000    5.22904771    2.50194045
     atom  157 type  2   force =     3.27855781    5.22874897    2.50212714
     atom  158 type  2   force =     3.27867414    5.22858198    2.50194310
     atom  159 type  2   force =     3.27868195    5.22864112    2.50197948
     atom  160 type  2   force =     3.27855555    5.22872621    2.50211204
     atom  161 type  3   force =     0.74064795    2.14447912    1.26065550
     atom  162 type  3   force =     0.74074704    2.14439451    1.26080261
     atom  163 type  3   force =     0.74076588    2.14436086    1.26081196
     atom  164 type  3   force =     0.74067082    2.14446968    1.26068833
     atom  165 type  3   force =     0.74071743    2.14440891    1.26071200
     atom  166 type  3   force =     0.74075828    2.14439681    1.26067937
     atom  167 type  3   force =     0.74074190    2.14436782    1.26067054
     atom  168 type  3   force =     0.74072397    2.14442061    1.26071579
     atom  169 type  2   force =     6.17620953    1.54858321    0.63380694
     atom  170 type  2   force =     6.17494773    1.54975070    0.63260938
     atom  171 type  2   force =     6.17623027    1.54855451    0.63333935
     atom  172 type  2   force =     6.17645461    1.54832236    0.63341000
     atom  173 type  2   force =     6.17644473    1.54855344    0.63324589
     atom  174 type  2   force =     6.17625221    1.54840798    0.63338405
     atom  175 type  2   force =     6.17637128    1.54853495    0.63338981
     atom  176 type  2   force =     6.17622288    1.54832559    0.63323594
     atom  177 type  3   force =     1.97448419   -0.04598166    0.18341627
     atom  178 type  3   force =     1.97400114   -0.04520783    0.18294940
     atom  179 type  3   force =     1.97451215   -0.04600133    0.18332073
     atom  180 type  3   force =     1.97455843   -0.04604084    0.18331500
     atom  181 type  3   force =     1.97456170   -0.04597712    0.18328950
     atom  182 type  3   force =     1.97450783   -0.04603659    0.18333387
     atom  183 type  3   force =     1.97455297   -0.04600087    0.18332711
     atom  184 type  3   force =     1.97449942   -0.04603767    0.18329928
     atom  185 type  1   force =     0.87343888   -0.57390803    1.98663532
     atom  186 type  1   force =     0.87424199   -0.57388887    1.98587786
     atom  187 type  1   force =     0.87356135   -0.57399628    1.98646100
     atom  188 type  1   force =     0.87364824   -0.57396401    1.98644020
     atom  189 type  1   force =     0.87342703   -0.57314113    1.98620267
     atom  190 type  1   force =     0.87340214   -0.57412437    1.98697809
     atom  191 type  1   force =     0.87382935   -0.57400972    1.98665616
     atom  192 type  1   force =     0.87338630   -0.57389028    1.98642432
     atom  193 type  1   force =   -14.19247718    5.31475029    0.05341635
     atom  194 type  1   force =   -14.19123755    5.31567386    0.05228178
     atom  195 type  1   force =   -14.19231936    5.31469766    0.05317470
     atom  196 type  1   force =   -14.19215023    5.31468584    0.05312768
     atom  197 type  1   force =   -14.19214103    5.31543558    0.05280921
     atom  198 type  1   force =   -14.19245242    5.31459384    0.05349347
     atom  199 type  1   force =   -14.19202264    5.31467990    0.05324937
     atom  200 type  1   force =   -14.19241902    5.31473022    0.05314472
     atom  201 type  2   force =     0.21535561   -2.77168868   -3.53148232
     atom  202 type  2   force =     0.21521423   -2.77228719   -3.53198174
     atom  203 type  2   force =     0.21541663   -2.77178265   -3.53162579
     atom  204 type  2   force =     0.21536459   -2.77187119   -3.53162317
     atom  205 type  2   force =     0.21530923   -2.77166241   -3.53163144
     atom  206 type  2   force =     0.21544040   -2.77202852   -3.53146849
     atom  207 type  2   force =     0.21545813   -2.77167724   -3.53122405
     atom  208 type  2   force =     0.21464728   -2.77166149   -3.53192759
     atom  209 type  3   force =    -0.26884449   -1.65178359   -1.78761893
     atom  210 type  3   force =    -0.26898029   -1.65203881   -1.78782917
     atom  211 type  3   force =    -0.26883081   -1.65181542   -1.78766331
     atom  212 type  3   force =    -0.26883230   -1.65184395   -1.78767245
     atom  213 type  3   force =    -0.26884231   -1.65178946   -1.78766938
     atom  214 type  3   force =    -0.26882763   -1.65187805   -1.78764094
     atom  215 type  3   force =    -0.26880953   -1.65178996   -1.78759483
     atom  216 type  3   force =    -0.26897500   -1.65183486   -1.78773341
     atom  217 type  1   force =     5.25698907   -6.86258301   -1.77937460
     atom  218 type  1   force =     5.25668934   -6.86303686   -1.77974813
     atom  219 type  1   force =     5.25701733   -6.86263275   -1.77955408
     atom  220 type  1   force =     5.25689560   -6.86282845   -1.77948631
     atom  221 type  1   force =     5.25686129   -6.86260074   -1.77949928
     atom  222 type  1   force =     5.25705931   -6.86293680   -1.77944060
     atom  223 type  1   force =     5.25689331   -6.86250986   -1.77900295
     atom  224 type  1   force =     5.25499839   -6.86214004   -1.78043732
     atom  225 type  2   force =    -5.12465613   -4.86182073    1.83990791
     atom  226 type  2   force =    -5.12455578   -4.86135719    1.83966437
     atom  227 type  2   force =    -5.12478646   -4.86162870    1.83966713
     atom  228 type  2   force =    -5.12438644   -4.86155560    1.83987737
     atom  229 type  2   force =    -5.12201488   -4.86383209    1.83645071
     atom  230 type  2   force =    -5.12472620   -4.86146383    1.83994408
     atom  231 type  2   force =    -5.12453426   -4.86165254    1.83966380
     atom  232 type  2   force =    -5.12458604   -4.86160148    1.83977081
     atom  233 type  3   force =     1.67842153    1.91357247    0.71633203
     atom  234 type  3   force =     1.67838228    1.91377542    0.71615288
     atom  235 type  3   force =     1.67841174    1.91361880    0.71620096
     atom  236 type  3   force =     1.67849900    1.91358034    0.71625563
     atom  237 type  3   force =     1.67853602    1.91359803    0.71613598
     atom  238 type  3   force =     1.67842841    1.91360427    0.71623605
     atom  239 type  3   force =     1.67846107    1.91360080    0.71620948
     atom  240 type  3   force =     1.67844914    1.91358484    0.71620353
     atom  241 type  1   force =    -1.15099142    0.12063282    2.54620980
     atom  242 type  1   force =    -1.14734972    0.12021496    2.54978065
     atom  243 type  1   force =    -1.15065628    0.12036419    2.54609301
     atom  244 type  1   force =    -1.15062337    0.12041276    2.54577282
     atom  245 type  1   force =    -1.15057871    0.12051193    2.54591708
     atom  246 type  1   force =    -1.15069617    0.12020995    2.54601244
     atom  247 type  1   force =    -1.15026984    0.12047538    2.54600368
     atom  248 type  1   force =    -1.15084284    0.12035008    2.54599157
     atom  249 type  1   force =     1.63945735  -14.27316098   -2.01235639
     atom  250 type  1   force =     1.64202688  -14.27599515   -2.00934910
     atom  251 type  1   force =     1.63972111  -14.27342910   -2.01242803
     atom  252 type  1   force =     1.63971854  -14.27343495   -2.01283642
     atom  253 type  1   force =     1.63978763  -14.27326440   -2.01257487
     atom  254 type  1   force =     1.63963135  -14.27370356   -2.01254342
     atom  255 type  1   force =     1.63997418  -14.27334893   -2.01254356
     atom  256 type  1   force =     1.63956177  -14.27350051   -2.01258139
     atom  257 type  2   force =    -1.12232187    2.68754156    0.87848249
     atom  258 type  2   force =    -1.12123231    2.68828559    0.87931143
     atom  259 type  2   force =    -1.12167847    2.68731466    0.87825067
     atom  260 type  2   force =    -1.12165014    2.68742955    0.87814329
     atom  261 type  2   force =    -1.12159921    2.68737692    0.87808599
     atom  262 type  2   force =    -1.12168423    2.68734454    0.87823177
     atom  263 type  2   force =    -1.12138774    2.68724599    0.87803098
     atom  264 type  2   force =    -1.12175045    2.68740841    0.87825264
     atom  265 type  2   force =    -0.26080808    5.25601769    0.96610841
     atom  266 type  2   force =    -0.25967319    5.25643038    0.96825199
     atom  267 type  2   force =    -0.26033097    5.25568155    0.96595641
     atom  268 type  2   force =    -0.26034427    5.25576997    0.96576357
     atom  269 type  2   force =    -0.26029288    5.25577588    0.96581645
     atom  270 type  2   force =    -0.26034528    5.25562109    0.96587264
     atom  271 type  2   force =    -0.26008685    5.25569589    0.96580245
     atom  272 type  2   force =    -0.26043281    5.25571897    0.96588875
     atom  273 type  2   force =    -5.22975460    3.27869472   -2.50141706
     atom  274 type  2   force =    -5.22873555    3.27947897   -2.50133794
     atom  275 type  2   force =    -5.22873070    3.27855876   -2.50205846
     atom  276 type  2   force =    -5.22868179    3.27863710   -2.50207135
     atom  277 type  2   force =    -5.22862112    3.27851827   -2.50219121
     atom  278 type  2   force =    -5.22872942    3.27862550   -2.50203357
     atom  279 type  2   force =    -5.22862635    3.27848528   -2.50223098
     atom  280 type  2   force =    -5.22873357    3.27863369   -2.50201824
     atom  281 type  3   force =    -2.14471454    0.74083500   -1.26039765
     atom  282 type  3   force =    -2.14450170    0.74094837   -1.26050287
     atom  283 type  3   force =    -2.14441066    0.74072701   -1.26070270
     atom  284 type  3   force =    -2.14440253    0.74073553   -1.26069726
     atom  285 type  3   force =    -2.14439317    0.74071215   -1.26071978
     atom  286 type  3   force =    -2.14440717    0.74073770   -1.26069954
     atom  287 type  3   force =    -2.14440176    0.74071597   -1.26072295
     atom  288 type  3   force =    -2.14440364    0.74073387   -1.26069745
     atom  289 type  2   force =    -1.54897648    6.17610703   -0.63316553
     atom  290 type  2   force =    -1.54828668    6.17675517   -0.63311757
     atom  291 type  2   force =    -1.54853018    6.17625434   -0.63331394
     atom  292 type  2   force =    -1.54840012    6.17640414   -0.63332176
     atom  293 type  2   force =    -1.54825764    6.17610704   -0.63359589
     atom  294 type  2   force =    -1.54853188    6.17640188   -0.63322820
     atom  295 type  2   force =    -1.54831492    6.17607521   -0.63377011
     atom  296 type  2   force =    -1.54852775    6.17640715   -0.63319808
     atom  297 type  3   force =     0.04592883    1.97446822   -0.18329156
     atom  298 type  3   force =     0.04604654    1.97460551   -0.18328532
     atom  299 type  3   force =     0.04599233    1.97451220   -0.18331064
     atom  300 type  3   force =     0.04603858    1.97455417   -0.18330955
     atom  301 type  3   force =     0.04610319    1.97442070   -0.18338860
     atom  302 type  3   force =     0.04599225    1.97455869   -0.18328427
     atom  303 type  3   force =     0.04603121    1.97448477   -0.18343991
     atom  304 type  3   force =     0.04600175    1.97455066   -0.18327575
     atom  305 type  1   force =     0.57336561    0.87424050   -1.98616578
     atom  306 type  1   force =     0.57377950    0.87361041   -1.98393727
     atom  307 type  1   force =     0.57399762    0.87357449   -1.98632016
     atom  308 type  1   force =     0.57388455    0.87367239   -1.98657831
     atom  309 type  1   force =     0.57396395    0.87368511   -1.98644864
     atom  310 type  1   force =     0.57399009    0.87342998   -1.98652714
     atom  311 type  1   force =     0.57411051    0.87358427   -1.98651014
     atom  312 type  1   force =     0.57388784    0.87359324   -1.98646157
     atom  313 type  1   force =    -5.31503216  -14.19180563   -0.05294376
     atom  314 type  1   force =    -5.31455588  -14.19362027   -0.05049073
     atom  315 type  1   force =    -5.31468166  -14.19223115   -0.05298800
     atom  316 type  1   force =    -5.31480215  -14.19219721   -0.05335377
     atom  317 type  1   force =    -5.31470077  -14.19207629   -0.05311053
     atom  318 type  1   force =    -5.31476045  -14.19257877   -0.05319216
     atom  319 type  1   force =    -5.31454887  -14.19219726   -0.05314349
     atom  320 type  1   force =    -5.31481723  -14.19227880   -0.05317581
     atom  321 type  2   force =     2.77136438    0.21542126    3.53175481
     atom  322 type  2   force =     2.77238639    0.21590753    3.53213284
     atom  323 type  2   force =     2.77178264    0.21530841    3.53168386
     atom  324 type  2   force =     2.77184481    0.21547318    3.53156565
     atom  325 type  2   force =     2.77188336    0.21539913    3.53147441
     atom  326 type  2   force =     2.77178295    0.21537386    3.53169104
     atom  327 type  2   force =     2.77250920    0.21516020    3.53139105
     atom  328 type  2   force =     2.77167516    0.21546362    3.53172701
     atom  329 type  3   force =     1.65174563   -0.26881780    1.78768900
     atom  330 type  3   force =     1.65199581   -0.26876523    1.78776423
     atom  331 type  3   force =     1.65181696   -0.26885128    1.78768955
     atom  332 type  3   force =     1.65183298   -0.26880555    1.78764409
     atom  333 type  3   force =     1.65183744   -0.26882233    1.78764073
     atom  334 type  3   force =     1.65181844   -0.26884014    1.78768378
     atom  335 type  3   force =     1.65211389   -0.26882273    1.78767102
     atom  336 type  3   force =     1.65177494   -0.26881142    1.78769918
     atom  337 type  1   force =     6.86222396    5.25685175    1.77964197
     atom  338 type  1   force =     6.86314811    5.25743310    1.77981201
     atom  339 type  1   force =     6.86265612    5.25683330    1.77956864
     atom  340 type  1   force =     6.86278991    5.25706741    1.77949303
     atom  341 type  1   force =     6.86286005    5.25689214    1.77923013
     atom  342 type  1   force =     6.86266641    5.25698397    1.77964162
     atom  343 type  1   force =     6.86360216    5.25636056    1.77892539
     atom  344 type  1   force =     6.86257073    5.25707712    1.77968806
     atom  345 type  2   force =     4.86216493   -5.12649195   -1.83918381
     atom  346 type  2   force =     4.86147003   -5.12434493   -1.83957556
     atom  347 type  2   force =     4.86158441   -5.12459607   -1.83993314
     atom  348 type  2   force =     4.86161557   -5.12452416   -1.83961497
     atom  349 type  2   force =     4.86141235   -5.12493869   -1.83962740
     atom  350 type  2   force =     4.86164240   -5.12431696   -1.83967316
     atom  351 type  2   force =     4.86150885   -5.12460625   -1.83976095
     atom  352 type  2   force =     4.86172836   -5.12450063   -1.83968291
     atom  353 type  3   force =    -1.91382194    1.67827865   -0.71604515
     atom  354 type  3   force =    -1.91361032    1.67857114   -0.71615356
     atom  355 type  3   force =    -1.91361252    1.67844687   -0.71621951
     atom  356 type  3   force =    -1.91358391    1.67846492   -0.71619715
     atom  357 type  3   force =    -1.91356332    1.67834087   -0.71623519
     atom  358 type  3   force =    -1.91361190    1.67848884   -0.71619051
     atom  359 type  3   force =    -1.91360950    1.67843555   -0.71625379
     atom  360 type  3   force =    -1.91359246    1.67846683   -0.71618731
     atom  361 type  1   force =     1.15046589   -0.12027152    2.54608422
     atom  362 type  1   force =     1.15123605   -0.12062353    2.54567600
     atom  363 type  1   force =     1.15057117   -0.12036588    2.54605394
     atom  364 type  1   force =     1.15071202   -0.12035178    2.54577185
     atom  365 type  1   force =     1.15065170   -0.12026196    2.54591123
     atom  366 type  1   force =     1.15057461   -0.12044499    2.54603398
     atom  367 type  1   force =     1.15127391   -0.11953738    2.54670691
     atom  368 type  1   force =     1.14996619   -0.12031198    2.54619295
     atom  369 type  1   force =    -1.63978558   14.27339638   -2.01252698
     atom  370 type  1   force =    -1.63968953   14.27352107   -2.01268592
     atom  371 type  1   force =    -1.63990400   14.27350226   -2.01250729
     atom  372 type  1   force =    -1.63931043   14.27338770   -2.01270056
     atom  373 type  1   force =    -1.63874486   14.27458161   -2.01075452
     atom  374 type  1   force =    -1.64038740   14.27370344   -2.01229156
     atom  375 type  1   force =    -1.63974580   14.27354516   -2.01267432
     atom  376 type  1   force =    -1.63977377   14.27340452   -2.01247762
     atom  377 type  2   force =     1.12156631   -2.68727603    0.87831395
     atom  378 type  2   force =     1.12195220   -2.68762204    0.87774838
     atom  379 type  2   force =     1.12159522   -2.68729691    0.87828657
     atom  380 type  2   force =     1.12178669   -2.68752286    0.87792781
     atom  381 type  2   force =     1.12180891   -2.68685229    0.87834646
     atom  382 type  2   force =     1.12119157   -2.68759239    0.87843256
     atom  383 type  2   force =     1.12172719   -2.68729656    0.87821074
     atom  384 type  2   force =     1.12157100   -2.68741408    0.87818594
     atom  385 type  2   force =     0.26026140   -5.25567823    0.96595285
     atom  386 type  2   force =     0.26046132   -5.25574382    0.96561262
     atom  387 type  2   force =     0.26024135   -5.25565123    0.96593327
     atom  388 type  2   force =     0.26053783   -5.25585792    0.96567652
     atom  389 type  2   force =     0.26060039   -5.25482972    0.96631482
     atom  390 type  2   force =     0.25971430   -5.25576356    0.96620443
     atom  391 type  2   force =     0.26036594   -5.25565385    0.96585716
     atom  392 type  2   force =     0.26026744   -5.25575039    0.96587851
     atom  393 type  2   force =     5.22860044   -3.27843688   -2.50195667
     atom  394 type  2   force =     5.22902926   -3.27941229   -2.50229365
     atom  395 type  2   force =     5.22869220   -3.27854306   -2.50197766
     atom  396 type  2   force =     5.22868374   -3.27866531   -2.50228071
     atom  397 type  2   force =     5.22871737   -3.27819793   -2.50195531
     atom  398 type  2   force =     5.22824414   -3.27906667   -2.50177691
     atom  399 type  2   force =     5.22877940   -3.27853860   -2.50202738
     atom  400 type  2   force =     5.22860818   -3.27862890   -2.50210985
     atom  401 type  3   force =     2.14438773   -0.74068901   -1.26068007
     atom  402 type  3   force =     2.14443274   -0.74088669   -1.26072483
     atom  403 type  3   force =     2.14441129   -0.74071904   -1.26068346
     atom  404 type  3   force =     2.14439229   -0.74074349   -1.26073757
     atom  405 type  3   force =     2.14438674   -0.74062388   -1.26066164
     atom  406 type  3   force =     2.14424224   -0.74092406   -1.26054268
     atom  407 type  3   force =     2.14441961   -0.74072005   -1.26068601
     atom  408 type  3   force =     2.14438499   -0.74073524   -1.26071809
     atom  409 type  2   force =     1.54989583   -6.17815899   -0.63324840
     atom  410 type  2   force =     1.54829335   -6.17614255   -0.63316401
     atom  411 type  2   force =     1.54847637   -6.17636282   -0.63360696
     atom  412 type  2   force =     1.54842258   -6.17627713   -0.63320272
     atom  413 type  2   force =     1.54830337   -6.17653964   -0.63327167
     atom  414 type  2   force =     1.54851903   -6.17612298   -0.63330642
     atom  415 type  2   force =     1.54831004   -6.17637938   -0.63333003
     atom  416 type  2   force =     1.54861101   -6.17621750   -0.63328874
     atom  417 type  3   force =    -0.04543378   -1.97498059   -0.18298250
     atom  418 type  3   force =    -0.04606909   -1.97448148   -0.18327015
     atom  419 type  3   force =    -0.04601472   -1.97452841   -0.18337190
     atom  420 type  3   force =    -0.04602498   -1.97452371   -0.18328245
     atom  421 type  3   force =    -0.04604060   -1.97457183   -0.18330373
     atom  422 type  3   force =    -0.04600524   -1.97449294   -0.18331409
     atom  423 type  3   force =    -0.04606094   -1.97454113   -0.18330989
     atom  424 type  3   force =    -0.04596305   -1.97449982   -0.18330217
     atom  425 type  1   force =    -0.57403159   -0.87359815   -1.98637173
     atom  426 type  1   force =    -0.57382243   -0.87358561   -1.98668255
     atom  427 type  1   force =    -0.57404546   -0.87357726   -1.98642948
     atom  428 type  1   force =    -0.57380710   -0.87367017   -1.98655122
     atom  429 type  1   force =    -0.57402240   -0.87162723   -1.98539614
     atom  430 type  1   force =    -0.57476123   -0.87347733   -1.98573287
     atom  431 type  1   force =    -0.57391538   -0.87357362   -1.98645521
     atom  432 type  1   force =    -0.57402734   -0.87361108   -1.98644235
     atom  433 type  1   force =     5.31466154   14.19217832   -0.05310227
     atom  434 type  1   force =     5.31477085   14.19231965   -0.05326163
     atom  435 type  1   force =     5.31458821   14.19225516   -0.05313420
     atom  436 type  1   force =     5.31492069   14.19221043   -0.05320600
     atom  437 type  1   force =     5.31479500   14.19468341   -0.05025789
     atom  438 type  1   force =     5.31399682   14.19260194   -0.05260911
     atom  439 type  1   force =     5.31471542   14.19228147   -0.05320366
     atom  440 type  1   force =     5.31467254   14.19222986   -0.05308739
     atom  441 type  2   force =    -2.77191878   -0.21529957    3.53177747
     atom  442 type  2   force =    -2.77154793   -0.21553002    3.53095591
     atom  443 type  2   force =    -2.77191973   -0.21529122    3.53173088
     atom  444 type  2   force =    -2.77151796   -0.21565557    3.53130843
     atom  445 type  2   force =    -2.77162740   -0.21505413    3.53167866
     atom  446 type  2   force =    -2.77210101   -0.21552613    3.53172769
     atom  447 type  2   force =    -2.77173847   -0.21528029    3.53163867
     atom  448 type  2   force =    -2.77193369   -0.21546463    3.53162487
     atom  449 type  3   force =    -1.65186492    0.26886297    1.78769371
     atom  450 type  3   force =    -1.65166533    0.26872404    1.78764800
     atom  451 type  3   force =    -1.65184576    0.26884341    1.78770971
     atom  452 type  3   force =    -1.65181077    0.26885147    1.78754118
     atom  453 type  3   force =    -1.65181192    0.26885939    1.78766939
     atom  454 type  3   force =    -1.65185208    0.26880722    1.78767011
     atom  455 type  3   force =    -1.65175626    0.26890563    1.78767668
     atom  456 type  3   force =    -1.65188796    0.26881482    1.78768956
     atom  457 type  1   force =    -6.86282821   -5.25684714    1.77967243
     atom  458 type  1   force =    -6.86251539   -5.25717201    1.77907232
     atom  459 type  1   force =    -6.86288411   -5.25679324    1.77972818
     atom  460 type  1   force =    -6.86200170   -5.25766303    1.77840759
     atom  461 type  1   force =    -6.86257558   -5.25677416    1.77956928
     atom  462 type  1   force =    -6.86293424   -5.25706040    1.77952961
     atom  463 type  1   force =    -6.86259233   -5.25667800    1.77954732
     atom  464 type  1   force =    -6.86296298   -5.25713788    1.77959537
     atom  465 type  2   force =    -4.86252189    5.12424381   -1.83924609
     atom  466 type  2   force =    -4.86158431    5.12515463   -1.83939848
     atom  467 type  2   force =    -4.86167585    5.12452305   -1.83973355
     atom  468 type  2   force =    -4.86157747    5.12461841   -1.83970442
     atom  469 type  2   force =    -4.86146907    5.12432435   -1.83990331
     atom  470 type  2   force =    -4.86167817    5.12465271   -1.83965372
     atom  471 type  2   force =    -4.86160202    5.12443466   -1.83996753
     atom  472 type  2   force =    -4.86164436    5.12462494   -1.83963352
     atom  473 type  3   force =     1.91351035   -1.67895120   -0.71578628
     atom  474 type  3   force =     1.91355202   -1.67837567   -0.71616500
     atom  475 type  3   force =     1.91358190   -1.67845602   -0.71624392
     atom  476 type  3   force =     1.91360043   -1.67844653   -0.71618433
     atom  477 type  3   force =     1.91357217   -1.67855312   -0.71620018
     atom  478 type  3   force =     1.91359383   -1.67840574   -0.71619743
     atom  479 type  3   force =     1.91357113   -1.67846343   -0.71622377
     atom  480 type  3   force =     1.91361959   -1.67844161   -0.71619734
     atom  481 type  4   force =    -0.00089899    0.00068427    0.00091317
     atom  482 type  4   force =     0.01188613   -0.00382807   -0.00410045
     atom  483 type  4   force =    -0.00017414    0.00006945    0.00034064
     atom  484 type  4   force =     0.00023827   -0.00007593   -0.00058817
     atom  485 type  4   force =     0.00013823    0.00070807   -0.00027778
     atom  486 type  4   force =    -0.00027676   -0.00056802    0.00041796
     atom  487 type  4   force =     0.00164613    0.00099970    0.00111161
     atom  488 type  4   force =    -0.00162908   -0.00007356    0.00007758
     atom  489 type  4   force =    -0.00340083    0.00664568    0.00067478
     atom  490 type  4   force =    -0.00161653    0.00020198    0.00388317
     atom  491 type  4   force =     0.00042821   -0.00020372    0.00040923
     atom  492 type  4   force =    -0.00044774    0.00025591   -0.00011240
     atom  493 type  4   force =    -0.00030370    0.00004116    0.00034548
     atom  494 type  4   force =     0.00076983   -0.00002361   -0.00087143
     atom  495 type  4   force =    -0.00010949   -0.00019703   -0.00016318
     atom  496 type  4   force =     0.00018502    0.00003261   -0.00001005
     The local contribution  to forces
     atom    1 type  1   force =    -0.30088077    2.09108267    3.09790165
     atom    2 type  1   force =    -0.29845825    2.09243577    3.10272221
     atom    3 type  1   force =    -0.30097897    2.09121499    3.09815361
     atom    4 type  1   force =    -0.30113118    2.09141157    3.09830563
     atom    5 type  1   force =    -0.30108341    2.09111447    3.09825643
     atom    6 type  1   force =    -0.30095429    2.09143856    3.09814162
     atom    7 type  1   force =    -0.30120627    2.09109125    3.09803682
     atom    8 type  1   force =    -0.30064361    2.09141548    3.09830574
     atom    9 type  1   force =   -12.38406797   -0.72435319   -1.17968173
     atom   10 type  1   force =   -12.38530147   -0.72469163   -1.18148740
     atom   11 type  1   force =   -12.38548589   -0.72428728   -1.18113609
     atom   12 type  1   force =   -12.38529464   -0.72461270   -1.18117789
     atom   13 type  1   force =   -12.38531319   -0.72438210   -1.18117572
     atom   14 type  1   force =   -12.38541211   -0.72462509   -1.18111764
     atom   15 type  1   force =   -12.38484739   -0.72417595   -1.18094917
     atom   16 type  1   force =   -12.38544964   -0.72472939   -1.18134583
     atom   17 type  2   force =     2.49022768    1.12549828    0.89779934
     atom   18 type  2   force =     2.48480312    1.16455508    0.86983209
     atom   19 type  2   force =     2.48454525    1.16479020    0.87018904
     atom   20 type  2   force =     2.48464122    1.16470644    0.87005845
     atom   21 type  2   force =     2.48469754    1.16488500    0.87001520
     atom   22 type  2   force =     2.48454738    1.16454418    0.87017194
     atom   23 type  2   force =     2.48477576    1.16478803    0.87015855
     atom   24 type  2   force =     2.48445582    1.16466230    0.87002989
     atom   25 type  2   force =     5.07894675    0.26603104    0.96025593
     atom   26 type  2   force =     5.07246196    0.26985209    0.95391452
     atom   27 type  2   force =     5.07221511    0.27011847    0.95428500
     atom   28 type  2   force =     5.07234754    0.26998020    0.95419036
     atom   29 type  2   force =     5.07238301    0.27015068    0.95416417
     atom   30 type  2   force =     5.07223936    0.26987252    0.95428686
     atom   31 type  2   force =     5.07248559    0.27012313    0.95430305
     atom   32 type  2   force =     5.07218900    0.26993317    0.95414585
     atom   33 type  2   force =     3.24262711    5.17680061   -2.48088467
     atom   34 type  2   force =     3.24244146    5.17637006   -2.48064123
     atom   35 type  2   force =     3.24266140    5.17667247   -2.48069439
     atom   36 type  2   force =     3.24234401    5.17659472   -2.48081783
     atom   37 type  2   force =     3.23978963    5.17388966   -2.47490934
     atom   38 type  2   force =     3.24269409    5.17650554   -2.48098210
     atom   39 type  2   force =     3.24244238    5.17668836   -2.48066289
     atom   40 type  2   force =     3.24253877    5.17662468   -2.48077740
     atom   41 type  3   force =     0.76528185    2.07352629   -1.25226485
     atom   42 type  3   force =     0.76520993    2.07339881   -1.25218235
     atom   43 type  3   force =     0.76527507    2.07350072   -1.25221165
     atom   44 type  3   force =     0.76520653    2.07348837   -1.25223284
     atom   45 type  3   force =     0.76497496    2.07293806   -1.25190497
     atom   46 type  3   force =     0.76528848    2.07347324   -1.25228188
     atom   47 type  3   force =     0.76521822    2.07350864   -1.25220622
     atom   48 type  3   force =     0.76525595    2.07348934   -1.25222646
     atom   49 type  2   force =     5.97999995    1.44614175   -0.61199415
     atom   50 type  2   force =     5.97992899    1.44578248   -0.61185123
     atom   51 type  2   force =     5.98017587    1.44601411   -0.61179912
     atom   52 type  2   force =     5.97978895    1.44585714   -0.61203776
     atom   53 type  2   force =     5.98155787    1.44977237   -0.60605123
     atom   54 type  2   force =     5.98008936    1.44576164   -0.61213415
     atom   55 type  2   force =     5.97990948    1.44600770   -0.61182077
     atom   56 type  2   force =     5.97995697    1.44592830   -0.61193422
     atom   57 type  3   force =     1.90010126   -0.02509436   -0.18236214
     atom   58 type  3   force =     1.90009519   -0.02517636   -0.18233636
     atom   59 type  3   force =     1.90018117   -0.02511671   -0.18230218
     atom   60 type  3   force =     1.90006553   -0.02517157   -0.18238881
     atom   61 type  3   force =     1.90070007   -0.02474965   -0.18216572
     atom   62 type  3   force =     1.90011950   -0.02519066   -0.18240453
     atom   63 type  3   force =     1.90008754   -0.02512175   -0.18233052
     atom   64 type  3   force =     1.90009963   -0.02515032   -0.18235016
     atom   65 type  1   force =     0.41950497   -1.47392603   -2.59085540
     atom   66 type  1   force =     0.41649306   -1.47152985   -2.59239971
     atom   67 type  1   force =     0.41617558   -1.47119743   -2.59188875
     atom   68 type  1   force =     0.41639197   -1.47141334   -2.59186278
     atom   69 type  1   force =     0.41638927   -1.47124209   -2.59191059
     atom   70 type  1   force =     0.41618826   -1.47147281   -2.59175185
     atom   71 type  1   force =     0.41646825   -1.47117679   -2.59172461
     atom   72 type  1   force =     0.41622433   -1.47142982   -2.59192912
     atom   73 type  1   force =   -12.38937720    4.13213133   -0.55368573
     atom   74 type  1   force =   -12.39092068    4.13241568   -0.55497097
     atom   75 type  1   force =   -12.39108576    4.13282843   -0.55455971
     atom   76 type  1   force =   -12.39087048    4.13248001   -0.55446303
     atom   77 type  1   force =   -12.39090454    4.13269161   -0.55448495
     atom   78 type  1   force =   -12.39103096    4.13252077   -0.55441211
     atom   79 type  1   force =   -12.39070500    4.13291799   -0.55423064
     atom   80 type  1   force =   -12.39099593    4.13246494   -0.55458819
     atom   81 type  2   force =     0.27349900   -2.72760316    3.44884319
     atom   82 type  2   force =     0.33948972   -2.77049501    3.52048447
     atom   83 type  2   force =     0.33924852   -2.77025142    3.52083698
     atom   84 type  2   force =     0.33931761   -2.77032467    3.52069326
     atom   85 type  2   force =     0.33937049   -2.77013623    3.52066038
     atom   86 type  2   force =     0.33924904   -2.77047393    3.52079779
     atom   87 type  2   force =     0.33946413   -2.77025617    3.52080003
     atom   88 type  2   force =     0.33912945   -2.77037697    3.52065951
     atom   89 type  3   force =    -0.22486589   -1.59179005    1.77772438
     atom   90 type  3   force =    -0.23438975   -1.58191315    1.79055503
     atom   91 type  3   force =    -0.22490767   -1.59174954    1.77777503
     atom   92 type  3   force =    -0.22492429   -1.59173169    1.77780917
     atom   93 type  3   force =    -0.22492540   -1.59179172    1.77780162
     atom   94 type  3   force =    -0.22489378   -1.59169968    1.77776265
     atom   95 type  3   force =    -0.22495574   -1.59176169    1.77776383
     atom   96 type  3   force =    -0.22486697   -1.59173236    1.77780118
     atom   97 type  1   force =     4.59034175   -5.13744540    1.62566390
     atom   98 type  1   force =     4.64959543   -5.13677629    1.65313195
     atom   99 type  1   force =     4.59014694   -5.13723457    1.62594324
     atom  100 type  1   force =     4.59005400   -5.13712293    1.62610652
     atom  101 type  1   force =     4.59005972   -5.13740444    1.62606471
     atom  102 type  1   force =     4.59020352   -5.13699885    1.62590704
     atom  103 type  1   force =     4.58992580   -5.13730840    1.62588392
     atom  104 type  1   force =     4.59035318   -5.13712062    1.62608708
     atom  105 type  2   force =    -5.09704941   -4.89895070   -1.83915065
     atom  106 type  2   force =    -5.09658902   -4.89961544   -1.83832401
     atom  107 type  2   force =    -5.09696772   -4.89909069   -1.83858113
     atom  108 type  2   force =    -5.09727564   -4.89883973   -1.83881928
     atom  109 type  2   force =    -5.09731363   -4.89899523   -1.83846494
     atom  110 type  2   force =    -5.09704316   -4.89896557   -1.83867761
     atom  111 type  2   force =    -5.09713169   -4.89900795   -1.83864285
     atom  112 type  2   force =    -5.09710727   -4.89887297   -1.83853925
     atom  113 type  3   force =     1.62769568    1.85952526   -0.71025009
     atom  114 type  3   force =     1.62768432    1.85938861   -0.71016270
     atom  115 type  3   force =     1.62773453    1.85946203   -0.71016292
     atom  116 type  3   force =     1.62762802    1.85945830   -0.71023234
     atom  117 type  3   force =     1.62741857    1.85974412   -0.70988442
     atom  118 type  3   force =     1.62770613    1.85943751   -0.71022523
     atom  119 type  3   force =     1.62766909    1.85947437   -0.71017079
     atom  120 type  3   force =     1.62767515    1.85946747   -0.71018836
     atom  121 type  1   force =     0.30125484   -2.09141935    3.09798853
     atom  122 type  1   force =     0.29863485   -2.09161941    3.09943739
     atom  123 type  1   force =     0.30105645   -2.09127568    3.09817933
     atom  124 type  1   force =     0.30098051   -2.09126596    3.09827356
     atom  125 type  1   force =     0.30101689   -2.09158057    3.09835794
     atom  126 type  1   force =     0.30111194   -2.09112149    3.09799460
     atom  127 type  1   force =     0.30066237   -2.09136173    3.09794816
     atom  128 type  1   force =     0.30133822   -2.09135173    3.09825049
     atom  129 type  1   force =    12.38564404    0.72438281   -1.18144089
     atom  130 type  1   force =    12.38271121    0.72170349   -1.18015370
     atom  131 type  1   force =    12.38541234    0.72449811   -1.18117559
     atom  132 type  1   force =    12.38528975    0.72451909   -1.18109202
     atom  133 type  1   force =    12.38528992    0.72413505   -1.18093073
     atom  134 type  1   force =    12.38548654    0.72462864   -1.18136088
     atom  135 type  1   force =    12.38507370    0.72448866   -1.18126048
     atom  136 type  1   force =    12.38555353    0.72446981   -1.18111684
     atom  137 type  2   force =    -2.48454648   -1.16482560    0.87001268
     atom  138 type  2   force =    -2.48476341   -1.16443905    0.87043678
     atom  139 type  2   force =    -2.48464565   -1.16472866    0.87014101
     atom  140 type  2   force =    -2.48459407   -1.16472967    0.87011630
     atom  141 type  2   force =    -2.48448201   -1.16498017    0.87018699
     atom  142 type  2   force =    -2.48464123   -1.16454488    0.86982457
     atom  143 type  2   force =    -2.48476478   -1.16478494    0.86968237
     atom  144 type  2   force =    -2.48418659   -1.16493846    0.87026085
     atom  145 type  2   force =    -5.07218417   -0.27011348    0.95409811
     atom  146 type  2   force =    -5.07294848   -0.26983132    0.95483091
     atom  147 type  2   force =    -5.07230112   -0.27001257    0.95423438
     atom  148 type  2   force =    -5.07232550   -0.27002623    0.95425906
     atom  149 type  2   force =    -5.07222791   -0.27037393    0.95436550
     atom  150 type  2   force =    -5.07224211   -0.26986675    0.95393552
     atom  151 type  2   force =    -5.07254498   -0.27004201    0.95395430
     atom  152 type  2   force =    -5.07207105   -0.27012212    0.95429634
     atom  153 type  2   force =    -3.24230556   -5.17685504   -2.48063428
     atom  154 type  2   force =    -3.24260180   -5.17652100   -2.48106426
     atom  155 type  2   force =    -3.24259508   -5.17659373   -2.48124680
     atom  156 type  2   force =    -3.24215328   -5.17697641   -2.48058651
     atom  157 type  2   force =    -3.24246932   -5.17669506   -2.48077982
     atom  158 type  2   force =    -3.24259017   -5.17653929   -2.48059356
     atom  159 type  2   force =    -3.24259677   -5.17658483   -2.48063114
     atom  160 type  2   force =    -3.24246727   -5.17666869   -2.48076486
     atom  161 type  3   force =    -0.76516071   -2.07356786   -1.25216990
     atom  162 type  3   force =    -0.76525861   -2.07348472   -1.25231620
     atom  163 type  3   force =    -0.76527748   -2.07345154   -1.25232679
     atom  164 type  3   force =    -0.76518143   -2.07355977   -1.25220260
     atom  165 type  3   force =    -0.76522939   -2.07350007   -1.25222631
     atom  166 type  3   force =    -0.76526994   -2.07348758   -1.25219337
     atom  167 type  3   force =    -0.76525350   -2.07345807   -1.25218475
     atom  168 type  3   force =    -0.76523574   -2.07351158   -1.25223011
     atom  169 type  2   force =    -5.97982788   -1.44608460   -0.61236313
     atom  170 type  2   force =    -5.97878150   -1.44718681   -0.61117675
     atom  171 type  2   force =    -5.97985644   -1.44605201   -0.61189835
     atom  172 type  2   force =    -5.98006999   -1.44582308   -0.61196817
     atom  173 type  2   force =    -5.98005677   -1.44606171   -0.61180478
     atom  174 type  2   force =    -5.97987112   -1.44590613   -0.61194223
     atom  175 type  2   force =    -5.97998912   -1.44603433   -0.61194795
     atom  176 type  2   force =    -5.97985762   -1.44583165   -0.61179481
     atom  177 type  3   force =    -1.90004909    0.02510401   -0.18244387
     atom  178 type  3   force =    -1.89957876    0.02436516   -0.18198016
     atom  179 type  3   force =    -1.90007817    0.02512319   -0.18234895
     atom  180 type  3   force =    -1.90012326    0.02516324   -0.18234340
     atom  181 type  3   force =    -1.90012713    0.02509896   -0.18231776
     atom  182 type  3   force =    -1.90007266    0.02515873   -0.18236183
     atom  183 type  3   force =    -1.90011767    0.02512291   -0.18235523
     atom  184 type  3   force =    -1.90006582    0.02515937   -0.18232744
     atom  185 type  1   force =    -0.41615187    1.47126988   -2.59201164
     atom  186 type  1   force =    -0.41695399    1.47123203   -2.59118656
     atom  187 type  1   force =    -0.41627512    1.47136033   -2.59183989
     atom  188 type  1   force =    -0.41635992    1.47133577   -2.59182633
     atom  189 type  1   force =    -0.41612253    1.47056573   -2.59160613
     atom  190 type  1   force =    -0.41612294    1.47147878   -2.59234471
     atom  191 type  1   force =    -0.41654738    1.47137132   -2.59203531
     atom  192 type  1   force =    -0.41610813    1.47126611   -2.59180775
     atom  193 type  1   force =    12.39118939   -4.13266361   -0.55471694
     atom  194 type  1   force =    12.39000149   -4.13361790   -0.55351385
     atom  195 type  1   force =    12.39102139   -4.13260828   -0.55447654
     atom  196 type  1   force =    12.39085630   -4.13259029   -0.55443478
     atom  197 type  1   force =    12.39083169   -4.13332814   -0.55412453
     atom  198 type  1   force =    12.39115686   -4.13250838   -0.55479188
     atom  199 type  1   force =    12.39073022   -4.13259491   -0.55454942
     atom  200 type  1   force =    12.39110807   -4.13263857   -0.55444990
     atom  201 type  2   force =    -0.33926601    2.77016469    3.52061918
     atom  202 type  2   force =    -0.33914520    2.77073344    3.52111609
     atom  203 type  2   force =    -0.33932511    2.77025548    3.52076174
     atom  204 type  2   force =    -0.33927520    2.77034711    3.52075789
     atom  205 type  2   force =    -0.33921916    2.77014122    3.52076761
     atom  206 type  2   force =    -0.33934932    2.77049915    3.52060540
     atom  207 type  2   force =    -0.33936853    2.77014759    3.52036179
     atom  208 type  2   force =    -0.33861492    2.77011682    3.52105856
     atom  209 type  3   force =     0.22492514    1.59169781    1.77774153
     atom  210 type  3   force =     0.22506068    1.59195055    1.77795370
     atom  211 type  3   force =     0.22491178    1.59172942    1.77778561
     atom  212 type  3   force =     0.22491310    1.59175823    1.77779431
     atom  213 type  3   force =     0.22492360    1.59170332    1.77779182
     atom  214 type  3   force =     0.22490801    1.59179156    1.77776322
     atom  215 type  3   force =     0.22489002    1.59170362    1.77771733
     atom  216 type  3   force =     0.22505787    1.59174832    1.77785637
     atom  217 type  1   force =    -4.59015972    5.13704477    1.62587238
     atom  218 type  1   force =    -4.58986779    5.13748745    1.62624364
     atom  219 type  1   force =    -4.59018196    5.13709015    1.62605019
     atom  220 type  1   force =    -4.59006577    5.13729073    1.62598202
     atom  221 type  1   force =    -4.59003482    5.13707031    1.62599588
     atom  222 type  1   force =    -4.59022647    5.13739328    1.62593699
     atom  223 type  1   force =    -4.59006345    5.13696764    1.62550282
     atom  224 type  1   force =    -4.58823955    5.13661359    1.62693026
     atom  225 type  2   force =     5.09721032    4.89916186   -1.83879239
     atom  226 type  2   force =     5.09711635    4.89871059   -1.83854753
     atom  227 type  2   force =     5.09732932    4.89896785   -1.83854986
     atom  228 type  2   force =     5.09694044    4.89889788   -1.83876134
     atom  229 type  2   force =     5.09378088    4.90181274   -1.83513764
     atom  230 type  2   force =     5.09727693    4.89880357   -1.83882523
     atom  231 type  2   force =     5.09708535    4.89899005   -1.83854799
     atom  232 type  2   force =     5.09713140    4.89894328   -1.83865440
     atom  233 type  3   force =    -1.62764111   -1.85944595   -0.71030464
     atom  234 type  3   force =    -1.62760158   -1.85964792   -0.71012525
     atom  235 type  3   force =    -1.62763105   -1.85949211   -0.71017359
     atom  236 type  3   force =    -1.62771872   -1.85945370   -0.71022839
     atom  237 type  3   force =    -1.62775645   -1.85947434   -0.71010859
     atom  238 type  3   force =    -1.62764820   -1.85947769   -0.71020862
     atom  239 type  3   force =    -1.62768074   -1.85947433   -0.71018226
     atom  240 type  3   force =    -1.62766894   -1.85945855   -0.71017607
     atom  241 type  1   force =     2.09163125    0.30075280   -3.09845398
     atom  242 type  1   force =     2.08814548    0.30118914   -3.10203021
     atom  243 type  1   force =     2.09131179    0.30102827   -3.09835022
     atom  244 type  1   force =     2.09128476    0.30097963   -3.09803696
     atom  245 type  1   force =     2.09124604    0.30087726   -3.09818176
     atom  246 type  1   force =     2.09135033    0.30118021   -3.09826780
     atom  247 type  1   force =     2.09094036    0.30091533   -3.09826462
     atom  248 type  1   force =     2.09148852    0.30103180   -3.09824339
     atom  249 type  1   force =    -0.72422257   12.38507437    1.18091926
     atom  250 type  1   force =    -0.72663548   12.38768901    1.17783040
     atom  251 type  1   force =    -0.72447734   12.38533405    1.18098175
     atom  252 type  1   force =    -0.72447650   12.38534023    1.18139353
     atom  253 type  1   force =    -0.72454461   12.38516811    1.18113146
     atom  254 type  1   force =    -0.72438747   12.38560304    1.18109771
     atom  255 type  1   force =    -0.72472753   12.38524921    1.18109769
     atom  256 type  1   force =    -0.72432122   12.38539924    1.18113820
     atom  257 type  2   force =     1.16540025   -2.48478442   -0.87040511
     atom  258 type  2   force =     1.16432779   -2.48551076   -0.87122993
     atom  259 type  2   force =     1.16476000   -2.48455821   -0.87017962
     atom  260 type  2   force =     1.16473339   -2.48466368   -0.87007190
     atom  261 type  2   force =     1.16468363   -2.48461933   -0.87001524
     atom  262 type  2   force =     1.16476707   -2.48458796   -0.87015866
     atom  263 type  2   force =     1.16447038   -2.48449213   -0.86996066
     atom  264 type  2   force =     1.16482887   -2.48465196   -0.87017960
     atom  265 type  2   force =     0.27050650   -5.07261859   -0.95448059
     atom  266 type  2   force =     0.26940276   -5.07301208   -0.95662324
     atom  267 type  2   force =     0.27003925   -5.07227763   -0.95433617
     atom  268 type  2   force =     0.27005392   -5.07236126   -0.95414287
     atom  269 type  2   force =     0.27000066   -5.07237522   -0.95419678
     atom  270 type  2   force =     0.27005171   -5.07221938   -0.95425148
     atom  271 type  2   force =     0.26979760   -5.07230061   -0.95418289
     atom  272 type  2   force =     0.27013726   -5.07231981   -0.95426572
     atom  273 type  2   force =     5.17768599   -3.24261362    2.48007495
     atom  274 type  2   force =     5.17669581   -3.24337482    2.48000035
     atom  275 type  2   force =     5.17667387   -3.24246842    2.48070935
     atom  276 type  2   force =     5.17662501   -3.24254100    2.48072322
     atom  277 type  2   force =     5.17656938   -3.24243152    2.48084255
     atom  278 type  2   force =     5.17667854   -3.24253304    2.48068663
     atom  279 type  2   force =     5.17657301   -3.24240282    2.48088241
     atom  280 type  2   force =     5.17667142   -3.24254497    2.48067015
     atom  281 type  3   force =     2.07380512   -0.76534702    1.25191442
     atom  282 type  3   force =     2.07359132   -0.76545877    1.25201934
     atom  283 type  3   force =     2.07350114   -0.76523862    1.25221660
     atom  284 type  3   force =     2.07349238   -0.76524651    1.25221124
     atom  285 type  3   force =     2.07348344   -0.76522403    1.25223394
     atom  286 type  3   force =     2.07349799   -0.76524926    1.25221372
     atom  287 type  3   force =     2.07349172   -0.76522736    1.25223777
     atom  288 type  3   force =     2.07349342   -0.76524574    1.25221147
     atom  289 type  2   force =     1.44647607   -5.97973294    0.61172675
     atom  290 type  2   force =     1.44579436   -5.98036665    0.61167471
     atom  291 type  2   force =     1.44602844   -5.97987412    0.61187120
     atom  292 type  2   force =     1.44590395   -5.98001739    0.61187928
     atom  293 type  2   force =     1.44576801   -5.97971408    0.61215215
     atom  294 type  2   force =     1.44603525   -5.98001700    0.61178707
     atom  295 type  2   force =     1.44580035   -5.97970841    0.61233536
     atom  296 type  2   force =     1.44602414   -5.98002553    0.61175583
     atom  297 type  3   force =    -0.02505073   -1.90003442    0.18232007
     atom  298 type  3   force =    -0.02516840   -1.90017008    0.18231318
     atom  299 type  3   force =    -0.02511465   -1.90007728    0.18233848
     atom  300 type  3   force =    -0.02515988   -1.90011984    0.18233753
     atom  301 type  3   force =    -0.02522374   -1.89998509    0.18241450
     atom  302 type  3   force =    -0.02511404   -1.90012386    0.18231253
     atom  303 type  3   force =    -0.02515516   -1.90005065    0.18246768
     atom  304 type  3   force =    -0.02512406   -1.90011535    0.18230369
     atom  305 type  1   force =    -1.47078243   -0.41693141    2.59158613
     atom  306 type  1   force =    -1.47112246   -0.41633317    2.58938156
     atom  307 type  1   force =    -1.47136069   -0.41628371    2.59169665
     atom  308 type  1   force =    -1.47125167   -0.41638336    2.59195458
     atom  309 type  1   force =    -1.47132861   -0.41640373    2.59182679
     atom  310 type  1   force =    -1.47135486   -0.41614216    2.59191168
     atom  311 type  1   force =    -1.47147392   -0.41629960    2.59188815
     atom  312 type  1   force =    -1.47126325   -0.41630888    2.59184436
     atom  313 type  1   force =     4.13294254   12.39052734    0.55424617
     atom  314 type  1   force =     4.13252069   12.39231751    0.55183105
     atom  315 type  1   force =     4.13259221   12.39093626    0.55428745
     atom  316 type  1   force =     4.13271851   12.39090555    0.55465147
     atom  317 type  1   force =     4.13261643   12.39078727    0.55441013
     atom  318 type  1   force =     4.13267403   12.39128698    0.55449536
     atom  319 type  1   force =     4.13246335   12.39090493    0.55444202
     atom  320 type  1   force =     4.13272502   12.39098102    0.55447859
     atom  321 type  2   force =    -2.76984452   -0.33932860   -3.52089022
     atom  322 type  2   force =    -2.77083583   -0.33981957   -3.52127011
     atom  323 type  2   force =    -2.77025596   -0.33921805   -3.52082103
     atom  324 type  2   force =    -2.77031577   -0.33937382   -3.52070309
     atom  325 type  2   force =    -2.77035395   -0.33930605   -3.52061226
     atom  326 type  2   force =    -2.77025588   -0.33928062   -3.52082682
     atom  327 type  2   force =    -2.77095309   -0.33911326   -3.52049997
     atom  328 type  2   force =    -2.77015411   -0.33937214   -3.52086336
     atom  329 type  3   force =    -1.59165955    0.22489916   -1.77781118
     atom  330 type  3   force =    -1.59190902    0.22484635   -1.77788723
     atom  331 type  3   force =    -1.59173082    0.22493237   -1.77781205
     atom  332 type  3   force =    -1.59174620    0.22488724   -1.77776641
     atom  333 type  3   force =    -1.59175085    0.22490273   -1.77776332
     atom  334 type  3   force =    -1.59173254    0.22492136   -1.77780607
     atom  335 type  3   force =    -1.59203027    0.22490734   -1.77778949
     atom  336 type  3   force =    -1.59168903    0.22489173   -1.77782121
     atom  337 type  1   force =    -5.13669515   -4.59002318   -1.62613704
     atom  338 type  1   force =    -5.13758656   -4.59059814   -1.62630992
     atom  339 type  1   force =    -5.13711839   -4.59000411   -1.62606652
     atom  340 type  1   force =    -5.13724326   -4.59022733   -1.62598986
     atom  341 type  1   force =    -5.13730507   -4.59005570   -1.62573050
     atom  342 type  1   force =    -5.13712615   -4.59015071   -1.62613692
     atom  343 type  1   force =    -5.13822384   -4.58960596   -1.62543226
     atom  344 type  1   force =    -5.13703533   -4.59024802   -1.62618446
     atom  345 type  2   force =    -4.89948564    5.09904541    1.83803498
     atom  346 type  2   force =    -4.89881243    5.09690225    1.83846189
     atom  347 type  2   force =    -4.89892924    5.09715434    1.83881144
     atom  348 type  2   force =    -4.89895899    5.09707672    1.83849938
     atom  349 type  2   force =    -4.89875599    5.09748717    1.83850904
     atom  350 type  2   force =    -4.89898594    5.09687382    1.83855787
     atom  351 type  2   force =    -4.89885585    5.09715398    1.83864504
     atom  352 type  2   force =    -4.89906904    5.09705070    1.83856596
     atom  353 type  3   force =     1.85969669   -1.62749788    0.71001796
     atom  354 type  3   force =     1.85948378   -1.62779034    0.71012661
     atom  355 type  3   force =     1.85948581   -1.62766633    0.71019197
     atom  356 type  3   force =     1.85945755   -1.62768410    0.71016973
     atom  357 type  3   force =     1.85943523   -1.62756115    0.71020984
     atom  358 type  3   force =     1.85948536   -1.62770813    0.71016331
     atom  359 type  3   force =     1.85948316   -1.62765499    0.71022591
     atom  360 type  3   force =     1.85946563   -1.62768685    0.71015988
     atom  361 type  1   force =    -2.09113134   -0.30111954   -3.09834255
     atom  362 type  1   force =    -2.09192678   -0.30077897   -3.09796770
     atom  363 type  1   force =    -2.09123086   -0.30101853   -3.09831144
     atom  364 type  1   force =    -2.09137846   -0.30102718   -3.09803291
     atom  365 type  1   force =    -2.09131451   -0.30113085   -3.09817342
     atom  366 type  1   force =    -2.09123938   -0.30094355   -3.09829168
     atom  367 type  1   force =    -2.09189763   -0.30183884   -3.09895664
     atom  368 type  1   force =    -2.09063809   -0.30108872   -3.09845239
     atom  369 type  1   force =     0.72454127  -12.38529669    1.18108266
     atom  370 type  1   force =     0.72444311  -12.38541066    1.18123588
     atom  371 type  1   force =     0.72465704  -12.38540186    1.18106079
     atom  372 type  1   force =     0.72406014  -12.38530303    1.18125707
     atom  373 type  1   force =     0.72353706  -12.38651140    1.17932081
     atom  374 type  1   force =     0.72514070  -12.38561268    1.18084811
     atom  375 type  1   force =     0.72449562  -12.38544212    1.18122388
     atom  376 type  1   force =     0.72452561  -12.38530287    1.18103341
     atom  377 type  2   force =    -1.16464740    2.48452015   -0.87024032
     atom  378 type  2   force =    -1.16502106    2.48488047   -0.86967747
     atom  379 type  2   force =    -1.16467946    2.48454009   -0.87021349
     atom  380 type  2   force =    -1.16487031    2.48476438   -0.86986376
     atom  381 type  2   force =    -1.16488793    2.48410775   -0.87027422
     atom  382 type  2   force =    -1.16427785    2.48482707   -0.87035837
     atom  383 type  2   force =    -1.16480945    2.48454245   -0.87013885
     atom  384 type  2   force =    -1.16465847    2.48465400   -0.87011313
     atom  385 type  2   force =    -0.26996798    5.07227941   -0.95433144
     atom  386 type  2   force =    -0.27016251    5.07237775   -0.95399263
     atom  387 type  2   force =    -0.26995055    5.07225023   -0.95431378
     atom  388 type  2   force =    -0.27025407    5.07245176   -0.95406127
     atom  389 type  2   force =    -0.27029030    5.07145345   -0.95468311
     atom  390 type  2   force =    -0.26942762    5.07234768   -0.95458386
     atom  391 type  2   force =    -0.27007705    5.07225274   -0.95423815
     atom  392 type  2   force =    -0.26997981    5.07234671   -0.95425886
     atom  393 type  2   force =    -5.17654359    3.24235035    2.48061034
     atom  394 type  2   force =    -5.17695211    3.24334965    2.48094373
     atom  395 type  2   force =    -5.17663952    3.24245396    2.48063018
     atom  396 type  2   force =    -5.17663823    3.24257531    2.48092946
     atom  397 type  2   force =    -5.17666066    3.24211430    2.48060753
     atom  398 type  2   force =    -5.17619476    3.24297014    2.48042871
     atom  399 type  2   force =    -5.17672746    3.24244819    2.48067935
     atom  400 type  2   force =    -5.17655949    3.24253378    2.48076209
     atom  401 type  3   force =    -2.07347783    0.76520088    1.25219463
     atom  402 type  3   force =    -2.07352249    0.76539833    1.25224016
     atom  403 type  3   force =    -2.07350170    0.76523069    1.25219759
     atom  404 type  3   force =    -2.07348367    0.76525513    1.25225153
     atom  405 type  3   force =    -2.07347720    0.76513577    1.25217640
     atom  406 type  3   force =    -2.07333405    0.76543392    1.25205590
     atom  407 type  3   force =    -2.07351045    0.76523177    1.25220009
     atom  408 type  3   force =    -2.07347517    0.76524650    1.25223188
     atom  409 type  2   force =    -1.44738168    5.98181797    0.61179462
     atom  410 type  2   force =    -1.44579374    5.97976652    0.61172360
     atom  411 type  2   force =    -1.44597605    5.97999158    0.61216165
     atom  412 type  2   force =    -1.44592689    5.97989937    0.61176173
     atom  413 type  2   force =    -1.44580531    5.98015617    0.61182910
     atom  414 type  2   force =    -1.44601807    5.97975019    0.61186581
     atom  415 type  2   force =    -1.44581856    5.97999348    0.61188896
     atom  416 type  2   force =    -1.44610995    5.97983498    0.61184610
     atom  417 type  3   force =     0.02455693    1.90054277    0.18200382
     atom  418 type  3   force =     0.02519086    1.90004622    0.18229863
     atom  419 type  3   force =     0.02513727    1.90009329    0.18239935
     atom  420 type  3   force =     0.02514655    1.90008918    0.18231068
     atom  421 type  3   force =     0.02516258    1.90013702    0.18233170
     atom  422 type  3   force =     0.02512719    1.90005918    0.18234229
     atom  423 type  3   force =     0.02518197    1.90010701    0.18233815
     atom  424 type  3   force =     0.02508600    1.90006510    0.18232988
     atom  425 type  1   force =     1.47140042    0.41631154    2.59175277
     atom  426 type  1   force =     1.47121806    0.41630191    2.59207548
     atom  427 type  1   force =     1.47140591    0.41629051    2.59180527
     atom  428 type  1   force =     1.47115341    0.41638376    2.59191774
     atom  429 type  1   force =     1.47141743    0.41432744    2.59081663
     atom  430 type  1   force =     1.47211365    0.41618703    2.59112355
     atom  431 type  1   force =     1.47127148    0.41628688    2.59182795
     atom  432 type  1   force =     1.47138013    0.41632825    2.59181409
     atom  433 type  1   force =    -4.13257635  -12.39088302    0.55440070
     atom  434 type  1   force =    -4.13267323  -12.39101756    0.55456857
     atom  435 type  1   force =    -4.13250412  -12.39096397    0.55443324
     atom  436 type  1   force =    -4.13284703  -12.39092292    0.55449934
     atom  437 type  1   force =    -4.13268023  -12.39335817    0.55159145
     atom  438 type  1   force =    -4.13191086  -12.39131003    0.55391154
     atom  439 type  1   force =    -4.13262971  -12.39098858    0.55450275
     atom  440 type  1   force =    -4.13259035  -12.39093058    0.55438603
     atom  441 type  2   force =     2.77038974    0.33921207   -3.52091282
     atom  442 type  2   force =     2.77001537    0.33946549   -3.52009342
     atom  443 type  2   force =     2.77038463    0.33920351   -3.52086571
     atom  444 type  2   force =     2.76999837    0.33956210   -3.52045300
     atom  445 type  2   force =     2.77010833    0.33896374   -3.52081470
     atom  446 type  2   force =     2.77056861    0.33943386   -3.52086471
     atom  447 type  2   force =     2.77021220    0.33919151   -3.52077533
     atom  448 type  2   force =     2.77039865    0.33936915   -3.52075945
     atom  449 type  3   force =     1.59177824   -0.22494423   -1.77781618
     atom  450 type  3   force =     1.59158063   -0.22480481   -1.77777128
     atom  451 type  3   force =     1.59175925   -0.22492392   -1.77783197
     atom  452 type  3   force =     1.59172446   -0.22493296   -1.77766471
     atom  453 type  3   force =     1.59172604   -0.22494031   -1.77779190
     atom  454 type  3   force =     1.59176537   -0.22488894   -1.77779205
     atom  455 type  3   force =     1.59167022   -0.22498708   -1.77779941
     atom  456 type  3   force =     1.59180158   -0.22489591   -1.77781198
     atom  457 type  1   force =     5.13728154    4.59001633   -1.62616743
     atom  458 type  1   force =     5.13697235    4.59034679   -1.62558172
     atom  459 type  1   force =     5.13733865    4.58996494   -1.62622420
     atom  460 type  1   force =     5.13645838    4.59085581   -1.62493493
     atom  461 type  1   force =     5.13704189    4.58994472   -1.62606723
     atom  462 type  1   force =     5.13738039    4.59022084   -1.62602338
     atom  463 type  1   force =     5.13706243    4.58985140   -1.62604336
     atom  464 type  1   force =     5.13741674    4.59030454   -1.62609207
     atom  465 type  2   force =     4.89987473   -5.09680966    1.83813528
     atom  466 type  2   force =     4.89892677   -5.09769578    1.83828323
     atom  467 type  2   force =     4.89901193   -5.09707093    1.83861554
     atom  468 type  2   force =     4.89891884   -5.09716433    1.83858737
     atom  469 type  2   force =     4.89882552   -5.09688784    1.83879214
     atom  470 type  2   force =     4.89901752   -5.09720104    1.83853795
     atom  471 type  2   force =     4.89893059   -5.09699468    1.83884850
     atom  472 type  2   force =     4.89897955   -5.09717681    1.83851687
     atom  473 type  3   force =    -1.85938192    1.62817015    0.70975546
     atom  474 type  3   force =    -1.85942496    1.62759579    0.71013835
     atom  475 type  3   force =    -1.85945500    1.62767606    0.71021622
     atom  476 type  3   force =    -1.85947390    1.62766605    0.71015700
     atom  477 type  3   force =    -1.85944611    1.62777250    0.71017294
     atom  478 type  3   force =    -1.85946735    1.62762505    0.71017019
     atom  479 type  3   force =    -1.85944503    1.62768236    0.71019637
     atom  480 type  3   force =    -1.85949362    1.62766106    0.71016986
     atom  481 type  4   force =     0.00086195   -0.00067978   -0.00087489
     atom  482 type  4   force =    -0.01171451    0.00361186    0.00371501
     atom  483 type  4   force =     0.00016132   -0.00005330   -0.00034004
     atom  484 type  4   force =    -0.00024809    0.00009415    0.00054910
     atom  485 type  4   force =    -0.00013478   -0.00066877    0.00024171
     atom  486 type  4   force =     0.00026121    0.00055981   -0.00040566
     atom  487 type  4   force =    -0.00159095   -0.00100005   -0.00107297
     atom  488 type  4   force =     0.00158949    0.00001570   -0.00007041
     atom  489 type  4   force =     0.00338398   -0.00629446   -0.00045619
     atom  490 type  4   force =     0.00157844   -0.00019240   -0.00379985
     atom  491 type  4   force =    -0.00044404    0.00019035   -0.00042437
     atom  492 type  4   force =     0.00042398   -0.00021984    0.00009336
     atom  493 type  4   force =     0.00031362   -0.00005311   -0.00033799
     atom  494 type  4   force =    -0.00073664   -0.00006373    0.00095082
     atom  495 type  4   force =     0.00010204    0.00019672    0.00015487
     atom  496 type  4   force =    -0.00021992   -0.00002511   -0.00001078
     The core correction contribution to forces
     atom    1 type  1   force =    -0.00311521    0.00438524    0.00260960
     atom    2 type  1   force =    -0.00311529    0.00438230    0.00260915
     atom    3 type  1   force =    -0.00311530    0.00438528    0.00260959
     atom    4 type  1   force =    -0.00311526    0.00438515    0.00260949
     atom    5 type  1   force =    -0.00311522    0.00438531    0.00260950
     atom    6 type  1   force =    -0.00311522    0.00438520    0.00260952
     atom    7 type  1   force =    -0.00311525    0.00438522    0.00260957
     atom    8 type  1   force =    -0.00311519    0.00438501    0.00260952
     atom    9 type  1   force =     0.01339935    0.00481461    0.00489637
     atom   10 type  1   force =     0.01340064    0.00481512    0.00489604
     atom   11 type  1   force =     0.01340054    0.00481504    0.00489603
     atom   12 type  1   force =     0.01340064    0.00481505    0.00489607
     atom   13 type  1   force =     0.01340072    0.00481504    0.00489601
     atom   14 type  1   force =     0.01340065    0.00481504    0.00489600
     atom   15 type  1   force =     0.01340051    0.00481494    0.00489596
     atom   16 type  1   force =     0.01340067    0.00481508    0.00489612
     atom   17 type  2   force =    -0.00630542    0.00145023    0.00009453
     atom   18 type  2   force =    -0.00643114    0.00179728    0.00006778
     atom   19 type  2   force =    -0.00643147    0.00179769    0.00006816
     atom   20 type  2   force =    -0.00643139    0.00179763    0.00006780
     atom   21 type  2   force =    -0.00643130    0.00179757    0.00006812
     atom   22 type  2   force =    -0.00643105    0.00179788    0.00006769
     atom   23 type  2   force =    -0.00643148    0.00179736    0.00006772
     atom   24 type  2   force =    -0.00643119    0.00179770    0.00006806
     atom   25 type  2   force =     0.00303719   -0.00020604    0.00028696
     atom   26 type  2   force =     0.00302152   -0.00019500    0.00027324
     atom   27 type  2   force =     0.00302124   -0.00019481    0.00027367
     atom   28 type  2   force =     0.00302132   -0.00019472    0.00027361
     atom   29 type  2   force =     0.00302150   -0.00019484    0.00027314
     atom   30 type  2   force =     0.00302147   -0.00019514    0.00027339
     atom   31 type  2   force =     0.00302096   -0.00019492    0.00027369
     atom   32 type  2   force =     0.00302159   -0.00019511    0.00027317
     atom   33 type  2   force =    -0.00233784    0.00277888    0.00032847
     atom   34 type  2   force =    -0.00233765    0.00277904    0.00032835
     atom   35 type  2   force =    -0.00233814    0.00277911    0.00032851
     atom   36 type  2   force =    -0.00233772    0.00277925    0.00032876
     atom   37 type  2   force =    -0.00232916    0.00278692    0.00034581
     atom   38 type  2   force =    -0.00233747    0.00277855    0.00032800
     atom   39 type  2   force =    -0.00233774    0.00277927    0.00032823
     atom   40 type  2   force =    -0.00233778    0.00277895    0.00032821
     atom   41 type  3   force =     0.00000000    0.00000000    0.00000000
     atom   42 type  3   force =     0.00000000    0.00000000    0.00000000
     atom   43 type  3   force =     0.00000000    0.00000000    0.00000000
     atom   44 type  3   force =     0.00000000    0.00000000    0.00000000
     atom   45 type  3   force =     0.00000000    0.00000000    0.00000000
     atom   46 type  3   force =     0.00000000    0.00000000    0.00000000
     atom   47 type  3   force =     0.00000000    0.00000000    0.00000000
     atom   48 type  3   force =     0.00000000    0.00000000    0.00000000
     atom   49 type  2   force =     0.00087742   -0.00157202    0.00038474
     atom   50 type  2   force =     0.00087780   -0.00157209    0.00038458
     atom   51 type  2   force =     0.00087687   -0.00157220    0.00038512
     atom   52 type  2   force =     0.00087732   -0.00157258    0.00038450
     atom   53 type  2   force =     0.00085200   -0.00161091    0.00040296
     atom   54 type  2   force =     0.00087720   -0.00157210    0.00038520
     atom   55 type  2   force =     0.00087731   -0.00157203    0.00038508
     atom   56 type  2   force =     0.00087741   -0.00157230    0.00038525
     atom   57 type  3   force =     0.00000000    0.00000000    0.00000000
     atom   58 type  3   force =     0.00000000    0.00000000    0.00000000
     atom   59 type  3   force =     0.00000000    0.00000000    0.00000000
     atom   60 type  3   force =     0.00000000    0.00000000    0.00000000
     atom   61 type  3   force =     0.00000000    0.00000000    0.00000000
     atom   62 type  3   force =     0.00000000    0.00000000    0.00000000
     atom   63 type  3   force =     0.00000000    0.00000000    0.00000000
     atom   64 type  3   force =     0.00000000    0.00000000    0.00000000
     atom   65 type  1   force =    -0.00325429   -0.00412459   -0.00297554
     atom   66 type  1   force =    -0.00325630   -0.00412411   -0.00297476
     atom   67 type  1   force =    -0.00325637   -0.00412439   -0.00297499
     atom   68 type  1   force =    -0.00325630   -0.00412417   -0.00297490
     atom   69 type  1   force =    -0.00325630   -0.00412435   -0.00297494
     atom   70 type  1   force =    -0.00325629   -0.00412435   -0.00297493
     atom   71 type  1   force =    -0.00325623   -0.00412429   -0.00297495
     atom   72 type  1   force =    -0.00325634   -0.00412428   -0.00297489
     atom   73 type  1   force =     0.01284215   -0.00666266   -0.00256128
     atom   74 type  1   force =     0.01284249   -0.00666367   -0.00256033
     atom   75 type  1   force =     0.01284252   -0.00666371   -0.00256027
     atom   76 type  1   force =     0.01284242   -0.00666358   -0.00256030
     atom   77 type  1   force =     0.01284259   -0.00666372   -0.00256034
     atom   78 type  1   force =     0.01284250   -0.00666372   -0.00256025
     atom   79 type  1   force =     0.01284270   -0.00666382   -0.00256041
     atom   80 type  1   force =     0.01284239   -0.00666363   -0.00256020
     atom   81 type  2   force =    -0.00239927   -0.00188358    0.00006045
     atom   82 type  2   force =    -0.00172050   -0.00232348    0.00022300
     atom   83 type  2   force =    -0.00172103   -0.00232291    0.00022378
     atom   84 type  2   force =    -0.00172127   -0.00232283    0.00022343
     atom   85 type  2   force =    -0.00172078   -0.00232277    0.00022351
     atom   86 type  2   force =    -0.00172050   -0.00232263    0.00022311
     atom   87 type  2   force =    -0.00172120   -0.00232308    0.00022338
     atom   88 type  2   force =    -0.00172120   -0.00232308    0.00022357
     atom   89 type  3   force =     0.00000000    0.00000000    0.00000000
     atom   90 type  3   force =     0.00000000    0.00000000    0.00000000
     atom   91 type  3   force =     0.00000000    0.00000000    0.00000000
     atom   92 type  3   force =     0.00000000    0.00000000    0.00000000
     atom   93 type  3   force =     0.00000000    0.00000000    0.00000000
     atom   94 type  3   force =     0.00000000    0.00000000    0.00000000
     atom   95 type  3   force =     0.00000000    0.00000000    0.00000000
     atom   96 type  3   force =     0.00000000    0.00000000    0.00000000
     atom   97 type  1   force =    -0.00403856    0.01083133   -0.00097756
     atom   98 type  1   force =    -0.00384630    0.01071220   -0.00103518
     atom   99 type  1   force =    -0.00403859    0.01083138   -0.00097755
     atom  100 type  1   force =    -0.00403855    0.01083133   -0.00097759
     atom  101 type  1   force =    -0.00403851    0.01083142   -0.00097757
     atom  102 type  1   force =    -0.00403851    0.01083141   -0.00097756
     atom  103 type  1   force =    -0.00403854    0.01083128   -0.00097754
     atom  104 type  1   force =    -0.00403867    0.01083129   -0.00097754
     atom  105 type  2   force =    -0.00229055   -0.00380037    0.00000069
     atom  106 type  2   force =    -0.00229082   -0.00379937   -0.00000098
     atom  107 type  2   force =    -0.00229075   -0.00380033   -0.00000127
     atom  108 type  2   force =    -0.00229018   -0.00380037   -0.00000096
     atom  109 type  2   force =    -0.00229080   -0.00380075   -0.00000094
     atom  110 type  2   force =    -0.00229024   -0.00380056   -0.00000116
     atom  111 type  2   force =    -0.00229018   -0.00380024   -0.00000126
     atom  112 type  2   force =    -0.00229040   -0.00380060   -0.00000120
     atom  113 type  3   force =     0.00000000    0.00000000    0.00000000
     atom  114 type  3   force =     0.00000000    0.00000000    0.00000000
     atom  115 type  3   force =     0.00000000    0.00000000    0.00000000
     atom  116 type  3   force =     0.00000000    0.00000000    0.00000000
     atom  117 type  3   force =     0.00000000    0.00000000    0.00000000
     atom  118 type  3   force =     0.00000000    0.00000000    0.00000000
     atom  119 type  3   force =     0.00000000    0.00000000    0.00000000
     atom  120 type  3   force =     0.00000000    0.00000000    0.00000000
     atom  121 type  1   force =     0.00311524   -0.00438517    0.00260969
     atom  122 type  1   force =     0.00311573   -0.00438645    0.00260934
     atom  123 type  1   force =     0.00311525   -0.00438516    0.00260956
     atom  124 type  1   force =     0.00311526   -0.00438508    0.00260947
     atom  125 type  1   force =     0.00311519   -0.00438498    0.00260934
     atom  126 type  1   force =     0.00311530   -0.00438529    0.00260960
     atom  127 type  1   force =     0.00311527   -0.00438528    0.00260959
     atom  128 type  1   force =     0.00311517   -0.00438537    0.00260963
     atom  129 type  1   force =    -0.01340079   -0.00481500    0.00489615
     atom  130 type  1   force =    -0.01340128   -0.00481646    0.00489525
     atom  131 type  1   force =    -0.01340068   -0.00481503    0.00489605
     atom  132 type  1   force =    -0.01340067   -0.00481499    0.00489608
     atom  133 type  1   force =    -0.01340054   -0.00481485    0.00489587
     atom  134 type  1   force =    -0.01340064   -0.00481510    0.00489601
     atom  135 type  1   force =    -0.01340060   -0.00481503    0.00489606
     atom  136 type  1   force =    -0.01340090   -0.00481511    0.00489608
     atom  137 type  2   force =     0.00643105   -0.00179753    0.00006813
     atom  138 type  2   force =     0.00643099   -0.00179803    0.00006798
     atom  139 type  2   force =     0.00643129   -0.00179762    0.00006767
     atom  140 type  2   force =     0.00643132   -0.00179790    0.00006810
     atom  141 type  2   force =     0.00643128   -0.00179740    0.00006775
     atom  142 type  2   force =     0.00643135   -0.00179759    0.00006779
     atom  143 type  2   force =     0.00643118   -0.00179765    0.00006816
     atom  144 type  2   force =     0.00643099   -0.00179753    0.00006813
     atom  145 type  2   force =    -0.00302156    0.00019466    0.00027326
     atom  146 type  2   force =    -0.00302141    0.00019460    0.00027332
     atom  147 type  2   force =    -0.00302142    0.00019472    0.00027303
     atom  148 type  2   force =    -0.00302148    0.00019470    0.00027342
     atom  149 type  2   force =    -0.00302172    0.00019525    0.00027331
     atom  150 type  2   force =    -0.00302125    0.00019453    0.00027361
     atom  151 type  2   force =    -0.00302119    0.00019483    0.00027408
     atom  152 type  2   force =    -0.00302202    0.00019494    0.00027355
     atom  153 type  2   force =     0.00233786   -0.00277887    0.00032856
     atom  154 type  2   force =     0.00233791   -0.00277926    0.00032866
     atom  155 type  2   force =     0.00233783   -0.00277907    0.00032991
     atom  156 type  2   force =     0.00233745   -0.00277884    0.00032907
     atom  157 type  2   force =     0.00233778   -0.00277904    0.00032866
     atom  158 type  2   force =     0.00233763   -0.00277932    0.00032846
     atom  159 type  2   force =     0.00233764   -0.00277893    0.00032863
     atom  160 type  2   force =     0.00233788   -0.00277931    0.00032827
     atom  161 type  3   force =     0.00000000    0.00000000    0.00000000
     atom  162 type  3   force =     0.00000000    0.00000000    0.00000000
     atom  163 type  3   force =     0.00000000    0.00000000    0.00000000
     atom  164 type  3   force =     0.00000000    0.00000000    0.00000000
     atom  165 type  3   force =     0.00000000    0.00000000    0.00000000
     atom  166 type  3   force =     0.00000000    0.00000000    0.00000000
     atom  167 type  3   force =     0.00000000    0.00000000    0.00000000
     atom  168 type  3   force =     0.00000000    0.00000000    0.00000000
     atom  169 type  2   force =    -0.00087765    0.00157230    0.00038536
     atom  170 type  2   force =    -0.00088145    0.00157336    0.00038542
     atom  171 type  2   force =    -0.00087754    0.00157233    0.00038510
     atom  172 type  2   force =    -0.00087722    0.00157235    0.00038565
     atom  173 type  2   force =    -0.00087730    0.00157212    0.00038509
     atom  174 type  2   force =    -0.00087765    0.00157212    0.00038522
     atom  175 type  2   force =    -0.00087750    0.00157210    0.00038475
     atom  176 type  2   force =    -0.00087786    0.00157222    0.00038516
     atom  177 type  3   force =     0.00000000    0.00000000    0.00000000
     atom  178 type  3   force =     0.00000000    0.00000000    0.00000000
     atom  179 type  3   force =     0.00000000    0.00000000    0.00000000
     atom  180 type  3   force =     0.00000000    0.00000000    0.00000000
     atom  181 type  3   force =     0.00000000    0.00000000    0.00000000
     atom  182 type  3   force =     0.00000000    0.00000000    0.00000000
     atom  183 type  3   force =     0.00000000    0.00000000    0.00000000
     atom  184 type  3   force =     0.00000000    0.00000000    0.00000000
     atom  185 type  1   force =     0.00325628    0.00412431   -0.00297498
     atom  186 type  1   force =     0.00325619    0.00412413   -0.00297410
     atom  187 type  1   force =     0.00325630    0.00412431   -0.00297494
     atom  188 type  1   force =     0.00325629    0.00412439   -0.00297505
     atom  189 type  1   force =     0.00325650    0.00412486   -0.00297516
     atom  190 type  1   force =     0.00325628    0.00412425   -0.00297490
     atom  191 type  1   force =     0.00325632    0.00412428   -0.00297500
     atom  192 type  1   force =     0.00325611    0.00412449   -0.00297500
     atom  193 type  1   force =    -0.01284255    0.00666362   -0.00256019
     atom  194 type  1   force =    -0.01284205    0.00666338   -0.00255974
     atom  195 type  1   force =    -0.01284254    0.00666371   -0.00256034
     atom  196 type  1   force =    -0.01284255    0.00666378   -0.00256023
     atom  197 type  1   force =    -0.01284269    0.00666377   -0.00256041
     atom  198 type  1   force =    -0.01284259    0.00666370   -0.00256017
     atom  199 type  1   force =    -0.01284255    0.00666365   -0.00256021
     atom  200 type  1   force =    -0.01284265    0.00666367   -0.00256033
     atom  201 type  2   force =     0.00172115    0.00232269    0.00022324
     atom  202 type  2   force =     0.00172066    0.00232264    0.00022395
     atom  203 type  2   force =     0.00172094    0.00232306    0.00022347
     atom  204 type  2   force =     0.00172117    0.00232322    0.00022362
     atom  205 type  2   force =     0.00172096    0.00232299    0.00022409
     atom  206 type  2   force =     0.00172115    0.00232316    0.00022330
     atom  207 type  2   force =     0.00172110    0.00232273    0.00022299
     atom  208 type  2   force =     0.00172027    0.00232251    0.00022381
     atom  209 type  3   force =     0.00000000    0.00000000    0.00000000
     atom  210 type  3   force =     0.00000000    0.00000000    0.00000000
     atom  211 type  3   force =     0.00000000    0.00000000    0.00000000
     atom  212 type  3   force =     0.00000000    0.00000000    0.00000000
     atom  213 type  3   force =     0.00000000    0.00000000    0.00000000
     atom  214 type  3   force =     0.00000000    0.00000000    0.00000000
     atom  215 type  3   force =     0.00000000    0.00000000    0.00000000
     atom  216 type  3   force =     0.00000000    0.00000000    0.00000000
     atom  217 type  1   force =     0.00403852   -0.01083131   -0.00097753
     atom  218 type  1   force =     0.00403845   -0.01083145   -0.00097756
     atom  219 type  1   force =     0.00403855   -0.01083136   -0.00097752
     atom  220 type  1   force =     0.00403857   -0.01083134   -0.00097755
     atom  221 type  1   force =     0.00403851   -0.01083126   -0.00097758
     atom  222 type  1   force =     0.00403857   -0.01083135   -0.00097756
     atom  223 type  1   force =     0.00403852   -0.01083129   -0.00097745
     atom  224 type  1   force =     0.00403788   -0.01083114   -0.00097754
     atom  225 type  2   force =     0.00229033    0.00380058   -0.00000103
     atom  226 type  2   force =     0.00229030    0.00380059   -0.00000052
     atom  227 type  2   force =     0.00228988    0.00380038   -0.00000107
     atom  228 type  2   force =     0.00229064    0.00380018   -0.00000104
     atom  229 type  2   force =     0.00229276    0.00379330    0.00000163
     atom  230 type  2   force =     0.00229028    0.00380043   -0.00000109
     atom  231 type  2   force =     0.00229052    0.00380058   -0.00000113
     atom  232 type  2   force =     0.00229029    0.00380023   -0.00000106
     atom  233 type  3   force =     0.00000000    0.00000000    0.00000000
     atom  234 type  3   force =     0.00000000    0.00000000    0.00000000
     atom  235 type  3   force =     0.00000000    0.00000000    0.00000000
     atom  236 type  3   force =     0.00000000    0.00000000    0.00000000
     atom  237 type  3   force =     0.00000000    0.00000000    0.00000000
     atom  238 type  3   force =     0.00000000    0.00000000    0.00000000
     atom  239 type  3   force =     0.00000000    0.00000000    0.00000000
     atom  240 type  3   force =     0.00000000    0.00000000    0.00000000
     atom  241 type  1   force =     0.00438504    0.00311519   -0.00260948
     atom  242 type  1   force =     0.00438624    0.00311531   -0.00260956
     atom  243 type  1   force =     0.00438515    0.00311524   -0.00260951
     atom  244 type  1   force =     0.00438518    0.00311529   -0.00260963
     atom  245 type  1   force =     0.00438531    0.00311529   -0.00260968
     atom  246 type  1   force =     0.00438513    0.00311525   -0.00260954
     atom  247 type  1   force =     0.00438533    0.00311527   -0.00260960
     atom  248 type  1   force =     0.00438506    0.00311519   -0.00260955
     atom  249 type  1   force =     0.00481489   -0.01340054   -0.00489596
     atom  250 type  1   force =     0.00481613   -0.01340226   -0.00489722
     atom  251 type  1   force =     0.00481502   -0.01340066   -0.00489600
     atom  252 type  1   force =     0.00481503   -0.01340061   -0.00489604
     atom  253 type  1   force =     0.00481508   -0.01340060   -0.00489608
     atom  254 type  1   force =     0.00481500   -0.01340076   -0.00489601
     atom  255 type  1   force =     0.00481508   -0.01340062   -0.00489593
     atom  256 type  1   force =     0.00481502   -0.01340066   -0.00489603
     atom  257 type  2   force =     0.00179729    0.00643136   -0.00006778
     atom  258 type  2   force =     0.00179752    0.00643257   -0.00006655
     atom  259 type  2   force =     0.00179769    0.00643130   -0.00006811
     atom  260 type  2   force =     0.00179757    0.00643120   -0.00006800
     atom  261 type  2   force =     0.00179774    0.00643119   -0.00006801
     atom  262 type  2   force =     0.00179748    0.00643106   -0.00006794
     atom  263 type  2   force =     0.00179750    0.00643128   -0.00006801
     atom  264 type  2   force =     0.00179752    0.00643089   -0.00006823
     atom  265 type  2   force =    -0.00019476   -0.00302171   -0.00027358
     atom  266 type  2   force =    -0.00019513   -0.00302041   -0.00027261
     atom  267 type  2   force =    -0.00019483   -0.00302128   -0.00027358
     atom  268 type  2   force =    -0.00019477   -0.00302138   -0.00027326
     atom  269 type  2   force =    -0.00019472   -0.00302118   -0.00027370
     atom  270 type  2   force =    -0.00019465   -0.00302138   -0.00027341
     atom  271 type  2   force =    -0.00019456   -0.00302092   -0.00027320
     atom  272 type  2   force =    -0.00019479   -0.00302138   -0.00027337
     atom  273 type  2   force =     0.00277951    0.00233759   -0.00032880
     atom  274 type  2   force =     0.00277947    0.00233891   -0.00032772
     atom  275 type  2   force =     0.00277940    0.00233779   -0.00032902
     atom  276 type  2   force =     0.00277918    0.00233795   -0.00032843
     atom  277 type  2   force =     0.00277944    0.00233749   -0.00032874
     atom  278 type  2   force =     0.00277892    0.00233807   -0.00032839
     atom  279 type  2   force =     0.00277931    0.00233776   -0.00032854
     atom  280 type  2   force =     0.00277914    0.00233775   -0.00032875
     atom  281 type  3   force =     0.00000000    0.00000000    0.00000000
     atom  282 type  3   force =     0.00000000    0.00000000    0.00000000
     atom  283 type  3   force =     0.00000000    0.00000000    0.00000000
     atom  284 type  3   force =     0.00000000    0.00000000    0.00000000
     atom  285 type  3   force =     0.00000000    0.00000000    0.00000000
     atom  286 type  3   force =     0.00000000    0.00000000    0.00000000
     atom  287 type  3   force =     0.00000000    0.00000000    0.00000000
     atom  288 type  3   force =     0.00000000    0.00000000    0.00000000
     atom  289 type  2   force =    -0.00157299   -0.00087779   -0.00038523
     atom  290 type  2   force =    -0.00157217   -0.00087755   -0.00038544
     atom  291 type  2   force =    -0.00157222   -0.00087751   -0.00038500
     atom  292 type  2   force =    -0.00157218   -0.00087749   -0.00038468
     atom  293 type  2   force =    -0.00157228   -0.00087719   -0.00038493
     atom  294 type  2   force =    -0.00157238   -0.00087731   -0.00038468
     atom  295 type  2   force =    -0.00157260   -0.00087733   -0.00038481
     atom  296 type  2   force =    -0.00157225   -0.00087742   -0.00038495
     atom  297 type  3   force =     0.00000000    0.00000000    0.00000000
     atom  298 type  3   force =     0.00000000    0.00000000    0.00000000
     atom  299 type  3   force =     0.00000000    0.00000000    0.00000000
     atom  300 type  3   force =     0.00000000    0.00000000    0.00000000
     atom  301 type  3   force =     0.00000000    0.00000000    0.00000000
     atom  302 type  3   force =     0.00000000    0.00000000    0.00000000
     atom  303 type  3   force =     0.00000000    0.00000000    0.00000000
     atom  304 type  3   force =     0.00000000    0.00000000    0.00000000
     atom  305 type  1   force =    -0.00412493    0.00325664    0.00297540
     atom  306 type  1   force =    -0.00412390    0.00325598    0.00297504
     atom  307 type  1   force =    -0.00412436    0.00325630    0.00297491
     atom  308 type  1   force =    -0.00412432    0.00325636    0.00297494
     atom  309 type  1   force =    -0.00412425    0.00325636    0.00297491
     atom  310 type  1   force =    -0.00412439    0.00325634    0.00297503
     atom  311 type  1   force =    -0.00412433    0.00325627    0.00297499
     atom  312 type  1   force =    -0.00412435    0.00325634    0.00297498
     atom  313 type  1   force =    -0.00666363   -0.01284247    0.00256022
     atom  314 type  1   force =    -0.00666307   -0.01284245    0.00256037
     atom  315 type  1   force =    -0.00666369   -0.01284257    0.00256032
     atom  316 type  1   force =    -0.00666363   -0.01284244    0.00256026
     atom  317 type  1   force =    -0.00666358   -0.01284253    0.00256021
     atom  318 type  1   force =    -0.00666369   -0.01284254    0.00256033
     atom  319 type  1   force =    -0.00666363   -0.01284254    0.00256025
     atom  320 type  1   force =    -0.00666369   -0.01284255    0.00256027
     atom  321 type  2   force =    -0.00232284    0.00172100   -0.00022366
     atom  322 type  2   force =    -0.00232233    0.00172129   -0.00022316
     atom  323 type  2   force =    -0.00232291    0.00172101   -0.00022378
     atom  324 type  2   force =    -0.00232300    0.00172110   -0.00022393
     atom  325 type  2   force =    -0.00232285    0.00172122   -0.00022379
     atom  326 type  2   force =    -0.00232263    0.00172089   -0.00022371
     atom  327 type  2   force =    -0.00232251    0.00172004   -0.00022348
     atom  328 type  2   force =    -0.00232286    0.00172092   -0.00022384
     atom  329 type  3   force =     0.00000000    0.00000000    0.00000000
     atom  330 type  3   force =     0.00000000    0.00000000    0.00000000
     atom  331 type  3   force =     0.00000000    0.00000000    0.00000000
     atom  332 type  3   force =     0.00000000    0.00000000    0.00000000
     atom  333 type  3   force =     0.00000000    0.00000000    0.00000000
     atom  334 type  3   force =     0.00000000    0.00000000    0.00000000
     atom  335 type  3   force =     0.00000000    0.00000000    0.00000000
     atom  336 type  3   force =     0.00000000    0.00000000    0.00000000
     atom  337 type  1   force =     0.01083126    0.00403851    0.00097749
     atom  338 type  1   force =     0.01083157    0.00403868    0.00097760
     atom  339 type  1   force =     0.01083131    0.00403859    0.00097752
     atom  340 type  1   force =     0.01083134    0.00403857    0.00097755
     atom  341 type  1   force =     0.01083144    0.00403858    0.00097752
     atom  342 type  1   force =     0.01083137    0.00403856    0.00097747
     atom  343 type  1   force =     0.01082988    0.00403796    0.00097736
     atom  344 type  1   force =     0.01083130    0.00403856    0.00097754
     atom  345 type  2   force =    -0.00380010    0.00229008    0.00000080
     atom  346 type  2   force =    -0.00380064    0.00229067    0.00000151
     atom  347 type  2   force =    -0.00380065    0.00229075    0.00000106
     atom  348 type  2   force =    -0.00380045    0.00229022    0.00000079
     atom  349 type  2   force =    -0.00380034    0.00228978    0.00000062
     atom  350 type  2   force =    -0.00380045    0.00229018    0.00000090
     atom  351 type  2   force =    -0.00380086    0.00229034    0.00000107
     atom  352 type  2   force =    -0.00380080    0.00229029    0.00000095
     atom  353 type  3   force =     0.00000000    0.00000000    0.00000000
     atom  354 type  3   force =     0.00000000    0.00000000    0.00000000
     atom  355 type  3   force =     0.00000000    0.00000000    0.00000000
     atom  356 type  3   force =     0.00000000    0.00000000    0.00000000
     atom  357 type  3   force =     0.00000000    0.00000000    0.00000000
     atom  358 type  3   force =     0.00000000    0.00000000    0.00000000
     atom  359 type  3   force =     0.00000000    0.00000000    0.00000000
     atom  360 type  3   force =     0.00000000    0.00000000    0.00000000
     atom  361 type  1   force =    -0.00438524   -0.00311524   -0.00260956
     atom  362 type  1   force =    -0.00438551   -0.00311543   -0.00260993
     atom  363 type  1   force =    -0.00438518   -0.00311534   -0.00260958
     atom  364 type  1   force =    -0.00438530   -0.00311513   -0.00260961
     atom  365 type  1   force =    -0.00438529   -0.00311518   -0.00260960
     atom  366 type  1   force =    -0.00438524   -0.00311530   -0.00260956
     atom  367 type  1   force =    -0.00438476   -0.00311507   -0.00260945
     atom  368 type  1   force =    -0.00438521   -0.00311533   -0.00260965
     atom  369 type  1   force =    -0.00481501    0.01340066   -0.00489604
     atom  370 type  1   force =    -0.00481503    0.01340071   -0.00489608
     atom  371 type  1   force =    -0.00481509    0.01340067   -0.00489606
     atom  372 type  1   force =    -0.00481512    0.01340054   -0.00489603
     atom  373 type  1   force =    -0.00481466    0.01340037   -0.00489597
     atom  374 type  1   force =    -0.00481507    0.01340063   -0.00489597
     atom  375 type  1   force =    -0.00481510    0.01340079   -0.00489606
     atom  376 type  1   force =    -0.00481506    0.01340070   -0.00489602
     atom  377 type  2   force =    -0.00179809   -0.00643101   -0.00006722
     atom  378 type  2   force =    -0.00179747   -0.00643104   -0.00006832
     atom  379 type  2   force =    -0.00179757   -0.00643119   -0.00006816
     atom  380 type  2   force =    -0.00179738   -0.00643111   -0.00006816
     atom  381 type  2   force =    -0.00179736   -0.00643139   -0.00006840
     atom  382 type  2   force =    -0.00179775   -0.00643134   -0.00006808
     atom  383 type  2   force =    -0.00179745   -0.00643094   -0.00006812
     atom  384 type  2   force =    -0.00179738   -0.00643138   -0.00006801
     atom  385 type  2   force =     0.00019515    0.00302131   -0.00027384
     atom  386 type  2   force =     0.00019498    0.00302185   -0.00027375
     atom  387 type  2   force =     0.00019500    0.00302129   -0.00027372
     atom  388 type  2   force =     0.00019476    0.00302131   -0.00027354
     atom  389 type  2   force =     0.00019523    0.00302195   -0.00027288
     atom  390 type  2   force =     0.00019462    0.00302135   -0.00027333
     atom  391 type  2   force =     0.00019479    0.00302152   -0.00027336
     atom  392 type  2   force =     0.00019493    0.00302098   -0.00027395
     atom  393 type  2   force =    -0.00277869   -0.00233850   -0.00032926
     atom  394 type  2   force =    -0.00277884   -0.00233732   -0.00032846
     atom  395 type  2   force =    -0.00277914   -0.00233801   -0.00032837
     atom  396 type  2   force =    -0.00277976   -0.00233799   -0.00032847
     atom  397 type  2   force =    -0.00277906   -0.00233799   -0.00032853
     atom  398 type  2   force =    -0.00277933   -0.00233810   -0.00032866
     atom  399 type  2   force =    -0.00277907   -0.00233777   -0.00032847
     atom  400 type  2   force =    -0.00277906   -0.00233787   -0.00032825
     atom  401 type  3   force =     0.00000000    0.00000000    0.00000000
     atom  402 type  3   force =     0.00000000    0.00000000    0.00000000
     atom  403 type  3   force =     0.00000000    0.00000000    0.00000000
     atom  404 type  3   force =     0.00000000    0.00000000    0.00000000
     atom  405 type  3   force =     0.00000000    0.00000000    0.00000000
     atom  406 type  3   force =     0.00000000    0.00000000    0.00000000
     atom  407 type  3   force =     0.00000000    0.00000000    0.00000000
     atom  408 type  3   force =     0.00000000    0.00000000    0.00000000
     atom  409 type  2   force =     0.00157243    0.00087838   -0.00038488
     atom  410 type  2   force =     0.00157193    0.00087767   -0.00038499
     atom  411 type  2   force =     0.00157224    0.00087744   -0.00038521
     atom  412 type  2   force =     0.00157218    0.00087748   -0.00038528
     atom  413 type  2   force =     0.00157191    0.00087737   -0.00038507
     atom  414 type  2   force =     0.00157218    0.00087765   -0.00038496
     atom  415 type  2   force =     0.00157243    0.00087717   -0.00038521
     atom  416 type  2   force =     0.00157189    0.00087733   -0.00038488
     atom  417 type  3   force =     0.00000000    0.00000000    0.00000000
     atom  418 type  3   force =     0.00000000    0.00000000    0.00000000
     atom  419 type  3   force =     0.00000000    0.00000000    0.00000000
     atom  420 type  3   force =     0.00000000    0.00000000    0.00000000
     atom  421 type  3   force =     0.00000000    0.00000000    0.00000000
     atom  422 type  3   force =     0.00000000    0.00000000    0.00000000
     atom  423 type  3   force =     0.00000000    0.00000000    0.00000000
     atom  424 type  3   force =     0.00000000    0.00000000    0.00000000
     atom  425 type  1   force =     0.00412432   -0.00325635    0.00297498
     atom  426 type  1   force =     0.00412463   -0.00325629    0.00297508
     atom  427 type  1   force =     0.00412426   -0.00325622    0.00297495
     atom  428 type  1   force =     0.00412415   -0.00325628    0.00297480
     atom  429 type  1   force =     0.00412465   -0.00325672    0.00297525
     atom  430 type  1   force =     0.00412434   -0.00325635    0.00297489
     atom  431 type  1   force =     0.00412422   -0.00325622    0.00297483
     atom  432 type  1   force =     0.00412423   -0.00325626    0.00297492
     atom  433 type  1   force =     0.00666367    0.01284251    0.00256025
     atom  434 type  1   force =     0.00666377    0.01284263    0.00256035
     atom  435 type  1   force =     0.00666369    0.01284247    0.00256022
     atom  436 type  1   force =     0.00666358    0.01284240    0.00256021
     atom  437 type  1   force =     0.00666396    0.01284306    0.00256066
     atom  438 type  1   force =     0.00666396    0.01284233    0.00255999
     atom  439 type  1   force =     0.00666364    0.01284251    0.00256030
     atom  440 type  1   force =     0.00666371    0.01284247    0.00256024
     atom  441 type  2   force =     0.00232320   -0.00172095   -0.00022405
     atom  442 type  2   force =     0.00232306   -0.00172067   -0.00022355
     atom  443 type  2   force =     0.00232258   -0.00172109   -0.00022354
     atom  444 type  2   force =     0.00232294   -0.00172099   -0.00022350
     atom  445 type  2   force =     0.00232298   -0.00172116   -0.00022366
     atom  446 type  2   force =     0.00232211   -0.00172135   -0.00022323
     atom  447 type  2   force =     0.00232290   -0.00172114   -0.00022373
     atom  448 type  2   force =     0.00232234   -0.00172099   -0.00022355
     atom  449 type  3   force =     0.00000000    0.00000000    0.00000000
     atom  450 type  3   force =     0.00000000    0.00000000    0.00000000
     atom  451 type  3   force =     0.00000000    0.00000000    0.00000000
     atom  452 type  3   force =     0.00000000    0.00000000    0.00000000
     atom  453 type  3   force =     0.00000000    0.00000000    0.00000000
     atom  454 type  3   force =     0.00000000    0.00000000    0.00000000
     atom  455 type  3   force =     0.00000000    0.00000000    0.00000000
     atom  456 type  3   force =     0.00000000    0.00000000    0.00000000
     atom  457 type  1   force =    -0.01083135   -0.00403857    0.00097756
     atom  458 type  1   force =    -0.01083133   -0.00403856    0.00097745
     atom  459 type  1   force =    -0.01083135   -0.00403857    0.00097753
     atom  460 type  1   force =    -0.01083129   -0.00403836    0.00097730
     atom  461 type  1   force =    -0.01083127   -0.00403855    0.00097748
     atom  462 type  1   force =    -0.01083140   -0.00403856    0.00097755
     atom  463 type  1   force =    -0.01083120   -0.00403852    0.00097751
     atom  464 type  1   force =    -0.01083141   -0.00403861    0.00097754
     atom  465 type  2   force =     0.00380088   -0.00229047    0.00000099
     atom  466 type  2   force =     0.00380059   -0.00229002    0.00000110
     atom  467 type  2   force =     0.00380041   -0.00229027    0.00000134
     atom  468 type  2   force =     0.00380019   -0.00229009    0.00000100
     atom  469 type  2   force =     0.00380082   -0.00229036    0.00000143
     atom  470 type  2   force =     0.00380058   -0.00229014    0.00000085
     atom  471 type  2   force =     0.00380005   -0.00229057    0.00000113
     atom  472 type  2   force =     0.00380060   -0.00229041    0.00000121
     atom  473 type  3   force =     0.00000000    0.00000000    0.00000000
     atom  474 type  3   force =     0.00000000    0.00000000    0.00000000
     atom  475 type  3   force =     0.00000000    0.00000000    0.00000000
     atom  476 type  3   force =     0.00000000    0.00000000    0.00000000
     atom  477 type  3   force =     0.00000000    0.00000000    0.00000000
     atom  478 type  3   force =     0.00000000    0.00000000    0.00000000
     atom  479 type  3   force =     0.00000000    0.00000000    0.00000000
     atom  480 type  3   force =     0.00000000    0.00000000    0.00000000
     atom  481 type  4   force =     0.00000000    0.00000000    0.00000000
     atom  482 type  4   force =     0.00000000    0.00000000    0.00000000
     atom  483 type  4   force =     0.00000000    0.00000000    0.00000000
     atom  484 type  4   force =     0.00000000    0.00000000    0.00000000
     atom  485 type  4   force =     0.00000000    0.00000000    0.00000000
     atom  486 type  4   force =     0.00000000    0.00000000    0.00000000
     atom  487 type  4   force =     0.00000000    0.00000000    0.00000000
     atom  488 type  4   force =     0.00000000    0.00000000    0.00000000
     atom  489 type  4   force =     0.00000000    0.00000000    0.00000000
     atom  490 type  4   force =     0.00000000    0.00000000    0.00000000
     atom  491 type  4   force =     0.00000000    0.00000000    0.00000000
     atom  492 type  4   force =     0.00000000    0.00000000    0.00000000
     atom  493 type  4   force =     0.00000000    0.00000000    0.00000000
     atom  494 type  4   force =     0.00000000    0.00000000    0.00000000
     atom  495 type  4   force =     0.00000000    0.00000000    0.00000000
     atom  496 type  4   force =     0.00000000    0.00000000    0.00000000
     The Hubbard contrib.    to forces
     atom    1 type  1   force =     0.00000000    0.00000000    0.00000000
     atom    2 type  1   force =     0.00000000    0.00000000    0.00000000
     atom    3 type  1   force =     0.00000000    0.00000000    0.00000000
     atom    4 type  1   force =     0.00000000    0.00000000    0.00000000
     atom    5 type  1   force =     0.00000000    0.00000000    0.00000000
     atom    6 type  1   force =     0.00000000    0.00000000    0.00000000
     atom    7 type  1   force =     0.00000000    0.00000000    0.00000000
     atom    8 type  1   force =     0.00000000    0.00000000    0.00000000
     atom    9 type  1   force =     0.00000000    0.00000000    0.00000000
     atom   10 type  1   force =     0.00000000    0.00000000    0.00000000
     atom   11 type  1   force =     0.00000000    0.00000000    0.00000000
     atom   12 type  1   force =     0.00000000    0.00000000    0.00000000
     atom   13 type  1   force =     0.00000000    0.00000000    0.00000000
     atom   14 type  1   force =     0.00000000    0.00000000    0.00000000
     atom   15 type  1   force =     0.00000000    0.00000000    0.00000000
     atom   16 type  1   force =     0.00000000    0.00000000    0.00000000
     atom   17 type  2   force =     0.00000000    0.00000000    0.00000000
     atom   18 type  2   force =     0.00000000    0.00000000    0.00000000
     atom   19 type  2   force =     0.00000000    0.00000000    0.00000000
     atom   20 type  2   force =     0.00000000    0.00000000    0.00000000
     atom   21 type  2   force =     0.00000000    0.00000000    0.00000000
     atom   22 type  2   force =     0.00000000    0.00000000    0.00000000
     atom   23 type  2   force =     0.00000000    0.00000000    0.00000000
     atom   24 type  2   force =     0.00000000    0.00000000    0.00000000
     atom   25 type  2   force =     0.00000000    0.00000000    0.00000000
     atom   26 type  2   force =     0.00000000    0.00000000    0.00000000
     atom   27 type  2   force =     0.00000000    0.00000000    0.00000000
     atom   28 type  2   force =     0.00000000    0.00000000    0.00000000
     atom   29 type  2   force =     0.00000000    0.00000000    0.00000000
     atom   30 type  2   force =     0.00000000    0.00000000    0.00000000
     atom   31 type  2   force =     0.00000000    0.00000000    0.00000000
     atom   32 type  2   force =     0.00000000    0.00000000    0.00000000
     atom   33 type  2   force =     0.00000000    0.00000000    0.00000000
     atom   34 type  2   force =     0.00000000    0.00000000    0.00000000
     atom   35 type  2   force =     0.00000000    0.00000000    0.00000000
     atom   36 type  2   force =     0.00000000    0.00000000    0.00000000
     atom   37 type  2   force =     0.00000000    0.00000000    0.00000000
     atom   38 type  2   force =     0.00000000    0.00000000    0.00000000
     atom   39 type  2   force =     0.00000000    0.00000000    0.00000000
     atom   40 type  2   force =     0.00000000    0.00000000    0.00000000
     atom   41 type  3   force =     0.00000000    0.00000000    0.00000000
     atom   42 type  3   force =     0.00000000    0.00000000    0.00000000
     atom   43 type  3   force =     0.00000000    0.00000000    0.00000000
     atom   44 type  3   force =     0.00000000    0.00000000    0.00000000
     atom   45 type  3   force =     0.00000000    0.00000000    0.00000000
     atom   46 type  3   force =     0.00000000    0.00000000    0.00000000
     atom   47 type  3   force =     0.00000000    0.00000000    0.00000000
     atom   48 type  3   force =     0.00000000    0.00000000    0.00000000
     atom   49 type  2   force =     0.00000000    0.00000000    0.00000000
     atom   50 type  2   force =     0.00000000    0.00000000    0.00000000
     atom   51 type  2   force =     0.00000000    0.00000000    0.00000000
     atom   52 type  2   force =     0.00000000    0.00000000    0.00000000
     atom   53 type  2   force =     0.00000000    0.00000000    0.00000000
     atom   54 type  2   force =     0.00000000    0.00000000    0.00000000
     atom   55 type  2   force =     0.00000000    0.00000000    0.00000000
     atom   56 type  2   force =     0.00000000    0.00000000    0.00000000
     atom   57 type  3   force =     0.00000000    0.00000000    0.00000000
     atom   58 type  3   force =     0.00000000    0.00000000    0.00000000
     atom   59 type  3   force =     0.00000000    0.00000000    0.00000000
     atom   60 type  3   force =     0.00000000    0.00000000    0.00000000
     atom   61 type  3   force =     0.00000000    0.00000000    0.00000000
     atom   62 type  3   force =     0.00000000    0.00000000    0.00000000
     atom   63 type  3   force =     0.00000000    0.00000000    0.00000000
     atom   64 type  3   force =     0.00000000    0.00000000    0.00000000
     atom   65 type  1   force =     0.00000000    0.00000000    0.00000000
     atom   66 type  1   force =     0.00000000    0.00000000    0.00000000
     atom   67 type  1   force =     0.00000000    0.00000000    0.00000000
     atom   68 type  1   force =     0.00000000    0.00000000    0.00000000
     atom   69 type  1   force =     0.00000000    0.00000000    0.00000000
     atom   70 type  1   force =     0.00000000    0.00000000    0.00000000
     atom   71 type  1   force =     0.00000000    0.00000000    0.00000000
     atom   72 type  1   force =     0.00000000    0.00000000    0.00000000
     atom   73 type  1   force =     0.00000000    0.00000000    0.00000000
     atom   74 type  1   force =     0.00000000    0.00000000    0.00000000
     atom   75 type  1   force =     0.00000000    0.00000000    0.00000000
     atom   76 type  1   force =     0.00000000    0.00000000    0.00000000
     atom   77 type  1   force =     0.00000000    0.00000000    0.00000000
     atom   78 type  1   force =     0.00000000    0.00000000    0.00000000
     atom   79 type  1   force =     0.00000000    0.00000000    0.00000000
     atom   80 type  1   force =     0.00000000    0.00000000    0.00000000
     atom   81 type  2   force =     0.00000000    0.00000000    0.00000000
     atom   82 type  2   force =     0.00000000    0.00000000    0.00000000
     atom   83 type  2   force =     0.00000000    0.00000000    0.00000000
     atom   84 type  2   force =     0.00000000    0.00000000    0.00000000
     atom   85 type  2   force =     0.00000000    0.00000000    0.00000000
     atom   86 type  2   force =     0.00000000    0.00000000    0.00000000
     atom   87 type  2   force =     0.00000000    0.00000000    0.00000000
     atom   88 type  2   force =     0.00000000    0.00000000    0.00000000
     atom   89 type  3   force =     0.00000000    0.00000000    0.00000000
     atom   90 type  3   force =     0.00000000    0.00000000    0.00000000
     atom   91 type  3   force =     0.00000000    0.00000000    0.00000000
     atom   92 type  3   force =     0.00000000    0.00000000    0.00000000
     atom   93 type  3   force =     0.00000000    0.00000000    0.00000000
     atom   94 type  3   force =     0.00000000    0.00000000    0.00000000
     atom   95 type  3   force =     0.00000000    0.00000000    0.00000000
     atom   96 type  3   force =     0.00000000    0.00000000    0.00000000
     atom   97 type  1   force =     0.00000000    0.00000000    0.00000000
     atom   98 type  1   force =     0.00000000    0.00000000    0.00000000
     atom   99 type  1   force =     0.00000000    0.00000000    0.00000000
     atom  100 type  1   force =     0.00000000    0.00000000    0.00000000
     atom  101 type  1   force =     0.00000000    0.00000000    0.00000000
     atom  102 type  1   force =     0.00000000    0.00000000    0.00000000
     atom  103 type  1   force =     0.00000000    0.00000000    0.00000000
     atom  104 type  1   force =     0.00000000    0.00000000    0.00000000
     atom  105 type  2   force =     0.00000000    0.00000000    0.00000000
     atom  106 type  2   force =     0.00000000    0.00000000    0.00000000
     atom  107 type  2   force =     0.00000000    0.00000000    0.00000000
     atom  108 type  2   force =     0.00000000    0.00000000    0.00000000
     atom  109 type  2   force =     0.00000000    0.00000000    0.00000000
     atom  110 type  2   force =     0.00000000    0.00000000    0.00000000
     atom  111 type  2   force =     0.00000000    0.00000000    0.00000000
     atom  112 type  2   force =     0.00000000    0.00000000    0.00000000
     atom  113 type  3   force =     0.00000000    0.00000000    0.00000000
     atom  114 type  3   force =     0.00000000    0.00000000    0.00000000
     atom  115 type  3   force =     0.00000000    0.00000000    0.00000000
     atom  116 type  3   force =     0.00000000    0.00000000    0.00000000
     atom  117 type  3   force =     0.00000000    0.00000000    0.00000000
     atom  118 type  3   force =     0.00000000    0.00000000    0.00000000
     atom  119 type  3   force =     0.00000000    0.00000000    0.00000000
     atom  120 type  3   force =     0.00000000    0.00000000    0.00000000
     atom  121 type  1   force =     0.00000000    0.00000000    0.00000000
     atom  122 type  1   force =     0.00000000    0.00000000    0.00000000
     atom  123 type  1   force =     0.00000000    0.00000000    0.00000000
     atom  124 type  1   force =     0.00000000    0.00000000    0.00000000
     atom  125 type  1   force =     0.00000000    0.00000000    0.00000000
     atom  126 type  1   force =     0.00000000    0.00000000    0.00000000
     atom  127 type  1   force =     0.00000000    0.00000000    0.00000000
     atom  128 type  1   force =     0.00000000    0.00000000    0.00000000
     atom  129 type  1   force =     0.00000000    0.00000000    0.00000000
     atom  130 type  1   force =     0.00000000    0.00000000    0.00000000
     atom  131 type  1   force =     0.00000000    0.00000000    0.00000000
     atom  132 type  1   force =     0.00000000    0.00000000    0.00000000
     atom  133 type  1   force =     0.00000000    0.00000000    0.00000000
     atom  134 type  1   force =     0.00000000    0.00000000    0.00000000
     atom  135 type  1   force =     0.00000000    0.00000000    0.00000000
     atom  136 type  1   force =     0.00000000    0.00000000    0.00000000
     atom  137 type  2   force =     0.00000000    0.00000000    0.00000000
     atom  138 type  2   force =     0.00000000    0.00000000    0.00000000
     atom  139 type  2   force =     0.00000000    0.00000000    0.00000000
     atom  140 type  2   force =     0.00000000    0.00000000    0.00000000
     atom  141 type  2   force =     0.00000000    0.00000000    0.00000000
     atom  142 type  2   force =     0.00000000    0.00000000    0.00000000
     atom  143 type  2   force =     0.00000000    0.00000000    0.00000000
     atom  144 type  2   force =     0.00000000    0.00000000    0.00000000
     atom  145 type  2   force =     0.00000000    0.00000000    0.00000000
     atom  146 type  2   force =     0.00000000    0.00000000    0.00000000
     atom  147 type  2   force =     0.00000000    0.00000000    0.00000000
     atom  148 type  2   force =     0.00000000    0.00000000    0.00000000
     atom  149 type  2   force =     0.00000000    0.00000000    0.00000000
     atom  150 type  2   force =     0.00000000    0.00000000    0.00000000
     atom  151 type  2   force =     0.00000000    0.00000000    0.00000000
     atom  152 type  2   force =     0.00000000    0.00000000    0.00000000
     atom  153 type  2   force =     0.00000000    0.00000000    0.00000000
     atom  154 type  2   force =     0.00000000    0.00000000    0.00000000
     atom  155 type  2   force =     0.00000000    0.00000000    0.00000000
     atom  156 type  2   force =     0.00000000    0.00000000    0.00000000
     atom  157 type  2   force =     0.00000000    0.00000000    0.00000000
     atom  158 type  2   force =     0.00000000    0.00000000    0.00000000
     atom  159 type  2   force =     0.00000000    0.00000000    0.00000000
     atom  160 type  2   force =     0.00000000    0.00000000    0.00000000
     atom  161 type  3   force =     0.00000000    0.00000000    0.00000000
     atom  162 type  3   force =     0.00000000    0.00000000    0.00000000
     atom  163 type  3   force =     0.00000000    0.00000000    0.00000000
     atom  164 type  3   force =     0.00000000    0.00000000    0.00000000
     atom  165 type  3   force =     0.00000000    0.00000000    0.00000000
     atom  166 type  3   force =     0.00000000    0.00000000    0.00000000
     atom  167 type  3   force =     0.00000000    0.00000000    0.00000000
     atom  168 type  3   force =     0.00000000    0.00000000    0.00000000
     atom  169 type  2   force =     0.00000000    0.00000000    0.00000000
     atom  170 type  2   force =     0.00000000    0.00000000    0.00000000
     atom  171 type  2   force =     0.00000000    0.00000000    0.00000000
     atom  172 type  2   force =     0.00000000    0.00000000    0.00000000
     atom  173 type  2   force =     0.00000000    0.00000000    0.00000000
     atom  174 type  2   force =     0.00000000    0.00000000    0.00000000
     atom  175 type  2   force =     0.00000000    0.00000000    0.00000000
     atom  176 type  2   force =     0.00000000    0.00000000    0.00000000
     atom  177 type  3   force =     0.00000000    0.00000000    0.00000000
     atom  178 type  3   force =     0.00000000    0.00000000    0.00000000
     atom  179 type  3   force =     0.00000000    0.00000000    0.00000000
     atom  180 type  3   force =     0.00000000    0.00000000    0.00000000
     atom  181 type  3   force =     0.00000000    0.00000000    0.00000000
     atom  182 type  3   force =     0.00000000    0.00000000    0.00000000
     atom  183 type  3   force =     0.00000000    0.00000000    0.00000000
     atom  184 type  3   force =     0.00000000    0.00000000    0.00000000
     atom  185 type  1   force =     0.00000000    0.00000000    0.00000000
     atom  186 type  1   force =     0.00000000    0.00000000    0.00000000
     atom  187 type  1   force =     0.00000000    0.00000000    0.00000000
     atom  188 type  1   force =     0.00000000    0.00000000    0.00000000
     atom  189 type  1   force =     0.00000000    0.00000000    0.00000000
     atom  190 type  1   force =     0.00000000    0.00000000    0.00000000
     atom  191 type  1   force =     0.00000000    0.00000000    0.00000000
     atom  192 type  1   force =     0.00000000    0.00000000    0.00000000
     atom  193 type  1   force =     0.00000000    0.00000000    0.00000000
     atom  194 type  1   force =     0.00000000    0.00000000    0.00000000
     atom  195 type  1   force =     0.00000000    0.00000000    0.00000000
     atom  196 type  1   force =     0.00000000    0.00000000    0.00000000
     atom  197 type  1   force =     0.00000000    0.00000000    0.00000000
     atom  198 type  1   force =     0.00000000    0.00000000    0.00000000
     atom  199 type  1   force =     0.00000000    0.00000000    0.00000000
     atom  200 type  1   force =     0.00000000    0.00000000    0.00000000
     atom  201 type  2   force =     0.00000000    0.00000000    0.00000000
     atom  202 type  2   force =     0.00000000    0.00000000    0.00000000
     atom  203 type  2   force =     0.00000000    0.00000000    0.00000000
     atom  204 type  2   force =     0.00000000    0.00000000    0.00000000
     atom  205 type  2   force =     0.00000000    0.00000000    0.00000000
     atom  206 type  2   force =     0.00000000    0.00000000    0.00000000
     atom  207 type  2   force =     0.00000000    0.00000000    0.00000000
     atom  208 type  2   force =     0.00000000    0.00000000    0.00000000
     atom  209 type  3   force =     0.00000000    0.00000000    0.00000000
     atom  210 type  3   force =     0.00000000    0.00000000    0.00000000
     atom  211 type  3   force =     0.00000000    0.00000000    0.00000000
     atom  212 type  3   force =     0.00000000    0.00000000    0.00000000
     atom  213 type  3   force =     0.00000000    0.00000000    0.00000000
     atom  214 type  3   force =     0.00000000    0.00000000    0.00000000
     atom  215 type  3   force =     0.00000000    0.00000000    0.00000000
     atom  216 type  3   force =     0.00000000    0.00000000    0.00000000
     atom  217 type  1   force =     0.00000000    0.00000000    0.00000000
     atom  218 type  1   force =     0.00000000    0.00000000    0.00000000
     atom  219 type  1   force =     0.00000000    0.00000000    0.00000000
     atom  220 type  1   force =     0.00000000    0.00000000    0.00000000
     atom  221 type  1   force =     0.00000000    0.00000000    0.00000000
     atom  222 type  1   force =     0.00000000    0.00000000    0.00000000
     atom  223 type  1   force =     0.00000000    0.00000000    0.00000000
     atom  224 type  1   force =     0.00000000    0.00000000    0.00000000
     atom  225 type  2   force =     0.00000000    0.00000000    0.00000000
     atom  226 type  2   force =     0.00000000    0.00000000    0.00000000
     atom  227 type  2   force =     0.00000000    0.00000000    0.00000000
     atom  228 type  2   force =     0.00000000    0.00000000    0.00000000
     atom  229 type  2   force =     0.00000000    0.00000000    0.00000000
     atom  230 type  2   force =     0.00000000    0.00000000    0.00000000
     atom  231 type  2   force =     0.00000000    0.00000000    0.00000000
     atom  232 type  2   force =     0.00000000    0.00000000    0.00000000
     atom  233 type  3   force =     0.00000000    0.00000000    0.00000000
     atom  234 type  3   force =     0.00000000    0.00000000    0.00000000
     atom  235 type  3   force =     0.00000000    0.00000000    0.00000000
     atom  236 type  3   force =     0.00000000    0.00000000    0.00000000
     atom  237 type  3   force =     0.00000000    0.00000000    0.00000000
     atom  238 type  3   force =     0.00000000    0.00000000    0.00000000
     atom  239 type  3   force =     0.00000000    0.00000000    0.00000000
     atom  240 type  3   force =     0.00000000    0.00000000    0.00000000
     atom  241 type  1   force =     0.00000000    0.00000000    0.00000000
     atom  242 type  1   force =     0.00000000    0.00000000    0.00000000
     atom  243 type  1   force =     0.00000000    0.00000000    0.00000000
     atom  244 type  1   force =     0.00000000    0.00000000    0.00000000
     atom  245 type  1   force =     0.00000000    0.00000000    0.00000000
     atom  246 type  1   force =     0.00000000    0.00000000    0.00000000
     atom  247 type  1   force =     0.00000000    0.00000000    0.00000000
     atom  248 type  1   force =     0.00000000    0.00000000    0.00000000
     atom  249 type  1   force =     0.00000000    0.00000000    0.00000000
     atom  250 type  1   force =     0.00000000    0.00000000    0.00000000
     atom  251 type  1   force =     0.00000000    0.00000000    0.00000000
     atom  252 type  1   force =     0.00000000    0.00000000    0.00000000
     atom  253 type  1   force =     0.00000000    0.00000000    0.00000000
     atom  254 type  1   force =     0.00000000    0.00000000    0.00000000
     atom  255 type  1   force =     0.00000000    0.00000000    0.00000000
     atom  256 type  1   force =     0.00000000    0.00000000    0.00000000
     atom  257 type  2   force =     0.00000000    0.00000000    0.00000000
     atom  258 type  2   force =     0.00000000    0.00000000    0.00000000
     atom  259 type  2   force =     0.00000000    0.00000000    0.00000000
     atom  260 type  2   force =     0.00000000    0.00000000    0.00000000
     atom  261 type  2   force =     0.00000000    0.00000000    0.00000000
     atom  262 type  2   force =     0.00000000    0.00000000    0.00000000
     atom  263 type  2   force =     0.00000000    0.00000000    0.00000000
     atom  264 type  2   force =     0.00000000    0.00000000    0.00000000
     atom  265 type  2   force =     0.00000000    0.00000000    0.00000000
     atom  266 type  2   force =     0.00000000    0.00000000    0.00000000
     atom  267 type  2   force =     0.00000000    0.00000000    0.00000000
     atom  268 type  2   force =     0.00000000    0.00000000    0.00000000
     atom  269 type  2   force =     0.00000000    0.00000000    0.00000000
     atom  270 type  2   force =     0.00000000    0.00000000    0.00000000
     atom  271 type  2   force =     0.00000000    0.00000000    0.00000000
     atom  272 type  2   force =     0.00000000    0.00000000    0.00000000
     atom  273 type  2   force =     0.00000000    0.00000000    0.00000000
     atom  274 type  2   force =     0.00000000    0.00000000    0.00000000
     atom  275 type  2   force =     0.00000000    0.00000000    0.00000000
     atom  276 type  2   force =     0.00000000    0.00000000    0.00000000
     atom  277 type  2   force =     0.00000000    0.00000000    0.00000000
     atom  278 type  2   force =     0.00000000    0.00000000    0.00000000
     atom  279 type  2   force =     0.00000000    0.00000000    0.00000000
     atom  280 type  2   force =     0.00000000    0.00000000    0.00000000
     atom  281 type  3   force =     0.00000000    0.00000000    0.00000000
     atom  282 type  3   force =     0.00000000    0.00000000    0.00000000
     atom  283 type  3   force =     0.00000000    0.00000000    0.00000000
     atom  284 type  3   force =     0.00000000    0.00000000    0.00000000
     atom  285 type  3   force =     0.00000000    0.00000000    0.00000000
     atom  286 type  3   force =     0.00000000    0.00000000    0.00000000
     atom  287 type  3   force =     0.00000000    0.00000000    0.00000000
     atom  288 type  3   force =     0.00000000    0.00000000    0.00000000
     atom  289 type  2   force =     0.00000000    0.00000000    0.00000000
     atom  290 type  2   force =     0.00000000    0.00000000    0.00000000
     atom  291 type  2   force =     0.00000000    0.00000000    0.00000000
     atom  292 type  2   force =     0.00000000    0.00000000    0.00000000
     atom  293 type  2   force =     0.00000000    0.00000000    0.00000000
     atom  294 type  2   force =     0.00000000    0.00000000    0.00000000
     atom  295 type  2   force =     0.00000000    0.00000000    0.00000000
     atom  296 type  2   force =     0.00000000    0.00000000    0.00000000
     atom  297 type  3   force =     0.00000000    0.00000000    0.00000000
     atom  298 type  3   force =     0.00000000    0.00000000    0.00000000
     atom  299 type  3   force =     0.00000000    0.00000000    0.00000000
     atom  300 type  3   force =     0.00000000    0.00000000    0.00000000
     atom  301 type  3   force =     0.00000000    0.00000000    0.00000000
     atom  302 type  3   force =     0.00000000    0.00000000    0.00000000
     atom  303 type  3   force =     0.00000000    0.00000000    0.00000000
     atom  304 type  3   force =     0.00000000    0.00000000    0.00000000
     atom  305 type  1   force =     0.00000000    0.00000000    0.00000000
     atom  306 type  1   force =     0.00000000    0.00000000    0.00000000
     atom  307 type  1   force =     0.00000000    0.00000000    0.00000000
     atom  308 type  1   force =     0.00000000    0.00000000    0.00000000
     atom  309 type  1   force =     0.00000000    0.00000000    0.00000000
     atom  310 type  1   force =     0.00000000    0.00000000    0.00000000
     atom  311 type  1   force =     0.00000000    0.00000000    0.00000000
     atom  312 type  1   force =     0.00000000    0.00000000    0.00000000
     atom  313 type  1   force =     0.00000000    0.00000000    0.00000000
     atom  314 type  1   force =     0.00000000    0.00000000    0.00000000
     atom  315 type  1   force =     0.00000000    0.00000000    0.00000000
     atom  316 type  1   force =     0.00000000    0.00000000    0.00000000
     atom  317 type  1   force =     0.00000000    0.00000000    0.00000000
     atom  318 type  1   force =     0.00000000    0.00000000    0.00000000
     atom  319 type  1   force =     0.00000000    0.00000000    0.00000000
     atom  320 type  1   force =     0.00000000    0.00000000    0.00000000
     atom  321 type  2   force =     0.00000000    0.00000000    0.00000000
     atom  322 type  2   force =     0.00000000    0.00000000    0.00000000
     atom  323 type  2   force =     0.00000000    0.00000000    0.00000000
     atom  324 type  2   force =     0.00000000    0.00000000    0.00000000
     atom  325 type  2   force =     0.00000000    0.00000000    0.00000000
     atom  326 type  2   force =     0.00000000    0.00000000    0.00000000
     atom  327 type  2   force =     0.00000000    0.00000000    0.00000000
     atom  328 type  2   force =     0.00000000    0.00000000    0.00000000
     atom  329 type  3   force =     0.00000000    0.00000000    0.00000000
     atom  330 type  3   force =     0.00000000    0.00000000    0.00000000
     atom  331 type  3   force =     0.00000000    0.00000000    0.00000000
     atom  332 type  3   force =     0.00000000    0.00000000    0.00000000
     atom  333 type  3   force =     0.00000000    0.00000000    0.00000000
     atom  334 type  3   force =     0.00000000    0.00000000    0.00000000
     atom  335 type  3   force =     0.00000000    0.00000000    0.00000000
     atom  336 type  3   force =     0.00000000    0.00000000    0.00000000
     atom  337 type  1   force =     0.00000000    0.00000000    0.00000000
     atom  338 type  1   force =     0.00000000    0.00000000    0.00000000
     atom  339 type  1   force =     0.00000000    0.00000000    0.00000000
     atom  340 type  1   force =     0.00000000    0.00000000    0.00000000
     atom  341 type  1   force =     0.00000000    0.00000000    0.00000000
     atom  342 type  1   force =     0.00000000    0.00000000    0.00000000
     atom  343 type  1   force =     0.00000000    0.00000000    0.00000000
     atom  344 type  1   force =     0.00000000    0.00000000    0.00000000
     atom  345 type  2   force =     0.00000000    0.00000000    0.00000000
     atom  346 type  2   force =     0.00000000    0.00000000    0.00000000
     atom  347 type  2   force =     0.00000000    0.00000000    0.00000000
     atom  348 type  2   force =     0.00000000    0.00000000    0.00000000
     atom  349 type  2   force =     0.00000000    0.00000000    0.00000000
     atom  350 type  2   force =     0.00000000    0.00000000    0.00000000
     atom  351 type  2   force =     0.00000000    0.00000000    0.00000000
     atom  352 type  2   force =     0.00000000    0.00000000    0.00000000
     atom  353 type  3   force =     0.00000000    0.00000000    0.00000000
     atom  354 type  3   force =     0.00000000    0.00000000    0.00000000
     atom  355 type  3   force =     0.00000000    0.00000000    0.00000000
     atom  356 type  3   force =     0.00000000    0.00000000    0.00000000
     atom  357 type  3   force =     0.00000000    0.00000000    0.00000000
     atom  358 type  3   force =     0.00000000    0.00000000    0.00000000
     atom  359 type  3   force =     0.00000000    0.00000000    0.00000000
     atom  360 type  3   force =     0.00000000    0.00000000    0.00000000
     atom  361 type  1   force =     0.00000000    0.00000000    0.00000000
     atom  362 type  1   force =     0.00000000    0.00000000    0.00000000
     atom  363 type  1   force =     0.00000000    0.00000000    0.00000000
     atom  364 type  1   force =     0.00000000    0.00000000    0.00000000
     atom  365 type  1   force =     0.00000000    0.00000000    0.00000000
     atom  366 type  1   force =     0.00000000    0.00000000    0.00000000
     atom  367 type  1   force =     0.00000000    0.00000000    0.00000000
     atom  368 type  1   force =     0.00000000    0.00000000    0.00000000
     atom  369 type  1   force =     0.00000000    0.00000000    0.00000000
     atom  370 type  1   force =     0.00000000    0.00000000    0.00000000
     atom  371 type  1   force =     0.00000000    0.00000000    0.00000000
     atom  372 type  1   force =     0.00000000    0.00000000    0.00000000
     atom  373 type  1   force =     0.00000000    0.00000000    0.00000000
     atom  374 type  1   force =     0.00000000    0.00000000    0.00000000
     atom  375 type  1   force =     0.00000000    0.00000000    0.00000000
     atom  376 type  1   force =     0.00000000    0.00000000    0.00000000
     atom  377 type  2   force =     0.00000000    0.00000000    0.00000000
     atom  378 type  2   force =     0.00000000    0.00000000    0.00000000
     atom  379 type  2   force =     0.00000000    0.00000000    0.00000000
     atom  380 type  2   force =     0.00000000    0.00000000    0.00000000
     atom  381 type  2   force =     0.00000000    0.00000000    0.00000000
     atom  382 type  2   force =     0.00000000    0.00000000    0.00000000
     atom  383 type  2   force =     0.00000000    0.00000000    0.00000000
     atom  384 type  2   force =     0.00000000    0.00000000    0.00000000
     atom  385 type  2   force =     0.00000000    0.00000000    0.00000000
     atom  386 type  2   force =     0.00000000    0.00000000    0.00000000
     atom  387 type  2   force =     0.00000000    0.00000000    0.00000000
     atom  388 type  2   force =     0.00000000    0.00000000    0.00000000
     atom  389 type  2   force =     0.00000000    0.00000000    0.00000000
     atom  390 type  2   force =     0.00000000    0.00000000    0.00000000
     atom  391 type  2   force =     0.00000000    0.00000000    0.00000000
     atom  392 type  2   force =     0.00000000    0.00000000    0.00000000
     atom  393 type  2   force =     0.00000000    0.00000000    0.00000000
     atom  394 type  2   force =     0.00000000    0.00000000    0.00000000
     atom  395 type  2   force =     0.00000000    0.00000000    0.00000000
     atom  396 type  2   force =     0.00000000    0.00000000    0.00000000
     atom  397 type  2   force =     0.00000000    0.00000000    0.00000000
     atom  398 type  2   force =     0.00000000    0.00000000    0.00000000
     atom  399 type  2   force =     0.00000000    0.00000000    0.00000000
     atom  400 type  2   force =     0.00000000    0.00000000    0.00000000
     atom  401 type  3   force =     0.00000000    0.00000000    0.00000000
     atom  402 type  3   force =     0.00000000    0.00000000    0.00000000
     atom  403 type  3   force =     0.00000000    0.00000000    0.00000000
     atom  404 type  3   force =     0.00000000    0.00000000    0.00000000
     atom  405 type  3   force =     0.00000000    0.00000000    0.00000000
     atom  406 type  3   force =     0.00000000    0.00000000    0.00000000
     atom  407 type  3   force =     0.00000000    0.00000000    0.00000000
     atom  408 type  3   force =     0.00000000    0.00000000    0.00000000
     atom  409 type  2   force =     0.00000000    0.00000000    0.00000000
     atom  410 type  2   force =     0.00000000    0.00000000    0.00000000
     atom  411 type  2   force =     0.00000000    0.00000000    0.00000000
     atom  412 type  2   force =     0.00000000    0.00000000    0.00000000
     atom  413 type  2   force =     0.00000000    0.00000000    0.00000000
     atom  414 type  2   force =     0.00000000    0.00000000    0.00000000
     atom  415 type  2   force =     0.00000000    0.00000000    0.00000000
     atom  416 type  2   force =     0.00000000    0.00000000    0.00000000
     atom  417 type  3   force =     0.00000000    0.00000000    0.00000000
     atom  418 type  3   force =     0.00000000    0.00000000    0.00000000
     atom  419 type  3   force =     0.00000000    0.00000000    0.00000000
     atom  420 type  3   force =     0.00000000    0.00000000    0.00000000
     atom  421 type  3   force =     0.00000000    0.00000000    0.00000000
     atom  422 type  3   force =     0.00000000    0.00000000    0.00000000
     atom  423 type  3   force =     0.00000000    0.00000000    0.00000000
     atom  424 type  3   force =     0.00000000    0.00000000    0.00000000
     atom  425 type  1   force =     0.00000000    0.00000000    0.00000000
     atom  426 type  1   force =     0.00000000    0.00000000    0.00000000
     atom  427 type  1   force =     0.00000000    0.00000000    0.00000000
     atom  428 type  1   force =     0.00000000    0.00000000    0.00000000
     atom  429 type  1   force =     0.00000000    0.00000000    0.00000000
     atom  430 type  1   force =     0.00000000    0.00000000    0.00000000
     atom  431 type  1   force =     0.00000000    0.00000000    0.00000000
     atom  432 type  1   force =     0.00000000    0.00000000    0.00000000
     atom  433 type  1   force =     0.00000000    0.00000000    0.00000000
     atom  434 type  1   force =     0.00000000    0.00000000    0.00000000
     atom  435 type  1   force =     0.00000000    0.00000000    0.00000000
     atom  436 type  1   force =     0.00000000    0.00000000    0.00000000
     atom  437 type  1   force =     0.00000000    0.00000000    0.00000000
     atom  438 type  1   force =     0.00000000    0.00000000    0.00000000
     atom  439 type  1   force =     0.00000000    0.00000000    0.00000000
     atom  440 type  1   force =     0.00000000    0.00000000    0.00000000
     atom  441 type  2   force =     0.00000000    0.00000000    0.00000000
     atom  442 type  2   force =     0.00000000    0.00000000    0.00000000
     atom  443 type  2   force =     0.00000000    0.00000000    0.00000000
     atom  444 type  2   force =     0.00000000    0.00000000    0.00000000
     atom  445 type  2   force =     0.00000000    0.00000000    0.00000000
     atom  446 type  2   force =     0.00000000    0.00000000    0.00000000
     atom  447 type  2   force =     0.00000000    0.00000000    0.00000000
     atom  448 type  2   force =     0.00000000    0.00000000    0.00000000
     atom  449 type  3   force =     0.00000000    0.00000000    0.00000000
     atom  450 type  3   force =     0.00000000    0.00000000    0.00000000
     atom  451 type  3   force =     0.00000000    0.00000000    0.00000000
     atom  452 type  3   force =     0.00000000    0.00000000    0.00000000
     atom  453 type  3   force =     0.00000000    0.00000000    0.00000000
     atom  454 type  3   force =     0.00000000    0.00000000    0.00000000
     atom  455 type  3   force =     0.00000000    0.00000000    0.00000000
     atom  456 type  3   force =     0.00000000    0.00000000    0.00000000
     atom  457 type  1   force =     0.00000000    0.00000000    0.00000000
     atom  458 type  1   force =     0.00000000    0.00000000    0.00000000
     atom  459 type  1   force =     0.00000000    0.00000000    0.00000000
     atom  460 type  1   force =     0.00000000    0.00000000    0.00000000
     atom  461 type  1   force =     0.00000000    0.00000000    0.00000000
     atom  462 type  1   force =     0.00000000    0.00000000    0.00000000
     atom  463 type  1   force =     0.00000000    0.00000000    0.00000000
     atom  464 type  1   force =     0.00000000    0.00000000    0.00000000
     atom  465 type  2   force =     0.00000000    0.00000000    0.00000000
     atom  466 type  2   force =     0.00000000    0.00000000    0.00000000
     atom  467 type  2   force =     0.00000000    0.00000000    0.00000000
     atom  468 type  2   force =     0.00000000    0.00000000    0.00000000
     atom  469 type  2   force =     0.00000000    0.00000000    0.00000000
     atom  470 type  2   force =     0.00000000    0.00000000    0.00000000
     atom  471 type  2   force =     0.00000000    0.00000000    0.00000000
     atom  472 type  2   force =     0.00000000    0.00000000    0.00000000
     atom  473 type  3   force =     0.00000000    0.00000000    0.00000000
     atom  474 type  3   force =     0.00000000    0.00000000    0.00000000
     atom  475 type  3   force =     0.00000000    0.00000000    0.00000000
     atom  476 type  3   force =     0.00000000    0.00000000    0.00000000
     atom  477 type  3   force =     0.00000000    0.00000000    0.00000000
     atom  478 type  3   force =     0.00000000    0.00000000    0.00000000
     atom  479 type  3   force =     0.00000000    0.00000000    0.00000000
     atom  480 type  3   force =     0.00000000    0.00000000    0.00000000
     atom  481 type  4   force =     0.00000000    0.00000000    0.00000000
     atom  482 type  4   force =     0.00000000    0.00000000    0.00000000
     atom  483 type  4   force =     0.00000000    0.00000000    0.00000000
     atom  484 type  4   force =     0.00000000    0.00000000    0.00000000
     atom  485 type  4   force =     0.00000000    0.00000000    0.00000000
     atom  486 type  4   force =     0.00000000    0.00000000    0.00000000
     atom  487 type  4   force =     0.00000000    0.00000000    0.00000000
     atom  488 type  4   force =     0.00000000    0.00000000    0.00000000
     atom  489 type  4   force =     0.00000000    0.00000000    0.00000000
     atom  490 type  4   force =     0.00000000    0.00000000    0.00000000
     atom  491 type  4   force =     0.00000000    0.00000000    0.00000000
     atom  492 type  4   force =     0.00000000    0.00000000    0.00000000
     atom  493 type  4   force =     0.00000000    0.00000000    0.00000000
     atom  494 type  4   force =     0.00000000    0.00000000    0.00000000
     atom  495 type  4   force =     0.00000000    0.00000000    0.00000000
     atom  496 type  4   force =     0.00000000    0.00000000    0.00000000
     The SCF correction term to forces
     atom    1 type  1   force =    -0.00000290   -0.00000630   -0.00000527
     atom    2 type  1   force =    -0.00000818   -0.00001030   -0.00000671
     atom    3 type  1   force =     0.00000058   -0.00000826   -0.00000408
     atom    4 type  1   force =    -0.00000279   -0.00000545   -0.00000462
     atom    5 type  1   force =    -0.00000398   -0.00000675   -0.00000566
     atom    6 type  1   force =     0.00000117   -0.00000574   -0.00000471
     atom    7 type  1   force =    -0.00000044   -0.00000616   -0.00000513
     atom    8 type  1   force =    -0.00000347   -0.00000705   -0.00000584
     atom    9 type  1   force =    -0.00000220   -0.00001329   -0.00000639
     atom   10 type  1   force =     0.00000158   -0.00001117   -0.00000584
     atom   11 type  1   force =     0.00000093   -0.00000951   -0.00000464
     atom   12 type  1   force =     0.00000111   -0.00001471   -0.00000673
     atom   13 type  1   force =     0.00000279   -0.00000770   -0.00000479
     atom   14 type  1   force =    -0.00000039   -0.00001122   -0.00000621
     atom   15 type  1   force =     0.00000048   -0.00001237   -0.00000697
     atom   16 type  1   force =     0.00000184   -0.00000844   -0.00000530
     atom   17 type  2   force =     0.00000298   -0.00001378   -0.00000449
     atom   18 type  2   force =    -0.00000254   -0.00001146   -0.00000486
     atom   19 type  2   force =    -0.00000228   -0.00001070   -0.00000457
     atom   20 type  2   force =    -0.00000113   -0.00001543   -0.00000417
     atom   21 type  2   force =    -0.00000065   -0.00001180   -0.00000370
     atom   22 type  2   force =    -0.00000096   -0.00001481   -0.00000470
     atom   23 type  2   force =    -0.00000101   -0.00001456   -0.00000484
     atom   24 type  2   force =    -0.00000051   -0.00001240   -0.00000383
     atom   25 type  2   force =     0.00000092   -0.00002069   -0.00001236
     atom   26 type  2   force =     0.00000312   -0.00001860   -0.00001192
     atom   27 type  2   force =     0.00000282   -0.00001696   -0.00001088
     atom   28 type  2   force =     0.00000434   -0.00002160   -0.00001182
     atom   29 type  2   force =     0.00000362   -0.00001639   -0.00001028
     atom   30 type  2   force =     0.00000310   -0.00002025   -0.00001203
     atom   31 type  2   force =     0.00000360   -0.00002060   -0.00001244
     atom   32 type  2   force =     0.00000323   -0.00001729   -0.00001065
     atom   33 type  2   force =     0.00000515   -0.00000569   -0.00000284
     atom   34 type  2   force =     0.00000539   -0.00000717   -0.00000384
     atom   35 type  2   force =     0.00000596   -0.00000702   -0.00000376
     atom   36 type  2   force =     0.00000583   -0.00000559   -0.00000293
     atom   37 type  2   force =     0.00000708   -0.00000506   -0.00000347
     atom   38 type  2   force =     0.00000469   -0.00000498   -0.00000349
     atom   39 type  2   force =     0.00000451   -0.00000465   -0.00000348
     atom   40 type  2   force =     0.00000662   -0.00000724   -0.00000326
     atom   41 type  3   force =     0.00000090    0.00000044   -0.00000143
     atom   42 type  3   force =     0.00000100    0.00000067   -0.00000165
     atom   43 type  3   force =     0.00000110    0.00000075   -0.00000163
     atom   44 type  3   force =     0.00000097    0.00000059   -0.00000142
     atom   45 type  3   force =     0.00000164    0.00000050   -0.00000153
     atom   46 type  3   force =     0.00000097    0.00000078   -0.00000147
     atom   47 type  3   force =     0.00000096    0.00000078   -0.00000147
     atom   48 type  3   force =     0.00000137    0.00000057   -0.00000160
     atom   49 type  2   force =     0.00000003   -0.00000311    0.00000320
     atom   50 type  2   force =    -0.00000078   -0.00000681    0.00000274
     atom   51 type  2   force =    -0.00000030   -0.00000649    0.00000284
     atom   52 type  2   force =     0.00000014   -0.00000323    0.00000292
     atom   53 type  2   force =     0.00000192   -0.00000613    0.00000306
     atom   54 type  2   force =    -0.00000037   -0.00000175    0.00000242
     atom   55 type  2   force =    -0.00000042   -0.00000160    0.00000227
     atom   56 type  2   force =     0.00000115   -0.00000551    0.00000319
     atom   57 type  3   force =    -0.00000120   -0.00000032    0.00000087
     atom   58 type  3   force =    -0.00000152   -0.00000105    0.00000079
     atom   59 type  3   force =    -0.00000139   -0.00000090    0.00000077
     atom   60 type  3   force =    -0.00000125   -0.00000032    0.00000078
     atom   61 type  3   force =    -0.00000144   -0.00000064    0.00000083
     atom   62 type  3   force =    -0.00000082   -0.00000018    0.00000071
     atom   63 type  3   force =    -0.00000078   -0.00000023    0.00000071
     atom   64 type  3   force =    -0.00000150   -0.00000063    0.00000085
     atom   65 type  1   force =    -0.00000306   -0.00001852   -0.00001299
     atom   66 type  1   force =     0.00000084   -0.00001870   -0.00001326
     atom   67 type  1   force =    -0.00000017   -0.00001783   -0.00001264
     atom   68 type  1   force =     0.00000432   -0.00002192   -0.00001363
     atom   69 type  1   force =     0.00000131   -0.00001575   -0.00001210
     atom   70 type  1   force =    -0.00000084   -0.00001973   -0.00001306
     atom   71 type  1   force =     0.00000101   -0.00002036   -0.00001364
     atom   72 type  1   force =     0.00000058   -0.00001645   -0.00001206
     atom   73 type  1   force =    -0.00002168   -0.00002515   -0.00001814
     atom   74 type  1   force =    -0.00001730   -0.00002162   -0.00001642
     atom   75 type  1   force =    -0.00001607   -0.00002015   -0.00001482
     atom   76 type  1   force =    -0.00001858   -0.00002296   -0.00001676
     atom   77 type  1   force =    -0.00001445   -0.00001594   -0.00001419
     atom   78 type  1   force =    -0.00002008   -0.00002293   -0.00001725
     atom   79 type  1   force =    -0.00001969   -0.00002375   -0.00001811
     atom   80 type  1   force =    -0.00001623   -0.00001765   -0.00001486
     atom   81 type  2   force =     0.00000418   -0.00000683   -0.00000121
     atom   82 type  2   force =    -0.00000026   -0.00000296   -0.00000183
     atom   83 type  2   force =    -0.00000022   -0.00000255   -0.00000156
     atom   84 type  2   force =     0.00000293   -0.00000565   -0.00000105
     atom   85 type  2   force =     0.00000179   -0.00000408   -0.00000083
     atom   86 type  2   force =     0.00000352   -0.00000530   -0.00000137
     atom   87 type  2   force =     0.00000388   -0.00000531   -0.00000141
     atom   88 type  2   force =     0.00000214   -0.00000450   -0.00000090
     atom   89 type  3   force =    -0.00000018   -0.00000007   -0.00000087
     atom   90 type  3   force =     0.00000063   -0.00000036   -0.00000090
     atom   91 type  3   force =     0.00000060   -0.00000008   -0.00000089
     atom   92 type  3   force =    -0.00000016   -0.00000007   -0.00000072
     atom   93 type  3   force =     0.00000067   -0.00000004   -0.00000083
     atom   94 type  3   force =     0.00000047   -0.00000016   -0.00000076
     atom   95 type  3   force =     0.00000047   -0.00000021   -0.00000076
     atom   96 type  3   force =     0.00000064   -0.00000008   -0.00000088
     atom   97 type  1   force =     0.00000122    0.00000062    0.00000231
     atom   98 type  1   force =     0.00000556    0.00000110    0.00000251
     atom   99 type  1   force =     0.00000485    0.00000097    0.00000293
     atom  100 type  1   force =     0.00000124    0.00000048    0.00000228
     atom  101 type  1   force =     0.00000385   -0.00000091    0.00000285
     atom  102 type  1   force =     0.00000254    0.00000083    0.00000308
     atom  103 type  1   force =     0.00000303    0.00000104    0.00000278
     atom  104 type  1   force =     0.00000470   -0.00000066    0.00000298
     atom  105 type  2   force =    -0.00000684    0.00000572    0.00000094
     atom  106 type  2   force =    -0.00000762    0.00000959    0.00000102
     atom  107 type  2   force =    -0.00000943    0.00001015    0.00000132
     atom  108 type  2   force =    -0.00000691    0.00000537    0.00000071
     atom  109 type  2   force =    -0.00000792    0.00000979    0.00000082
     atom  110 type  2   force =    -0.00000605    0.00000670    0.00000141
     atom  111 type  2   force =    -0.00000597    0.00000694    0.00000124
     atom  112 type  2   force =    -0.00000784    0.00001036    0.00000081
     atom  113 type  3   force =     0.00000030   -0.00000108    0.00000034
     atom  114 type  3   force =     0.00000034   -0.00000116    0.00000006
     atom  115 type  3   force =     0.00000039   -0.00000124    0.00000015
     atom  116 type  3   force =     0.00000032   -0.00000113    0.00000031
     atom  117 type  3   force =     0.00000092   -0.00000078    0.00000020
     atom  118 type  3   force =     0.00000024   -0.00000067    0.00000027
     atom  119 type  3   force =     0.00000017   -0.00000059    0.00000022
     atom  120 type  3   force =     0.00000083   -0.00000116    0.00000024
     atom  121 type  1   force =     0.00000101    0.00000586   -0.00000451
     atom  122 type  1   force =     0.00000079    0.00000668   -0.00000554
     atom  123 type  1   force =     0.00000392    0.00000713   -0.00000588
     atom  124 type  1   force =     0.00000081    0.00000511   -0.00000346
     atom  125 type  1   force =     0.00000559    0.00000913   -0.00000484
     atom  126 type  1   force =     0.00000815    0.00000649   -0.00000637
     atom  127 type  1   force =     0.00000903    0.00000681   -0.00000609
     atom  128 type  1   force =     0.00000395    0.00000879   -0.00000484
     atom  129 type  1   force =    -0.00000272    0.00000937   -0.00000490
     atom  130 type  1   force =    -0.00000194    0.00001228   -0.00000651
     atom  131 type  1   force =    -0.00000109    0.00001184   -0.00000609
     atom  132 type  1   force =    -0.00000177    0.00000766   -0.00000322
     atom  133 type  1   force =     0.00000115    0.00001262   -0.00000452
     atom  134 type  1   force =     0.00000095    0.00000820   -0.00000454
     atom  135 type  1   force =     0.00000149    0.00000800   -0.00000396
     atom  136 type  1   force =     0.00000027    0.00001412   -0.00000588
     atom  137 type  2   force =     0.00000139    0.00001105   -0.00000350
     atom  138 type  2   force =     0.00000123    0.00001353   -0.00000482
     atom  139 type  2   force =     0.00000076    0.00001297   -0.00000481
     atom  140 type  2   force =     0.00000087    0.00001056   -0.00000317
     atom  141 type  2   force =    -0.00000039    0.00001497   -0.00000396
     atom  142 type  2   force =     0.00000048    0.00001058   -0.00000449
     atom  143 type  2   force =    -0.00000011    0.00001097   -0.00000424
     atom  144 type  2   force =     0.00000107    0.00001497   -0.00000417
     atom  145 type  2   force =    -0.00000332    0.00001655   -0.00001009
     atom  146 type  2   force =    -0.00000341    0.00001997   -0.00001230
     atom  147 type  2   force =    -0.00000218    0.00001988   -0.00001235
     atom  148 type  2   force =    -0.00000363    0.00001605   -0.00000944
     atom  149 type  2   force =    -0.00000180    0.00002095   -0.00001158
     atom  150 type  2   force =    -0.00000062    0.00001689   -0.00001129
     atom  151 type  2   force =    -0.00000051    0.00001734   -0.00001124
     atom  152 type  2   force =    -0.00000320    0.00002168   -0.00001200
     atom  153 type  2   force =    -0.00000765    0.00000654   -0.00000309
     atom  154 type  2   force =    -0.00000636    0.00000432   -0.00000346
     atom  155 type  2   force =    -0.00000647    0.00000425   -0.00000318
     atom  156 type  2   force =    -0.00000556    0.00000757   -0.00000324
     atom  157 type  2   force =    -0.00000463    0.00000585   -0.00000259
     atom  158 type  2   force =    -0.00000653    0.00000674   -0.00000365
     atom  159 type  2   force =    -0.00000686    0.00000659   -0.00000369
     atom  160 type  2   force =    -0.00000518    0.00000551   -0.00000241
     atom  161 type  3   force =    -0.00000145   -0.00000088   -0.00000156
     atom  162 type  3   force =    -0.00000114   -0.00000084   -0.00000153
     atom  163 type  3   force =    -0.00000117   -0.00000083   -0.00000144
     atom  164 type  3   force =    -0.00000126   -0.00000036   -0.00000161
     atom  165 type  3   force =    -0.00000086   -0.00000026   -0.00000138
     atom  166 type  3   force =    -0.00000116   -0.00000069   -0.00000161
     atom  167 type  3   force =    -0.00000120   -0.00000065   -0.00000165
     atom  168 type  3   force =    -0.00000102   -0.00000028   -0.00000131
     atom  169 type  2   force =    -0.00000055    0.00000164    0.00000264
     atom  170 type  2   force =    -0.00000050    0.00000595    0.00000311
     atom  171 type  2   force =    -0.00000116    0.00000610    0.00000335
     atom  172 type  2   force =    -0.00000007    0.00000142    0.00000251
     atom  173 type  2   force =     0.00000004    0.00000533    0.00000305
     atom  174 type  2   force =    -0.00000104    0.00000167    0.00000304
     atom  175 type  2   force =    -0.00000078    0.00000213    0.00000287
     atom  176 type  2   force =    -0.00000014    0.00000541    0.00000299
     atom  177 type  3   force =     0.00000078    0.00000020    0.00000075
     atom  178 type  3   force =     0.00000119    0.00000080    0.00000081
     atom  179 type  3   force =     0.00000137    0.00000073    0.00000087
     atom  180 type  3   force =     0.00000080    0.00000010    0.00000075
     atom  181 type  3   force =     0.00000148    0.00000073    0.00000088
     atom  182 type  3   force =     0.00000070    0.00000027    0.00000082
     atom  183 type  3   force =     0.00000066    0.00000035    0.00000079
     atom  184 type  3   force =     0.00000159    0.00000081    0.00000087
     atom  185 type  1   force =    -0.00000151    0.00001681   -0.00001175
     atom  186 type  1   force =    -0.00000211    0.00002025   -0.00001340
     atom  187 type  1   force =     0.00000073    0.00001973   -0.00001327
     atom  188 type  1   force =    -0.00000030    0.00001682   -0.00001129
     atom  189 type  1   force =     0.00000221    0.00002013   -0.00001282
     atom  190 type  1   force =     0.00000530    0.00001588   -0.00001243
     atom  191 type  1   force =     0.00000629    0.00001600   -0.00001246
     atom  192 type  1   force =    -0.00000057    0.00002147   -0.00001366
     atom  193 type  1   force =     0.00001392    0.00001848   -0.00001458
     atom  194 type  1   force =     0.00001759    0.00002193   -0.00001621
     atom  195 type  1   force =     0.00001883    0.00002256   -0.00001663
     atom  196 type  1   force =     0.00001474    0.00001787   -0.00001336
     atom  197 type  1   force =     0.00002088    0.00002434   -0.00001667
     atom  198 type  1   force =     0.00001849    0.00002105   -0.00001623
     atom  199 type  1   force =     0.00001938    0.00002184   -0.00001649
     atom  200 type  1   force =     0.00002027    0.00002502   -0.00001771
     atom  201 type  2   force =    -0.00000027    0.00000303   -0.00000100
     atom  202 type  2   force =    -0.00000372    0.00000479   -0.00000147
     atom  203 type  2   force =    -0.00000420    0.00000443   -0.00000125
     atom  204 type  2   force =    -0.00000058    0.00000274   -0.00000056
     atom  205 type  2   force =    -0.00000441    0.00000673   -0.00000092
     atom  206 type  2   force =    -0.00000147    0.00000333   -0.00000137
     atom  207 type  2   force =    -0.00000133    0.00000396   -0.00000126
     atom  208 type  2   force =    -0.00000222    0.00000561   -0.00000120
     atom  209 type  3   force =    -0.00000010    0.00000009   -0.00000080
     atom  210 type  3   force =    -0.00000057    0.00000013   -0.00000090
     atom  211 type  3   force =    -0.00000035    0.00000011   -0.00000075
     atom  212 type  3   force =    -0.00000019    0.00000006   -0.00000064
     atom  213 type  3   force =    -0.00000059    0.00000052   -0.00000083
     atom  214 type  3   force =     0.00000017    0.00000031   -0.00000067
     atom  215 type  3   force =     0.00000009    0.00000040   -0.00000071
     atom  216 type  3   force =    -0.00000041    0.00000025   -0.00000092
     atom  217 type  1   force =    -0.00000237   -0.00000049    0.00000280
     atom  218 type  1   force =    -0.00000640   -0.00000093    0.00000274
     atom  219 type  1   force =    -0.00000717   -0.00000089    0.00000296
     atom  220 type  1   force =    -0.00000295   -0.00000101    0.00000318
     atom  221 type  1   force =    -0.00000624    0.00000068    0.00000319
     atom  222 type  1   force =    -0.00000357   -0.00000070    0.00000241
     atom  223 type  1   force =    -0.00000338   -0.00000050    0.00000252
     atom  224 type  1   force =    -0.00000352    0.00000116    0.00000306
     atom  225 type  2   force =     0.00000623   -0.00000797    0.00000140
     atom  226 type  2   force =     0.00000704   -0.00000998    0.00000037
     atom  227 type  2   force =     0.00000763   -0.00000993    0.00000060
     atom  228 type  2   force =     0.00000684   -0.00000831    0.00000125
     atom  229 type  2   force =     0.00000772   -0.00000986    0.00000107
     atom  230 type  2   force =     0.00000591   -0.00000553    0.00000071
     atom  231 type  2   force =     0.00000548   -0.00000496    0.00000053
     atom  232 type  2   force =     0.00000888   -0.00001081    0.00000124
     atom  233 type  3   force =    -0.00000028    0.00000083    0.00000029
     atom  234 type  3   force =    -0.00000072    0.00000104    0.00000016
     atom  235 type  3   force =    -0.00000080    0.00000115    0.00000026
     atom  236 type  3   force =    -0.00000024    0.00000082    0.00000028
     atom  237 type  3   force =    -0.00000029    0.00000140    0.00000022
     atom  238 type  3   force =    -0.00000028    0.00000109    0.00000036
     atom  239 type  3   force =    -0.00000032    0.00000111    0.00000031
     atom  240 type  3   force =    -0.00000026    0.00000139    0.00000019
     atom  241 type  1   force =    -0.00000947    0.00000710    0.00000660
     atom  242 type  1   force =    -0.00000704    0.00000182    0.00000532
     atom  243 type  1   force =    -0.00000582    0.00000137    0.00000571
     atom  244 type  1   force =    -0.00000925    0.00000959    0.00000699
     atom  245 type  1   force =    -0.00000678    0.00001066    0.00000659
     atom  246 type  1   force =    -0.00000666    0.00000352    0.00000559
     atom  247 type  1   force =    -0.00000704    0.00000556    0.00000642
     atom  248 type  1   force =    -0.00000666    0.00000875    0.00000633
     atom  249 type  1   force =    -0.00001339    0.00000095    0.00000682
     atom  250 type  1   force =    -0.00001055   -0.00000274    0.00000580
     atom  251 type  1   force =    -0.00001056   -0.00000193    0.00000715
     atom  252 type  1   force =    -0.00001047    0.00000306    0.00000539
     atom  253 type  1   force =    -0.00000655    0.00000220    0.00000358
     atom  254 type  1   force =    -0.00001051   -0.00000014    0.00000519
     atom  255 type  1   force =    -0.00000999    0.00000058    0.00000547
     atom  256 type  1   force =    -0.00000796    0.00000080    0.00000441
     atom  257 type  2   force =    -0.00001529   -0.00000085    0.00000431
     atom  258 type  2   force =    -0.00001289    0.00000089    0.00000397
     atom  259 type  2   force =    -0.00001293    0.00000167    0.00000457
     atom  260 type  2   force =    -0.00001412   -0.00000258    0.00000444
     atom  261 type  2   force =    -0.00001065   -0.00000047    0.00000419
     atom  262 type  2   force =    -0.00001333    0.00000054    0.00000434
     atom  263 type  2   force =    -0.00001318   -0.00000041    0.00000471
     atom  264 type  2   force =    -0.00001148    0.00000067    0.00000438
     atom  265 type  2   force =    -0.00002189   -0.00000150    0.00001272
     atom  266 type  2   force =    -0.00001897   -0.00000312    0.00001142
     atom  267 type  2   force =    -0.00001888   -0.00000406    0.00001177
     atom  268 type  2   force =    -0.00002003   -0.00000017    0.00001225
     atom  269 type  2   force =    -0.00001616   -0.00000009    0.00001059
     atom  270 type  2   force =    -0.00001914   -0.00000237    0.00001171
     atom  271 type  2   force =    -0.00001887   -0.00000167    0.00001214
     atom  272 type  2   force =    -0.00001741   -0.00000088    0.00001120
     atom  273 type  2   force =    -0.00000681   -0.00000881    0.00000337
     atom  274 type  2   force =    -0.00000597   -0.00000572    0.00000267
     atom  275 type  2   force =    -0.00000634   -0.00000561    0.00000328
     atom  276 type  2   force =    -0.00000516   -0.00000979    0.00000358
     atom  277 type  2   force =    -0.00000370   -0.00000617    0.00000337
     atom  278 type  2   force =    -0.00000638   -0.00000598    0.00000336
     atom  279 type  2   force =    -0.00000584   -0.00000622    0.00000359
     atom  280 type  2   force =    -0.00000443   -0.00000571    0.00000344
     atom  281 type  3   force =     0.00000082   -0.00000155    0.00000165
     atom  282 type  3   force =     0.00000052   -0.00000109    0.00000134
     atom  283 type  3   force =     0.00000052   -0.00000104    0.00000147
     atom  284 type  3   force =     0.00000115   -0.00000169    0.00000158
     atom  285 type  3   force =     0.00000108   -0.00000109    0.00000146
     atom  286 type  3   force =     0.00000073   -0.00000114    0.00000154
     atom  287 type  3   force =     0.00000080   -0.00000121    0.00000157
     atom  288 type  3   force =     0.00000099   -0.00000103    0.00000153
     atom  289 type  2   force =    -0.00000618   -0.00000131   -0.00000321
     atom  290 type  2   force =    -0.00000293   -0.00000116   -0.00000299
     atom  291 type  2   force =    -0.00000341   -0.00000064   -0.00000257
     atom  292 type  2   force =    -0.00000601   -0.00000171   -0.00000286
     atom  293 type  2   force =    -0.00000134   -0.00000033   -0.00000207
     atom  294 type  2   force =    -0.00000584    0.00000007   -0.00000304
     atom  295 type  2   force =    -0.00000605    0.00000012   -0.00000294
     atom  296 type  2   force =    -0.00000132   -0.00000020   -0.00000217
     atom  297 type  3   force =    -0.00000084    0.00000145   -0.00000088
     atom  298 type  3   force =    -0.00000031    0.00000075   -0.00000079
     atom  299 type  3   force =    -0.00000038    0.00000083   -0.00000071
     atom  300 type  3   force =    -0.00000071    0.00000144   -0.00000081
     atom  301 type  3   force =    -0.00000014    0.00000075   -0.00000064
     atom  302 type  3   force =    -0.00000083    0.00000118   -0.00000079
     atom  303 type  3   force =    -0.00000070    0.00000124   -0.00000076
     atom  304 type  3   force =    -0.00000021    0.00000065   -0.00000063
     atom  305 type  1   force =    -0.00002018    0.00000244    0.00001342
     atom  306 type  1   force =    -0.00001766   -0.00000050    0.00001232
     atom  307 type  1   force =    -0.00001874   -0.00000193    0.00001314
     atom  308 type  1   force =    -0.00001798    0.00000623    0.00001288
     atom  309 type  1   force =    -0.00001453    0.00000834    0.00001116
     atom  310 type  1   force =    -0.00001898    0.00000132    0.00001295
     atom  311 type  1   force =    -0.00001800    0.00000291    0.00001338
     atom  312 type  1   force =    -0.00001605    0.00000614    0.00001196
     atom  313 type  1   force =    -0.00002554    0.00002190    0.00001856
     atom  314 type  1   force =    -0.00002005    0.00001649    0.00001594
     atom  315 type  1   force =    -0.00002061    0.00001720    0.00001708
     atom  316 type  1   force =    -0.00002429    0.00002282    0.00001763
     atom  317 type  1   force =    -0.00002114    0.00001884    0.00001570
     atom  318 type  1   force =    -0.00002184    0.00001854    0.00001584
     atom  319 type  1   force =    -0.00002210    0.00001934    0.00001694
     atom  320 type  1   force =    -0.00002159    0.00001868    0.00001634
     atom  321 type  2   force =    -0.00000699   -0.00000517    0.00000113
     atom  322 type  2   force =    -0.00000472   -0.00000113    0.00000121
     atom  323 type  2   force =    -0.00000455   -0.00000175    0.00000159
     atom  324 type  2   force =    -0.00000757   -0.00000670    0.00000125
     atom  325 type  2   force =    -0.00000381   -0.00000107    0.00000157
     atom  326 type  2   force =    -0.00000487   -0.00000374    0.00000110
     atom  327 type  2   force =    -0.00000527   -0.00000454    0.00000138
     atom  328 type  2   force =    -0.00000351   -0.00000014    0.00000169
     atom  329 type  3   force =    -0.00000058   -0.00000064    0.00000086
     atom  330 type  3   force =    -0.00000037   -0.00000033    0.00000088
     atom  331 type  3   force =    -0.00000031   -0.00000042    0.00000092
     atom  332 type  3   force =    -0.00000080   -0.00000077    0.00000084
     atom  333 type  3   force =    -0.00000050    0.00000018    0.00000079
     atom  334 type  3   force =    -0.00000019   -0.00000058    0.00000080
     atom  335 type  3   force =    -0.00000022   -0.00000060    0.00000086
     atom  336 type  3   force =    -0.00000032    0.00000019    0.00000086
     atom  337 type  1   force =    -0.00000083   -0.00000765   -0.00000291
     atom  338 type  1   force =    -0.00000033   -0.00000266   -0.00000274
     atom  339 type  1   force =    -0.00000028   -0.00000300   -0.00000238
     atom  340 type  1   force =    -0.00000058   -0.00000883   -0.00000249
     atom  341 type  1   force =     0.00000032   -0.00000284   -0.00000199
     atom  342 type  1   force =    -0.00000077   -0.00000495   -0.00000321
     atom  343 type  1   force =    -0.00000035   -0.00000498   -0.00000285
     atom  344 type  1   force =    -0.00000006   -0.00000170   -0.00000212
     atom  345 type  2   force =     0.00000848    0.00000720   -0.00000097
     atom  346 type  2   force =     0.00000498    0.00000626   -0.00000154
     atom  347 type  2   force =     0.00000408    0.00000474   -0.00000070
     atom  348 type  2   force =     0.00000876    0.00000761   -0.00000136
     atom  349 type  2   force =     0.00000889    0.00000786   -0.00000126
     atom  350 type  2   force =     0.00000994    0.00000926   -0.00000129
     atom  351 type  2   force =     0.00001072    0.00001054   -0.00000170
     atom  352 type  2   force =     0.00000862    0.00000780   -0.00000112
     atom  353 type  3   force =    -0.00000142   -0.00000072   -0.00000028
     atom  354 type  3   force =    -0.00000108   -0.00000057   -0.00000044
     atom  355 type  3   force =    -0.00000114   -0.00000057   -0.00000028
     atom  356 type  3   force =    -0.00000126   -0.00000074   -0.00000024
     atom  357 type  3   force =    -0.00000074   -0.00000013   -0.00000019
     atom  358 type  3   force =    -0.00000109   -0.00000037   -0.00000020
     atom  359 type  3   force =    -0.00000099   -0.00000048   -0.00000025
     atom  360 type  3   force =    -0.00000076   -0.00000012   -0.00000020
     atom  361 type  1   force =     0.00000739   -0.00000446    0.00000602
     atom  362 type  1   force =     0.00000540   -0.00000826    0.00000566
     atom  363 type  1   force =     0.00000619   -0.00001050    0.00000539
     atom  364 type  1   force =     0.00000641   -0.00000452    0.00000612
     atom  365 type  1   force =     0.00000618    0.00000012    0.00000496
     atom  366 type  1   force =     0.00000973   -0.00000805    0.00000501
     atom  367 type  1   force =     0.00000853   -0.00000440    0.00000451
     atom  368 type  1   force =     0.00000706   -0.00000042    0.00000518
     atom  369 type  1   force =     0.00000917   -0.00000270    0.00000468
     atom  370 type  1   force =     0.00000976   -0.00000081    0.00000574
     atom  371 type  1   force =     0.00001098   -0.00000040    0.00000581
     atom  372 type  1   force =     0.00000941   -0.00000157    0.00000546
     atom  373 type  1   force =     0.00001374   -0.00000083    0.00000587
     atom  374 type  1   force =     0.00001144    0.00000313    0.00000613
     atom  375 type  1   force =     0.00001070    0.00000335    0.00000600
     atom  376 type  1   force =     0.00001223   -0.00000251    0.00000449
     atom  377 type  2   force =     0.00001050   -0.00000046    0.00000353
     atom  378 type  2   force =     0.00001239    0.00000001    0.00000448
     atom  379 type  2   force =     0.00001293   -0.00000025    0.00000429
     atom  380 type  2   force =     0.00000988   -0.00000122    0.00000445
     atom  381 type  2   force =     0.00001492    0.00000000    0.00000388
     atom  382 type  2   force =     0.00001327   -0.00000176    0.00000403
     atom  383 type  2   force =     0.00001280   -0.00000168    0.00000412
     atom  384 type  2   force =     0.00001528    0.00000177    0.00000337
     atom  385 type  2   force =     0.00001698    0.00000166    0.00001049
     atom  386 type  2   force =     0.00001808    0.00000195    0.00001177
     atom  387 type  2   force =     0.00001900    0.00000209    0.00001181
     atom  388 type  2   force =     0.00001736    0.00000295    0.00001131
     atom  389 type  2   force =     0.00002182    0.00000357    0.00001190
     atom  390 type  2   force =     0.00001967    0.00000372    0.00001142
     atom  391 type  2   force =     0.00001953    0.00000419    0.00001166
     atom  392 type  2   force =     0.00002123    0.00000109    0.00001146
     atom  393 type  2   force =     0.00000378    0.00000554    0.00000236
     atom  394 type  2   force =     0.00000539    0.00000597    0.00000335
     atom  395 type  2   force =     0.00000588    0.00000639    0.00000309
     atom  396 type  2   force =     0.00000408    0.00000445    0.00000318
     atom  397 type  2   force =     0.00000677    0.00000786    0.00000304
     atom  398 type  2   force =     0.00000681    0.00000578    0.00000285
     atom  399 type  2   force =     0.00000670    0.00000605    0.00000306
     atom  400 type  2   force =     0.00000586    0.00000930    0.00000268
     atom  401 type  3   force =    -0.00000108    0.00000100    0.00000122
     atom  402 type  3   force =    -0.00000081    0.00000115    0.00000150
     atom  403 type  3   force =    -0.00000081    0.00000117    0.00000151
     atom  404 type  3   force =    -0.00000071    0.00000100    0.00000137
     atom  405 type  3   force =    -0.00000082    0.00000150    0.00000155
     atom  406 type  3   force =    -0.00000051    0.00000100    0.00000144
     atom  407 type  3   force =    -0.00000047    0.00000107    0.00000153
     atom  408 type  3   force =    -0.00000122    0.00000157    0.00000146
     atom  409 type  2   force =     0.00000550    0.00000044   -0.00000288
     atom  410 type  2   force =     0.00000183    0.00000024   -0.00000304
     atom  411 type  2   force =     0.00000098   -0.00000011   -0.00000243
     atom  412 type  2   force =     0.00000564    0.00000012   -0.00000340
     atom  413 type  2   force =     0.00000318    0.00000065   -0.00000287
     atom  414 type  2   force =     0.00000596    0.00000065   -0.00000334
     atom  415 type  2   force =     0.00000725    0.00000099   -0.00000374
     atom  416 type  2   force =     0.00000232    0.00000078   -0.00000277
     atom  417 type  3   force =     0.00000084   -0.00000122   -0.00000080
     atom  418 type  3   force =     0.00000023   -0.00000067   -0.00000078
     atom  419 type  3   force =     0.00000017   -0.00000056   -0.00000071
     atom  420 type  3   force =     0.00000077   -0.00000124   -0.00000092
     atom  421 type  3   force =     0.00000033   -0.00000100   -0.00000077
     atom  422 type  3   force =     0.00000071   -0.00000145   -0.00000084
     atom  423 type  3   force =     0.00000080   -0.00000162   -0.00000091
     atom  424 type  3   force =     0.00000019   -0.00000102   -0.00000076
     atom  425 type  1   force =     0.00001615   -0.00000388    0.00001174
     atom  426 type  1   force =     0.00001753   -0.00000173    0.00001319
     atom  427 type  1   force =     0.00001849   -0.00000125    0.00001310
     atom  428 type  1   force =     0.00001732   -0.00000178    0.00001277
     atom  429 type  1   force =     0.00002134    0.00000095    0.00001307
     atom  430 type  1   force =     0.00001908    0.00000173    0.00001197
     atom  431 type  1   force =     0.00001907    0.00000195    0.00001232
     atom  432 type  1   force =     0.00001946   -0.00000392    0.00001228
     atom  433 type  1   force =     0.00002377   -0.00002007    0.00001778
     atom  434 type  1   force =     0.00002106   -0.00001893    0.00001637
     atom  435 type  1   force =     0.00002215   -0.00001900    0.00001643
     atom  436 type  1   force =     0.00002380   -0.00001983    0.00001833
     atom  437 type  1   force =     0.00002559   -0.00002166    0.00001810
     atom  438 type  1   force =     0.00002029   -0.00001681    0.00001503
     atom  439 type  1   force =     0.00001985   -0.00001711    0.00001534
     atom  440 type  1   force =     0.00002525   -0.00002290    0.00001717
     atom  441 type  2   force =     0.00000376    0.00000101    0.00000093
     atom  442 type  2   force =     0.00000527    0.00000379    0.00000153
     atom  443 type  2   force =     0.00000541    0.00000408    0.00000127
     atom  444 type  2   force =     0.00000243   -0.00000066    0.00000147
     atom  445 type  2   force =     0.00000627    0.00000469    0.00000065
     atom  446 type  2   force =     0.00000423    0.00000149    0.00000136
     atom  447 type  2   force =     0.00000369    0.00000125    0.00000131
     atom  448 type  2   force =     0.00000797    0.00000705    0.00000020
     atom  449 type  3   force =     0.00000038    0.00000050    0.00000093
     atom  450 type  3   force =     0.00000018   -0.00000025    0.00000078
     atom  451 type  3   force =     0.00000043   -0.00000008    0.00000074
     atom  452 type  3   force =     0.00000035    0.00000061    0.00000095
     atom  453 type  3   force =     0.00000020    0.00000029    0.00000085
     atom  454 type  3   force =     0.00000070    0.00000084    0.00000065
     atom  455 type  3   force =     0.00000042    0.00000068    0.00000076
     atom  456 type  3   force =     0.00000025    0.00000027    0.00000089
     atom  457 type  1   force =     0.00000072    0.00000562   -0.00000304
     atom  458 type  1   force =    -0.00000017    0.00000103   -0.00000241
     atom  459 type  1   force =     0.00000021    0.00000263   -0.00000287
     atom  460 type  1   force =     0.00000068    0.00000535   -0.00000243
     atom  461 type  1   force =    -0.00000145    0.00000367   -0.00000246
     atom  462 type  1   force =     0.00000092    0.00000829   -0.00000373
     atom  463 type  1   force =     0.00000068    0.00000613   -0.00000342
     atom  464 type  1   force =    -0.00000082    0.00000356   -0.00000246
     atom  465 type  2   force =    -0.00001056   -0.00001005   -0.00000121
     atom  466 type  2   force =    -0.00000762   -0.00000748   -0.00000151
     atom  467 type  2   force =    -0.00000801   -0.00000763   -0.00000090
     atom  468 type  2   force =    -0.00000990   -0.00001042   -0.00000087
     atom  469 type  2   force =    -0.00000504   -0.00000659   -0.00000036
     atom  470 type  2   force =    -0.00000876   -0.00000731   -0.00000090
     atom  471 type  2   force =    -0.00000873   -0.00000745   -0.00000090
     atom  472 type  2   force =    -0.00000505   -0.00000644   -0.00000046
     atom  473 type  3   force =     0.00000096    0.00000037   -0.00000022
     atom  474 type  3   force =     0.00000073    0.00000016   -0.00000045
     atom  475 type  3   force =     0.00000060    0.00000002   -0.00000028
     atom  476 type  3   force =     0.00000113    0.00000037   -0.00000032
     atom  477 type  3   force =     0.00000130    0.00000052   -0.00000030
     atom  478 type  3   force =     0.00000123    0.00000069   -0.00000026
     atom  479 type  3   force =     0.00000130    0.00000080   -0.00000034
     atom  480 type  3   force =     0.00000133    0.00000044   -0.00000028
     atom  481 type  4   force =    -0.00000198    0.00000281    0.00000056
     atom  482 type  4   force =    -0.00000230   -0.00000651    0.00000194
     atom  483 type  4   force =     0.00000627   -0.00000715    0.00000474
     atom  484 type  4   force =    -0.00000393    0.00000400    0.00000184
     atom  485 type  4   force =    -0.00000246    0.00000787    0.00000227
     atom  486 type  4   force =     0.00000992   -0.00000269   -0.00000325
     atom  487 type  4   force =     0.00000712    0.00000129   -0.00000239
     atom  488 type  4   force =    -0.00000122    0.00000574    0.00000205
     atom  489 type  4   force =     0.00000053    0.00000318   -0.00000299
     atom  490 type  4   force =     0.00000398    0.00000130   -0.00000286
     atom  491 type  4   force =     0.00000322   -0.00000179   -0.00000423
     atom  492 type  4   force =     0.00000224    0.00000166   -0.00000100
     atom  493 type  4   force =    -0.00000231    0.00000345   -0.00000357
     atom  494 type  4   force =    -0.00000303   -0.00000020    0.00000298
     atom  495 type  4   force =     0.00000176    0.00000170    0.00000276
     atom  496 type  4   force =    -0.00000138    0.00000495   -0.00000189

     Total force =     0.021894     Total SCF correction =     0.000306


     Computing stress (Cartesian axis) and pressure

          total   stress  (Ry/bohr**3)                   (kbar)     P=       -2.01
  -0.00001397   0.00000012  -0.00000003           -2.05        0.02       -0.00
   0.00000012  -0.00001490   0.00000006            0.02       -2.19        0.01
  -0.00000003   0.00000006  -0.00001220           -0.00        0.01       -1.79

     kinetic stress (kbar)  10030.34     -0.01     -0.01
                               -0.01  10030.40     -0.01
                               -0.01     -0.01  10716.57

     local   stress (kbar) -23379.86     -0.49     -0.03
                               -0.49 -23377.91      0.13
                               -0.03      0.13  -2297.35

     nonloc. stress (kbar)   2420.52      0.00     -0.00
                                0.00   2420.48      0.00
                               -0.00      0.00   2341.30

     hartree stress (kbar)  13178.83      0.18     -0.03
                                0.18  13178.21     -0.11
                               -0.03     -0.11   6149.33

     exc-cor stress (kbar)  -1776.02      0.00      0.00
                                0.00  -1776.02      0.00
                                0.00      0.00  -1797.58

     corecor stress (kbar)  -1052.43     -0.00     -0.00
                               -0.00  -1052.42     -0.00
                               -0.00     -0.00  -1036.21

     ewald   stress (kbar)    576.57      0.33      0.07
                                0.33    575.07     -0.01
                                0.07     -0.01 -14077.87

     hubbard stress (kbar)      0.00      0.00      0.00
                                0.00      0.00      0.00
                                0.00      0.00      0.00

     DFT-D   stress (kbar)      0.00      0.00      0.00
                                0.00      0.00      0.00
                                0.00      0.00      0.00

     XDM     stress (kbar)      0.00      0.00      0.00
                                0.00      0.00      0.00
                                0.00      0.00      0.00

     dft-nl  stress (kbar)      0.00      0.00      0.00
                                0.00      0.00      0.00
                                0.00      0.00      0.00

     TS-vdW  stress (kbar)      0.00      0.00      0.00
                                0.00      0.00      0.00
                                0.00      0.00      0.00

     MDB     stress (kbar)      0.00      0.00      0.00
                                0.00      0.00      0.00
                                0.00      0.00      0.00

     3D-RISM stress (kbar)      0.00      0.00      0.00
                                0.00      0.00      0.00
                                0.00      0.00      0.00


     init_run     :    152.63s CPU    157.09s WALL (       1 calls)
     electrons    :   5951.12s CPU   6088.00s WALL (       1 calls)
     forces       :     77.93s CPU     81.26s WALL (       1 calls)
     stress       :   1718.74s CPU   1735.18s WALL (       1 calls)

     Called by init_run:
     wfcinit      :    141.75s CPU    145.34s WALL (       1 calls)
     wfcinit:atom :      0.15s CPU      0.30s WALL (       1 calls)
     wfcinit:wfcr :    140.10s CPU    143.11s WALL (       1 calls)
     potinit      :      4.47s CPU      4.50s WALL (       1 calls)
     hinit0       :      3.50s CPU      3.53s WALL (       1 calls)

     Called by electrons:
     c_bands      :   5455.15s CPU   5556.11s WALL (      17 calls)
     sum_band     :    453.65s CPU    478.15s WALL (      17 calls)
     v_of_rho     :      5.34s CPU      5.53s WALL (      18 calls)
     v_h          :      0.37s CPU      0.39s WALL (      18 calls)
     v_xc         :      5.48s CPU      5.67s WALL (      20 calls)
     newd         :     24.41s CPU     36.09s WALL (      18 calls)
     PAW_pot      :     12.16s CPU     12.21s WALL (      18 calls)
     mix_rho      :      1.80s CPU      1.95s WALL (      17 calls)

     Called by c_bands:
     init_us_2    :     10.11s CPU     11.63s WALL (      35 calls)
     init_us_2:cp :     10.11s CPU     11.63s WALL (      35 calls)
     cegterg      :   5433.07s CPU   5532.11s WALL (      17 calls)

     Called by sum_band:
     sum_band:wei :      0.00s CPU      0.00s WALL (      17 calls)
     sum_band:loo :    431.07s CPU    442.23s WALL (      17 calls)
     sum_band:buf :      0.00s CPU      0.00s WALL (      17 calls)
     sum_band:ini :      4.82s CPU      5.58s WALL (      17 calls)
     sum_band:cal :    247.63s CPU    250.84s WALL (      17 calls)
     sum_band:bec :      0.78s CPU      0.79s WALL (      17 calls)
     addusdens    :     19.17s CPU     31.39s WALL (      17 calls)
                                        0.00s GPU  (      17 calls)
     addusd:skk   :      5.05s CPU     10.50s WALL (      68 calls)
                                        0.00s GPU  (      68 calls)

     Called by *egterg:
     cdiaghg      :    508.11s CPU    512.12s WALL (      96 calls)
     cegterg:over :    701.13s CPU    706.38s WALL (      79 calls)
     cegterg:upda :    330.56s CPU    336.18s WALL (      79 calls)
     cegterg:last :    773.24s CPU    781.59s WALL (      41 calls)
     cdiaghg:chol :     12.68s CPU     12.71s WALL (      96 calls)
     cdiaghg:inve :      2.11s CPU      2.11s WALL (      96 calls)
     cdiaghg:para :     44.06s CPU     45.73s WALL (     192 calls)
     h_psi        :   2425.44s CPU   2489.03s WALL (      97 calls)
     s_psi        :    609.44s CPU    613.74s WALL (      97 calls)
     g_psi        :      2.47s CPU      2.59s WALL (      79 calls)

     Called by h_psi:
     h_psi:calbec :    772.01s CPU    783.07s WALL (      97 calls)
     vloc_psi     :   1035.25s CPU   1080.69s WALL (      97 calls)
     add_vuspsi   :    615.38s CPU    620.16s WALL (      97 calls)

     General routines
     calbec       :   1093.71s CPU   1108.60s WALL (     119 calls)
     fft          :      8.06s CPU      8.39s WALL (     257 calls)
     ffts         :      0.66s CPU      0.72s WALL (      35 calls)
     fftw         :   1140.79s CPU   1192.28s WALL (  122308 calls)
     interpolate  :      0.72s CPU      0.76s WALL (      18 calls)

     Parallel routines

     PAW routines
     PAW_pot      :     12.16s CPU     12.21s WALL (      18 calls)

     PWSCF        :      2h11m CPU      2h14m WALL


   This run was terminated on:   6:11:53  22May2025            

=------------------------------------------------------------------------------=
   JOB DONE.
=------------------------------------------------------------------------------=
