
     Program PWSCF v.7.2 starts on 20May2025 at 22: 6:25 

     This program is part of the open-source Quantum ESPRESSO suite
     for quantum simulation of materials; please cite
         "P. Giannozzi et al., J. Phys.:Condens. Matter 21 395502 (2009);
         "P. Giannozzi et al., J. Phys.:Condens. Matter 29 465901 (2017);
         "P. Giannozzi et al., J. Chem. Phys. 152 154105 (2020);
          URL http://www.quantum-espresso.org", 
     in publications or presentations arising from this work. More details at
     http://www.quantum-espresso.org/quote

     Parallel version (MPI), running on    32 processors

     MPI processes distributed on     1 nodes
     125874 MiB available memory on the printing compute node when the environment starts

     Waiting for input...
     Reading input from standard input

     Current dimensions of program PWSCF are:
     Max number of different atomic species (ntypx) = 10
     Max number of k-points (npk) =  40000
     Max angular momentum in pseudopotentials (lmaxx) =  4
     file C.pbesol-n-kjpaw_psl.1.0.0.UPF: wavefunction(s)  2S 2P renormalized

     R & G space division:  proc/nbgrp/npool/nimage =      32
     Subspace diagonalization in iterative solution of the eigenvalue problem:
     one sub-group per band group will be used
     custom distributed-memory algorithm (size of sub-group:  5*  5 procs)


     Parallelization info
     --------------------
     sticks:   dense  smooth     PW     G-vecs:    dense   smooth      PW
     Min         878     844    211                80117    75361    9423
     Max         882     845    212                80120    75364    9425
     Sum       28159   27021   6771              2563819  2411581  301561

     Using Slab Decomposition



     bravais-lattice index     =            0
     lattice parameter (alat)  =      37.6381  a.u.
     unit-cell volume          =   38409.3354 (a.u.)^3
     number of atoms/cell      =          496
     number of atomic types    =            4
     number of electrons       =      2016.00
     number of Kohn-Sham states=         1008
     kinetic-energy cutoff     =      60.0000  Ry
     charge density cutoff     =     250.0000  Ry
     scf convergence threshold =      1.2E-08
     mixing beta               =       0.4000
     number of iterations used =            8  plain     mixing
     Exchange-correlation= SLA  PW   PSX  PSC
                           (   1   4  10   8   0   0   0)

     celldm(1)=  37.638096  celldm(2)=   0.000000  celldm(3)=   0.000000
     celldm(4)=   0.000000  celldm(5)=   0.000000  celldm(6)=   0.000000

     crystal axes: (cart. coord. in units of alat)
               a(1) = (  -0.509774   0.509774   0.693009 )  
               a(2) = (   0.509774  -0.509774   0.693009 )  
               a(3) = (   0.509774   0.509774  -0.693009 )  

     reciprocal axes: (cart. coord. in units 2 pi/alat)
               b(1) = (  0.000000  0.980827  0.721491 )  
               b(2) = (  0.980827  0.000000  0.721491 )  
               b(3) = (  0.980827  0.980827  0.000000 )  


     PseudoPot. # 1 for N  read from file:
     ./pseudo/N.pbesol-theos.UPF
     MD5 check sum: 1b64827339d390a5a22afef3ff345c9d
     Pseudo is Ultrasoft + core correction, Zval =  5.0
     Generated using "atomic" code by A. Dal Corso  v.5.1
     Using radial grid of 1085 points,  4 beta functions with: 
                l(1) =   0
                l(2) =   0
                l(3) =   1
                l(4) =   1
     Q(r) pseudized with 0 coefficients 


     PseudoPot. # 2 for C  read from file:
     ./pseudo/C.pbesol-n-kjpaw_psl.1.0.0.UPF
     MD5 check sum: 5f3a56537b2bcef3348431d8311bb923
     Pseudo is Projector augmented-wave + core cor, Zval =  4.0
     Generated using "atomic" code by A. Dal Corso  v.6.0 svn rev. 13079
     Shape of augmentation charge: PSQ
     Using radial grid of 1073 points,  4 beta functions with: 
                l(1) =   0
                l(2) =   0
                l(3) =   1
                l(4) =   1
     Q(r) pseudized with 0 coefficients 


     PseudoPot. # 3 for H  read from file:
     ./pseudo/H.pbesol-rrkjus_psl.1.0.0.UPF
     MD5 check sum: 0324ed591cc0147dc3d88cad0d33f665
     Pseudo is Ultrasoft, Zval =  1.0
     Generated using "atomic" code by A. Dal Corso  v.6.0 svn rev. 13079
     Using radial grid of  929 points,  2 beta functions with: 
                l(1) =   0
                l(2) =   0
     Q(r) pseudized with 0 coefficients 


     PseudoPot. # 4 for Zn read from file:
     ./pseudo/zn_pbesol_v1.uspp.F.UPF
     MD5 check sum: 7d8615e52efe7c1e2b1899de8658bae2
     Pseudo is Ultrasoft, Zval = 20.0
     Generated by new atomic code, or converted to UPF format
     Using radial grid of  943 points,  6 beta functions with: 
                l(1) =   0
                l(2) =   0
                l(3) =   1
                l(4) =   1
                l(5) =   2
                l(6) =   2
     Q(r) pseudized with  8 coefficients,  rinner =    1.100   1.100   1.100
                                                       1.100   1.100

     atomic species   valence    mass     pseudopotential
        N              5.00    14.00670     N ( 1.00)
        C              4.00    12.01070     C ( 1.00)
        H              1.00     1.00794     H ( 1.00)
        Zn            20.00    65.38000     Zn( 1.00)

     No symmetry found


                                    s                        frac. trans.

      isym =  1     identity                                     

 cryst.   s( 1) = (     1          0          0      )
                  (     0          1          0      )
                  (     0          0          1      )

 cart.    s( 1) = (  1.0000000  0.0000000  0.0000000 )
                  (  0.0000000  1.0000000  0.0000000 )
                  (  0.0000000  0.0000000  1.0000000 )


   Cartesian axes

     site n.     atom                  positions (alat units)
         1           N   tau(   1) = (   0.2710468  -0.0829864   0.1173636  )
         2           N   tau(   2) = (   0.0161599   0.1719005   0.4638680  )
         3           N   tau(   3) = (   0.5259337  -0.3378733   0.4638680  )
         4           N   tau(   4) = (   0.2710468  -0.0829864   0.8103725  )
         5           N   tau(   5) = (   0.5259337   0.1719005  -0.2291408  )
         6           N   tau(   6) = (   0.2710468   0.4267874   0.1173636  )
         7           N   tau(   7) = (   0.7808206  -0.0829864   0.1173636  )
         8           N   tau(   8) = (   0.5259337   0.1719005   0.4638680  )
         9           N   tau(   9) = (   0.0792892   0.1480962   0.4576515  )
        10           N   tau(  10) = (  -0.1755977   0.4029831   0.8041559  )
        11           N   tau(  11) = (   0.3341761  -0.1067907   0.8041559  )
        12           N   tau(  12) = (   0.0792892   0.1480962   1.1506604  )
        13           N   tau(  13) = (   0.3341761   0.4029831   0.1111471  )
        14           N   tau(  14) = (   0.0792892   0.6578701   0.4576515  )
        15           N   tau(  15) = (   0.5890630   0.1480962   0.4576515  )
        16           N   tau(  16) = (   0.3341761   0.4029831   0.8041559  )
        17           C   tau(  17) = (  -0.0968335   0.1355948   0.4273593  )
        18           C   tau(  18) = (  -0.3517204   0.3904817   0.7738637  )
        19           C   tau(  19) = (   0.1580534  -0.1192921   0.7738637  )
        20           C   tau(  20) = (  -0.0968335   0.1355948   1.1203682  )
        21           C   tau(  21) = (   0.1580534   0.3904817   0.0808549  )
        22           C   tau(  22) = (  -0.0968335   0.6453687   0.4273593  )
        23           C   tau(  23) = (   0.4129403   0.1355948   0.4273593  )
        24           C   tau(  24) = (   0.1580534   0.3904817   0.7738637  )
        25           C   tau(  25) = (  -0.0244840   0.1283983   0.4318794  )
        26           C   tau(  26) = (  -0.2793710   0.3832852   0.7783839  )
        27           C   tau(  27) = (   0.2304029  -0.1264886   0.7783839  )
        28           C   tau(  28) = (  -0.0244840   0.1283983   1.1248883  )
        29           C   tau(  29) = (   0.2304029   0.3832852   0.0853750  )
        30           C   tau(  30) = (  -0.0244840   0.6381721   0.4318794  )
        31           C   tau(  31) = (   0.4852898   0.1283983   0.4318794  )
        32           C   tau(  32) = (   0.2304029   0.3832852   0.7783839  )
        33           C   tau(  33) = (   0.1135697   0.3364209   0.0858899  )
        34           C   tau(  34) = (  -0.1413172   0.5913078   0.4323944  )
        35           C   tau(  35) = (   0.3684566   0.0815340   0.4323944  )
        36           C   tau(  36) = (   0.1135697   0.3364209   0.7788988  )
        37           C   tau(  37) = (   0.3684566   0.5913078  -0.2606145  )
        38           C   tau(  38) = (   0.1135697   0.8461947   0.0858899  )
        39           C   tau(  39) = (   0.6233435   0.3364209   0.0858899  )
        40           C   tau(  40) = (   0.3684566   0.5913078   0.4323944  )
        41           H   tau(  41) = (   0.1320089   0.2848859   0.0919123  )
        42           H   tau(  42) = (  -0.1228780   0.5397728   0.4384168  )
        43           H   tau(  43) = (   0.3868958   0.0299990   0.4384168  )
        44           H   tau(  44) = (   0.1320089   0.2848859   0.7849212  )
        45           H   tau(  45) = (   0.3868958   0.5397728  -0.2545921  )
        46           H   tau(  46) = (   0.1320089   0.7946597   0.0919123  )
        47           H   tau(  47) = (   0.6417827   0.2848859   0.0919123  )
        48           H   tau(  48) = (   0.3868958   0.5397728   0.4384168  )
        49           C   tau(  49) = (   0.0234072   0.4166034   0.0803957  )
        50           C   tau(  50) = (  -0.2314797   0.6714904   0.4269002  )
        51           C   tau(  51) = (   0.2782941   0.1617165   0.4269002  )
        52           C   tau(  52) = (   0.0234072   0.4166034   0.7734046  )
        53           C   tau(  53) = (   0.2782941   0.6714904  -0.2661087  )
        54           C   tau(  54) = (   0.0234072   0.9263773   0.0803957  )
        55           C   tau(  55) = (   0.5331811   0.4166034   0.0803957  )
        56           C   tau(  56) = (   0.2782941   0.6714904   0.4269002  )
        57           H   tau(  57) = (  -0.0302776   0.4302612   0.0810491  )
        58           H   tau(  58) = (  -0.2848936   0.6848772   0.4279218  )
        59           H   tau(  59) = (   0.2248802   0.1751034   0.4279218  )
        60           H   tau(  60) = (  -0.0300067   0.4299903   0.7744263  )
        61           H   tau(  61) = (   0.2248802   0.6848772  -0.2650870  )
        62           H   tau(  62) = (  -0.0300067   0.9397641   0.0814174  )
        63           H   tau(  63) = (   0.4797671   0.4299903   0.0814174  )
        64           H   tau(  64) = (   0.2248802   0.6848772   0.4279218  )
        65           N   tau(  65) = (   0.0137429   0.0791523   0.4063605  )
        66           N   tau(  66) = (  -0.2411440   0.3340392   0.7528650  )
        67           N   tau(  67) = (   0.2686298  -0.1757347   0.7528650  )
        68           N   tau(  68) = (   0.0137429   0.0791523   1.0993694  )
        69           N   tau(  69) = (   0.2686298   0.3340392   0.0598561  )
        70           N   tau(  70) = (   0.0137429   0.5889261   0.4063605  )
        71           N   tau(  71) = (   0.5235167   0.0791523   0.4063605  )
        72           N   tau(  72) = (   0.2686298   0.3340392   0.7528650  )
        73           N   tau(  73) = (   0.0778636   0.0929680   0.4236992  )
        74           N   tau(  74) = (  -0.1770233   0.3478549   0.7702037  )
        75           N   tau(  75) = (   0.3327505  -0.1619189   0.7702037  )
        76           N   tau(  76) = (   0.0778636   0.0929680   1.1167081  )
        77           N   tau(  77) = (   0.3327505   0.3478549   0.0771948  )
        78           N   tau(  78) = (   0.0778636   0.6027418   0.4236992  )
        79           N   tau(  79) = (   0.5876374   0.0929680   0.4236992  )
        80           N   tau(  80) = (   0.3327505   0.3478549   0.7702037  )
        81           C   tau(  81) = (  -0.1238286   0.2001118   0.4205514  )
        82           C   tau(  82) = (  -0.3787155   0.4549987   0.7670558  )
        83           C   tau(  83) = (   0.1310583  -0.0547751   0.7670558  )
        84           C   tau(  84) = (  -0.1238286   0.2001118   1.1135603  )
        85           C   tau(  85) = (   0.1310583   0.4549987   0.0740469  )
        86           C   tau(  86) = (  -0.1238286   0.7098857   0.4205514  )
        87           C   tau(  87) = (   0.3859452   0.2001118   0.4205514  )
        88           C   tau(  88) = (   0.1310583   0.4549987   0.7670558  )
        89           H   tau(  89) = (   0.1645114  -0.0114933   0.0672613  )
        90           H   tau(  90) = (  -0.0903755   0.2433936   0.4137658  )
        91           H   tau(  91) = (   0.4193983  -0.2663802   0.4137658  )
        92           H   tau(  92) = (   0.1645114  -0.0114933   0.7602702  )
        93           H   tau(  93) = (   0.4193983   0.2433936  -0.2792431  )
        94           H   tau(  94) = (   0.1645114   0.4982805   0.0672613  )
        95           H   tau(  95) = (   0.6742852  -0.0114933   0.0672613  )
        96           H   tau(  96) = (   0.4193983   0.2433936   0.4137658  )
        97           N   tau(  97) = (   0.0658052  -0.0414701   0.0746064  )
        98           N   tau(  98) = (  -0.1890817   0.2134168   0.4211109  )
        99           N   tau(  99) = (   0.3206921  -0.2963571   0.4211109  )
       100           N   tau( 100) = (   0.0658052  -0.0414701   0.7676153  )
       101           N   tau( 101) = (   0.3206921   0.2134168  -0.2718980  )
       102           N   tau( 102) = (   0.0658052   0.4683037   0.0746064  )
       103           N   tau( 103) = (   0.5755790  -0.0414701   0.0746064  )
       104           N   tau( 104) = (   0.3206921   0.2134168   0.4211109  )
       105           C   tau( 105) = (  -0.0451994   0.1596322   0.0850839  )
       106           C   tau( 106) = (  -0.3000863   0.4145191   0.4315883  )
       107           C   tau( 107) = (   0.2096875  -0.0952547   0.4315883  )
       108           C   tau( 108) = (  -0.0451994   0.1596322   0.7780928  )
       109           C   tau( 109) = (   0.2096875   0.4145191  -0.2614205  )
       110           C   tau( 110) = (  -0.0451994   0.6694060   0.0850839  )
       111           C   tau( 111) = (   0.4645744   0.1596322   0.0850839  )
       112           C   tau( 112) = (   0.2096875   0.4145191   0.4315883  )
       113           H   tau( 113) = (   0.0082067   0.3098036   0.0895138  )
       114           H   tau( 114) = (  -0.2466802   0.5646905   0.4360182  )
       115           H   tau( 115) = (   0.2630936   0.0549167   0.4360182  )
       116           H   tau( 116) = (   0.0082067   0.3098036   0.7825226  )
       117           H   tau( 117) = (   0.2630936   0.5646905  -0.2569907  )
       118           H   tau( 118) = (   0.0082067   0.8195774   0.0895138  )
       119           H   tau( 119) = (   0.5179805   0.3098036   0.0895138  )
       120           H   tau( 120) = (   0.2630936   0.5646905   0.4360182  )
       121           N   tau( 121) = (   0.2387270   0.0829864   0.1173636  )
       122           N   tau( 122) = (  -0.0161599   0.3378733   0.4638680  )
       123           N   tau( 123) = (   0.4936139  -0.1719005   0.4638680  )
       124           N   tau( 124) = (   0.2387270   0.0829864   0.8103725  )
       125           N   tau( 125) = (   0.4936139   0.3378733  -0.2291408  )
       126           N   tau( 126) = (   0.2387270   0.5927603   0.1173636  )
       127           N   tau( 127) = (   0.7485008   0.0829864   0.1173636  )
       128           N   tau( 128) = (   0.4936139   0.3378733   0.4638680  )
       129           N   tau( 129) = (   0.1755977   0.1067907   0.1111471  )
       130           N   tau( 130) = (  -0.0792892   0.3616776   0.4576515  )
       131           N   tau( 131) = (   0.4304846  -0.1480962   0.4576515  )
       132           N   tau( 132) = (   0.1755977   0.1067907   0.8041559  )
       133           N   tau( 133) = (   0.4304846   0.3616776  -0.2353574  )
       134           N   tau( 134) = (   0.1755977   0.6165645   0.1111471  )
       135           N   tau( 135) = (   0.6853715   0.1067907   0.1111471  )
       136           N   tau( 136) = (   0.4304846   0.3616776   0.4576515  )
       137           C   tau( 137) = (   0.3517204   0.1192921   0.0808549  )
       138           C   tau( 138) = (   0.0968335   0.3741790   0.4273593  )
       139           C   tau( 139) = (   0.6066073  -0.1355948   0.4273593  )
       140           C   tau( 140) = (   0.3517204   0.1192921   0.7738637  )
       141           C   tau( 141) = (   0.6066073   0.3741790  -0.2656496  )
       142           C   tau( 142) = (   0.3517204   0.6290659   0.0808549  )
       143           C   tau( 143) = (   0.8614942   0.1192921   0.0808549  )
       144           C   tau( 144) = (   0.6066073   0.3741790   0.4273593  )
       145           C   tau( 145) = (   0.2793710   0.1264886   0.0853750  )
       146           C   tau( 146) = (   0.0244840   0.3813755   0.4318794  )
       147           C   tau( 147) = (   0.5342579  -0.1283983   0.4318794  )
       148           C   tau( 148) = (   0.2793710   0.1264886   0.7783839  )
       149           C   tau( 149) = (   0.5342579   0.3813755  -0.2611294  )
       150           C   tau( 150) = (   0.2793710   0.6362624   0.0853750  )
       151           C   tau( 151) = (   0.7891448   0.1264886   0.0853750  )
       152           C   tau( 152) = (   0.5342579   0.3813755   0.4318794  )
       153           C   tau( 153) = (   0.1413172  -0.0815340   0.4323944  )
       154           C   tau( 154) = (  -0.1135697   0.1733530   0.7788988  )
       155           C   tau( 155) = (   0.3962041  -0.3364209   0.7788988  )
       156           C   tau( 156) = (   0.1413172  -0.0815340   1.1254033  )
       157           C   tau( 157) = (   0.3962041   0.1733530   0.0858899  )
       158           C   tau( 158) = (   0.1413172   0.4282399   0.4323944  )
       159           C   tau( 159) = (   0.6510910  -0.0815340   0.4323944  )
       160           C   tau( 160) = (   0.3962041   0.1733530   0.7788988  )
       161           H   tau( 161) = (   0.1228780  -0.0299990   0.4384168  )
       162           H   tau( 162) = (  -0.1320089   0.2248879   0.7849212  )
       163           H   tau( 163) = (   0.3777649  -0.2848859   0.7849212  )
       164           H   tau( 164) = (   0.1228780  -0.0299990   1.1314256  )
       165           H   tau( 165) = (   0.3777649   0.2248879   0.0919123  )
       166           H   tau( 166) = (   0.1228780   0.4797748   0.4384168  )
       167           H   tau( 167) = (   0.6326518  -0.0299990   0.4384168  )
       168           H   tau( 168) = (   0.3777649   0.2248879   0.7849212  )
       169           C   tau( 169) = (  -0.0234072   0.0931704   0.0803957  )
       170           C   tau( 170) = (  -0.2782942   0.3480573   0.4269002  )
       171           C   tau( 171) = (   0.2314797  -0.1617165   0.4269002  )
       172           C   tau( 172) = (  -0.0234072   0.0931704   0.7734046  )
       173           C   tau( 173) = (   0.2314797   0.3480573  -0.2661087  )
       174           C   tau( 174) = (  -0.0234072   0.6029442   0.0803957  )
       175           C   tau( 175) = (   0.4863666   0.0931704   0.0803957  )
       176           C   tau( 176) = (   0.2314797   0.3480573   0.4269002  )
       177           H   tau( 177) = (   0.0300067   0.0797836   0.0814174  )
       178           H   tau( 178) = (  -0.2248802   0.3346705   0.4279218  )
       179           H   tau( 179) = (   0.2848936  -0.1751034   0.4279218  )
       180           H   tau( 180) = (   0.0300067   0.0797836   0.7744263  )
       181           H   tau( 181) = (   0.2848936   0.3346705  -0.2650870  )
       182           H   tau( 182) = (   0.0300067   0.5895574   0.0814174  )
       183           H   tau( 183) = (   0.5397805   0.0797836   0.0814174  )
       184           H   tau( 184) = (   0.2848936   0.3346705   0.4279218  )
       185           N   tau( 185) = (   0.2411440   0.1757347   0.0598561  )
       186           N   tau( 186) = (  -0.0137429   0.4306216   0.4063605  )
       187           N   tau( 187) = (   0.4960309  -0.0791523   0.4063605  )
       188           N   tau( 188) = (   0.2411440   0.1757347   0.7528650  )
       189           N   tau( 189) = (   0.4960309   0.4306216  -0.2866484  )
       190           N   tau( 190) = (   0.2411440   0.6855085   0.0598561  )
       191           N   tau( 191) = (   0.7509178   0.1757347   0.0598561  )
       192           N   tau( 192) = (   0.4960309   0.4306216   0.4063605  )
       193           N   tau( 193) = (   0.1770233   0.1619189   0.0771948  )
       194           N   tau( 194) = (  -0.0778636   0.4168059   0.4236992  )
       195           N   tau( 195) = (   0.4319102  -0.0929680   0.4236992  )
       196           N   tau( 196) = (   0.1770233   0.1619189   0.7702037  )
       197           N   tau( 197) = (   0.4319102   0.4168059  -0.2693096  )
       198           N   tau( 198) = (   0.1770233   0.6716928   0.0771948  )
       199           N   tau( 199) = (   0.6867971   0.1619189   0.0771948  )
       200           N   tau( 200) = (   0.4319102   0.4168059   0.4236992  )
       201           C   tau( 201) = (   0.3787155   0.0547751   0.0740469  )
       202           C   tau( 202) = (   0.1238286   0.3096620   0.4205514  )
       203           C   tau( 203) = (   0.6336024  -0.2001118   0.4205514  )
       204           C   tau( 204) = (   0.3787155   0.0547751   0.7670558  )
       205           C   tau( 205) = (   0.6336024   0.3096620  -0.2724575  )
       206           C   tau( 206) = (   0.3787155   0.5645489   0.0740469  )
       207           C   tau( 207) = (   0.8884893   0.0547751   0.0740469  )
       208           C   tau( 208) = (   0.6336024   0.3096620   0.4205514  )
       209           H   tau( 209) = (   0.3452624   0.0114933   0.0672613  )
       210           H   tau( 210) = (   0.0903755   0.2663802   0.4137658  )
       211           H   tau( 211) = (   0.6001493  -0.2433936   0.4137658  )
       212           H   tau( 212) = (   0.3452624   0.0114933   0.7602702  )
       213           H   tau( 213) = (   0.6001493   0.2663802  -0.2792431  )
       214           H   tau( 214) = (   0.3452624   0.5212672   0.0672613  )
       215           H   tau( 215) = (   0.8550362   0.0114933   0.0672613  )
       216           H   tau( 216) = (   0.6001493   0.2663802   0.4137658  )
       217           N   tau( 217) = (   0.4439686   0.0414701   0.0746064  )
       218           N   tau( 218) = (   0.1890817   0.2963571   0.4211109  )
       219           N   tau( 219) = (   0.6988555  -0.2134168   0.4211109  )
       220           N   tau( 220) = (   0.4439686   0.0414701   0.7676153  )
       221           N   tau( 221) = (   0.6988555   0.2963571  -0.2718980  )
       222           N   tau( 222) = (   0.4439686   0.5512440   0.0746064  )
       223           N   tau( 223) = (   0.9537424   0.0414701   0.0746064  )
       224           N   tau( 224) = (   0.6988555   0.2963571   0.4211109  )
       225           C   tau( 225) = (   0.0451994   0.3501416   0.0850839  )
       226           C   tau( 226) = (  -0.2096875   0.6050285   0.4315883  )
       227           C   tau( 227) = (   0.3000863   0.0952547   0.4315883  )
       228           C   tau( 228) = (   0.0451994   0.3501416   0.7780928  )
       229           C   tau( 229) = (   0.3000863   0.6050285  -0.2614205  )
       230           C   tau( 230) = (   0.0451994   0.8599154   0.0850839  )
       231           C   tau( 231) = (   0.5549732   0.3501416   0.0850839  )
       232           C   tau( 232) = (   0.3000863   0.6050285   0.4315883  )
       233           H   tau( 233) = (  -0.0082067   0.1999702   0.0895138  )
       234           H   tau( 234) = (  -0.2630936   0.4548571   0.4360182  )
       235           H   tau( 235) = (   0.2466802  -0.0549167   0.4360182  )
       236           H   tau( 236) = (  -0.0082067   0.1999702   0.7825226  )
       237           H   tau( 237) = (   0.2466802   0.4548571  -0.2569907  )
       238           H   tau( 238) = (  -0.0082067   0.7097440   0.0895138  )
       239           H   tau( 239) = (   0.5015671   0.1999702   0.0895138  )
       240           H   tau( 240) = (   0.2466802   0.4548571   0.4360182  )
       241           N   tau( 241) = (   0.1719005  -0.0161599   0.2291408  )
       242           N   tau( 242) = (  -0.0829864   0.2387270   0.5756453  )
       243           N   tau( 243) = (   0.4267874  -0.2710468   0.5756453  )
       244           N   tau( 244) = (   0.1719005  -0.0161599   0.9221497  )
       245           N   tau( 245) = (   0.4267874   0.2387270  -0.1173636  )
       246           N   tau( 246) = (   0.1719005   0.4936139   0.2291408  )
       247           N   tau( 247) = (   0.6816743  -0.0161599   0.2291408  )
       248           N   tau( 248) = (   0.4267874   0.2387270   0.5756453  )
       249           N   tau( 249) = (   0.1480962  -0.0792892   0.2353574  )
       250           N   tau( 250) = (  -0.1067907   0.1755977   0.5818618  )
       251           N   tau( 251) = (   0.4029831  -0.3341761   0.5818618  )
       252           N   tau( 252) = (   0.1480962  -0.0792892   0.9283662  )
       253           N   tau( 253) = (   0.4029831   0.1755977  -0.1111471  )
       254           N   tau( 254) = (   0.1480962   0.4304846   0.2353574  )
       255           N   tau( 255) = (   0.6578701  -0.0792892   0.2353574  )
       256           N   tau( 256) = (   0.4029831   0.1755977   0.5818618  )
       257           C   tau( 257) = (   0.1355948   0.0968335   0.2656496  )
       258           C   tau( 258) = (  -0.1192921   0.3517204   0.6121540  )
       259           C   tau( 259) = (   0.3904817  -0.1580534   0.6121540  )
       260           C   tau( 260) = (   0.1355948   0.0968335   0.9586584  )
       261           C   tau( 261) = (   0.3904817   0.3517204  -0.0808549  )
       262           C   tau( 262) = (   0.1355948   0.6066073   0.2656496  )
       263           C   tau( 263) = (   0.6453687   0.0968335   0.2656496  )
       264           C   tau( 264) = (   0.3904817   0.3517204   0.6121540  )
       265           C   tau( 265) = (   0.1283983   0.0244840   0.2611294  )
       266           C   tau( 266) = (  -0.1264886   0.2793710   0.6076339  )
       267           C   tau( 267) = (   0.3832852  -0.2304029   0.6076339  )
       268           C   tau( 268) = (   0.1283983   0.0244840   0.9541383  )
       269           C   tau( 269) = (   0.3832852   0.2793710  -0.0853750  )
       270           C   tau( 270) = (   0.1283983   0.5342579   0.2611294  )
       271           C   tau( 271) = (   0.6381721   0.0244840   0.2611294  )
       272           C   tau( 272) = (   0.3832852   0.2793710   0.6076339  )
       273           C   tau( 273) = (   0.0815340   0.1413172   0.2606145  )
       274           C   tau( 274) = (  -0.1733530   0.3962041   0.6071189  )
       275           C   tau( 275) = (   0.3364209  -0.1135697   0.6071189  )
       276           C   tau( 276) = (   0.0815340   0.1413172   0.9536234  )
       277           C   tau( 277) = (   0.3364209   0.3962041  -0.0858899  )
       278           C   tau( 278) = (   0.0815340   0.6510910   0.2606145  )
       279           C   tau( 279) = (   0.5913078   0.1413172   0.2606145  )
       280           C   tau( 280) = (   0.3364209   0.3962041   0.6071189  )
       281           H   tau( 281) = (   0.0299990   0.1228780   0.2545921  )
       282           H   tau( 282) = (  -0.2248879   0.3777649   0.6010965  )
       283           H   tau( 283) = (   0.2848859  -0.1320089   0.6010965  )
       284           H   tau( 284) = (   0.0299990   0.1228780   0.9476010  )
       285           H   tau( 285) = (   0.2848859   0.3777649  -0.0919123  )
       286           H   tau( 286) = (   0.0299990   0.6326518   0.2545921  )
       287           H   tau( 287) = (   0.5397728   0.1228780   0.2545921  )
       288           H   tau( 288) = (   0.2848859   0.3777649   0.6010965  )
       289           C   tau( 289) = (   0.1617165   0.2314797   0.2661087  )
       290           C   tau( 290) = (  -0.0931704   0.4863666   0.6126131  )
       291           C   tau( 291) = (   0.4166034  -0.0234072   0.6126131  )
       292           C   tau( 292) = (   0.1617165   0.2314797   0.9591176  )
       293           C   tau( 293) = (   0.4166034   0.4863666  -0.0803957  )
       294           C   tau( 294) = (   0.1617165   0.7412535   0.2661087  )
       295           C   tau( 295) = (   0.6714904   0.2314797   0.2661087  )
       296           C   tau( 296) = (   0.4166034   0.4863666   0.6126131  )
       297           H   tau( 297) = (   0.1751034   0.2848936   0.2650870  )
       298           H   tau( 298) = (  -0.0797836   0.5397805   0.6115915  )
       299           H   tau( 299) = (   0.4299903   0.0300067   0.6115915  )
       300           H   tau( 300) = (   0.1751034   0.2848936   0.9580959  )
       301           H   tau( 301) = (   0.4299903   0.5397805  -0.0814174  )
       302           H   tau( 302) = (   0.1751034   0.7946674   0.2650870  )
       303           H   tau( 303) = (   0.6848772   0.2848936   0.2650870  )
       304           H   tau( 304) = (   0.4299903   0.5397805   0.6115915  )
       305           N   tau( 305) = (   0.0791523  -0.0137429   0.2866484  )
       306           N   tau( 306) = (  -0.1757347   0.2411440   0.6331528  )
       307           N   tau( 307) = (   0.3340392  -0.2686298   0.6331528  )
       308           N   tau( 308) = (   0.0791523  -0.0137429   0.9796572  )
       309           N   tau( 309) = (   0.3340392   0.2411440  -0.0598561  )
       310           N   tau( 310) = (   0.0791523   0.4960309   0.2866484  )
       311           N   tau( 311) = (   0.5889261  -0.0137429   0.2866484  )
       312           N   tau( 312) = (   0.3340392   0.2411440   0.6331528  )
       313           N   tau( 313) = (   0.0929680  -0.0778636   0.2693096  )
       314           N   tau( 314) = (  -0.1619189   0.1770233   0.6158141  )
       315           N   tau( 315) = (   0.3478549  -0.3327505   0.6158141  )
       316           N   tau( 316) = (   0.0929680  -0.0778636   0.9623185  )
       317           N   tau( 317) = (   0.3478549   0.1770233  -0.0771948  )
       318           N   tau( 318) = (   0.0929680   0.4319102   0.2693096  )
       319           N   tau( 319) = (   0.6027418  -0.0778636   0.2693096  )
       320           N   tau( 320) = (   0.3478549   0.1770233   0.6158141  )
       321           C   tau( 321) = (   0.2001118   0.1238286   0.2724575  )
       322           C   tau( 322) = (  -0.0547751   0.3787155   0.6189619  )
       323           C   tau( 323) = (   0.4549987  -0.1310583   0.6189619  )
       324           C   tau( 324) = (   0.2001118   0.1238286   0.9654664  )
       325           C   tau( 325) = (   0.4549987   0.3787155  -0.0740469  )
       326           C   tau( 326) = (   0.2001118   0.6336024   0.2724575  )
       327           C   tau( 327) = (   0.7098857   0.1238286   0.2724575  )
       328           C   tau( 328) = (   0.4549987   0.3787155   0.6189619  )
       329           H   tau( 329) = (   0.2433936   0.0903755   0.2792431  )
       330           H   tau( 330) = (  -0.0114933   0.3452624   0.6257475  )
       331           H   tau( 331) = (   0.4982805  -0.1645114   0.6257475  )
       332           H   tau( 332) = (   0.2433936   0.0903755   0.9722520  )
       333           H   tau( 333) = (   0.4982805   0.3452624  -0.0672613  )
       334           H   tau( 334) = (   0.2433936   0.6001493   0.2792431  )
       335           H   tau( 335) = (   0.7531674   0.0903755   0.2792431  )
       336           H   tau( 336) = (   0.4982805   0.3452624   0.6257475  )
       337           N   tau( 337) = (   0.2134168   0.1890817   0.2718980  )
       338           N   tau( 338) = (  -0.0414701   0.4439686   0.6184024  )
       339           N   tau( 339) = (   0.4683037  -0.0658052   0.6184024  )
       340           N   tau( 340) = (   0.2134168   0.1890817   0.9649069  )
       341           N   tau( 341) = (   0.4683037   0.4439686  -0.0746064  )
       342           N   tau( 342) = (   0.2134168   0.6988555   0.2718980  )
       343           N   tau( 343) = (   0.7231906   0.1890817   0.2718980  )
       344           N   tau( 344) = (   0.4683037   0.4439686   0.6184024  )
       345           C   tau( 345) = (  -0.0952547   0.3000863   0.2614205  )
       346           C   tau( 346) = (  -0.3501416   0.5549732   0.6079250  )
       347           C   tau( 347) = (   0.1596322   0.0451994   0.6079250  )
       348           C   tau( 348) = (  -0.0952547   0.3000863   0.9544294  )
       349           C   tau( 349) = (   0.1596322   0.5549732  -0.0850839  )
       350           C   tau( 350) = (  -0.0952547   0.8098601   0.2614205  )
       351           C   tau( 351) = (   0.4145191   0.3000863   0.2614205  )
       352           C   tau( 352) = (   0.1596322   0.5549732   0.6079250  )
       353           H   tau( 353) = (   0.0549167   0.2466802   0.2569907  )
       354           H   tau( 354) = (  -0.1999702   0.5015671   0.6034951  )
       355           H   tau( 355) = (   0.3098036  -0.0082067   0.6034951  )
       356           H   tau( 356) = (   0.0549167   0.2466802   0.9499995  )
       357           H   tau( 357) = (   0.3098036   0.5015671  -0.0895138  )
       358           H   tau( 358) = (   0.0549167   0.7564540   0.2569907  )
       359           H   tau( 359) = (   0.5646905   0.2466802   0.2569907  )
       360           H   tau( 360) = (   0.3098036   0.5015671   0.6034951  )
       361           N   tau( 361) = (   0.3378733   0.0161599   0.2291408  )
       362           N   tau( 362) = (   0.0829864   0.2710468   0.5756453  )
       363           N   tau( 363) = (   0.5927603  -0.2387270   0.5756453  )
       364           N   tau( 364) = (   0.3378733   0.0161599   0.9221497  )
       365           N   tau( 365) = (   0.5927603   0.2710468  -0.1173636  )
       366           N   tau( 366) = (   0.3378733   0.5259337   0.2291408  )
       367           N   tau( 367) = (   0.8476472   0.0161599   0.2291408  )
       368           N   tau( 368) = (   0.5927603   0.2710468   0.5756453  )
       369           N   tau( 369) = (   0.1067907   0.3341761  -0.1111471  )
       370           N   tau( 370) = (  -0.1480962   0.5890630   0.2353574  )
       371           N   tau( 371) = (   0.3616776   0.0792892   0.2353574  )
       372           N   tau( 372) = (   0.1067907   0.3341761   0.5818618  )
       373           N   tau( 373) = (   0.3616776   0.5890630  -0.4576515  )
       374           N   tau( 374) = (   0.1067907   0.8439499  -0.1111471  )
       375           N   tau( 375) = (   0.6165645   0.3341761  -0.1111471  )
       376           N   tau( 376) = (   0.3616776   0.5890630   0.2353574  )
       377           C   tau( 377) = (   0.1192921   0.1580534  -0.0808549  )
       378           C   tau( 378) = (  -0.1355948   0.4129403   0.2656496  )
       379           C   tau( 379) = (   0.3741790  -0.0968335   0.2656496  )
       380           C   tau( 380) = (   0.1192921   0.1580534   0.6121540  )
       381           C   tau( 381) = (   0.3741790   0.4129403  -0.4273593  )
       382           C   tau( 382) = (   0.1192921   0.6678273  -0.0808549  )
       383           C   tau( 383) = (   0.6290659   0.1580534  -0.0808549  )
       384           C   tau( 384) = (   0.3741790   0.4129403   0.2656496  )
       385           C   tau( 385) = (   0.1264886   0.2304029  -0.0853750  )
       386           C   tau( 386) = (  -0.1283983   0.4852898   0.2611294  )
       387           C   tau( 387) = (   0.3813755  -0.0244840   0.2611294  )
       388           C   tau( 388) = (   0.1264886   0.2304029   0.6076339  )
       389           C   tau( 389) = (   0.3813755   0.4852898  -0.4318794  )
       390           C   tau( 390) = (   0.1264886   0.7401767  -0.0853750  )
       391           C   tau( 391) = (   0.6362624   0.2304029  -0.0853750  )
       392           C   tau( 392) = (   0.3813755   0.4852898   0.2611294  )
       393           C   tau( 393) = (   0.1733530   0.1135697  -0.0858899  )
       394           C   tau( 394) = (  -0.0815340   0.3684566   0.2606145  )
       395           C   tau( 395) = (   0.4282399  -0.1413172   0.2606145  )
       396           C   tau( 396) = (   0.1733530   0.1135697   0.6071189  )
       397           C   tau( 397) = (   0.4282399   0.3684566  -0.4323944  )
       398           C   tau( 398) = (   0.1733530   0.6233435  -0.0858899  )
       399           C   tau( 399) = (   0.6831268   0.1135697  -0.0858899  )
       400           C   tau( 400) = (   0.4282399   0.3684566   0.2606145  )
       401           H   tau( 401) = (   0.2248879   0.1320089  -0.0919123  )
       402           H   tau( 402) = (  -0.0299990   0.3868958   0.2545921  )
       403           H   tau( 403) = (   0.4797748  -0.1228780   0.2545921  )
       404           H   tau( 404) = (   0.2248879   0.1320089   0.6010965  )
       405           H   tau( 405) = (   0.4797748   0.3868958  -0.4384168  )
       406           H   tau( 406) = (   0.2248879   0.6417827  -0.0919123  )
       407           H   tau( 407) = (   0.7346617   0.1320089  -0.0919123  )
       408           H   tau( 408) = (   0.4797748   0.3868958   0.2545921  )
       409           C   tau( 409) = (  -0.1617165   0.2782942   0.2661087  )
       410           C   tau( 410) = (  -0.4166034   0.5331811   0.6126131  )
       411           C   tau( 411) = (   0.0931704   0.0234072   0.6126131  )
       412           C   tau( 412) = (  -0.1617165   0.2782942   0.9591176  )
       413           C   tau( 413) = (   0.0931704   0.5331811  -0.0803957  )
       414           C   tau( 414) = (  -0.1617165   0.7880680   0.2661087  )
       415           C   tau( 415) = (   0.3480573   0.2782942   0.2661087  )
       416           C   tau( 416) = (   0.0931704   0.5331811   0.6126131  )
       417           H   tau( 417) = (  -0.1751034   0.2248802   0.2650870  )
       418           H   tau( 418) = (  -0.4299903   0.4797671   0.6115915  )
       419           H   tau( 419) = (   0.0797836  -0.0300067   0.6115915  )
       420           H   tau( 420) = (  -0.1751034   0.2248802   0.9580959  )
       421           H   tau( 421) = (   0.0797836   0.4797671  -0.0814174  )
       422           H   tau( 422) = (  -0.1751034   0.7346540   0.2650870  )
       423           H   tau( 423) = (   0.3346705   0.2248802   0.2650870  )
       424           H   tau( 424) = (   0.0797836   0.4797671   0.6115915  )
       425           N   tau( 425) = (   0.1757347   0.2686298  -0.0598561  )
       426           N   tau( 426) = (  -0.0791523   0.5235167   0.2866484  )
       427           N   tau( 427) = (   0.4306216   0.0137429   0.2866484  )
       428           N   tau( 428) = (   0.1757347   0.2686298   0.6331528  )
       429           N   tau( 429) = (   0.4306216   0.5235167  -0.4063605  )
       430           N   tau( 430) = (   0.1757347   0.7784037  -0.0598561  )
       431           N   tau( 431) = (   0.6855085   0.2686298  -0.0598561  )
       432           N   tau( 432) = (   0.4306216   0.5235167   0.2866484  )
       433           N   tau( 433) = (   0.1619189   0.3327505  -0.0771948  )
       434           N   tau( 434) = (  -0.0929680   0.5876374   0.2693096  )
       435           N   tau( 435) = (   0.4168059   0.0778636   0.2693096  )
       436           N   tau( 436) = (   0.1619189   0.3327505   0.6158141  )
       437           N   tau( 437) = (   0.4168059   0.5876374  -0.4236992  )
       438           N   tau( 438) = (   0.1619189   0.8425243  -0.0771948  )
       439           N   tau( 439) = (   0.6716928   0.3327505  -0.0771948  )
       440           N   tau( 440) = (   0.4168059   0.5876374   0.2693096  )
       441           C   tau( 441) = (   0.0547751   0.1310583  -0.0740469  )
       442           C   tau( 442) = (  -0.2001118   0.3859452   0.2724575  )
       443           C   tau( 443) = (   0.3096620  -0.1238286   0.2724575  )
       444           C   tau( 444) = (   0.0547751   0.1310583   0.6189619  )
       445           C   tau( 445) = (   0.3096620   0.3859452  -0.4205514  )
       446           C   tau( 446) = (   0.0547751   0.6408321  -0.0740469  )
       447           C   tau( 447) = (   0.5645489   0.1310583  -0.0740469  )
       448           C   tau( 448) = (   0.3096620   0.3859452   0.2724575  )
       449           H   tau( 449) = (   0.2663802  -0.0903755   0.2792431  )
       450           H   tau( 450) = (   0.0114933   0.1645114   0.6257475  )
       451           H   tau( 451) = (   0.5212672  -0.3452624   0.6257475  )
       452           H   tau( 452) = (   0.2663802  -0.0903755   0.9722520  )
       453           H   tau( 453) = (   0.5212672   0.1645114  -0.0672613  )
       454           H   tau( 454) = (   0.2663802   0.4193983   0.2792431  )
       455           H   tau( 455) = (   0.7761541  -0.0903755   0.2792431  )
       456           H   tau( 456) = (   0.5212672   0.1645114   0.6257475  )
       457           N   tau( 457) = (   0.2963571  -0.1890817   0.2718980  )
       458           N   tau( 458) = (   0.0414701   0.0658052   0.6184024  )
       459           N   tau( 459) = (   0.5512440  -0.4439686   0.6184024  )
       460           N   tau( 460) = (   0.2963571  -0.1890817   0.9649069  )
       461           N   tau( 461) = (   0.5512440   0.0658052  -0.0746064  )
       462           N   tau( 462) = (   0.2963571   0.3206921   0.2718980  )
       463           N   tau( 463) = (   0.8061309  -0.1890817   0.2718980  )
       464           N   tau( 464) = (   0.5512440   0.0658052   0.6184024  )
       465           C   tau( 465) = (   0.0952547   0.2096875   0.2614205  )
       466           C   tau( 466) = (  -0.1596322   0.4645744   0.6079250  )
       467           C   tau( 467) = (   0.3501416  -0.0451994   0.6079250  )
       468           C   tau( 468) = (   0.0952547   0.2096875   0.9544294  )
       469           C   tau( 469) = (   0.3501416   0.4645744  -0.0850839  )
       470           C   tau( 470) = (   0.0952547   0.7194613   0.2614205  )
       471           C   tau( 471) = (   0.6050285   0.2096875   0.2614205  )
       472           C   tau( 472) = (   0.3501416   0.4645744   0.6079250  )
       473           H   tau( 473) = (  -0.0549167   0.2630936   0.2569907  )
       474           H   tau( 474) = (  -0.3098036   0.5179805   0.6034951  )
       475           H   tau( 475) = (   0.1999702   0.0082067   0.6034951  )
       476           H   tau( 476) = (  -0.0549167   0.2630936   0.9499995  )
       477           H   tau( 477) = (   0.1999702   0.5179805  -0.0895138  )
       478           H   tau( 478) = (  -0.0549167   0.7728675   0.2569907  )
       479           H   tau( 479) = (   0.4548571   0.2630936   0.2569907  )
       480           H   tau( 480) = (   0.1999702   0.5179805   0.6034951  )
       481           Zn  tau( 481) = (   0.2548869   0.0000000   0.1732522  )
       482           Zn  tau( 482) = (   0.0000000   0.2548869   0.5197567  )
       483           Zn  tau( 483) = (   0.5097738  -0.2548869   0.5197567  )
       484           Zn  tau( 484) = (   0.2548869   0.0000000   0.8662611  )
       485           Zn  tau( 485) = (   0.5097738   0.2548869  -0.1732522  )
       486           Zn  tau( 486) = (   0.2548869   0.5097738   0.1732522  )
       487           Zn  tau( 487) = (   0.7646607   0.0000000   0.1732522  )
       488           Zn  tau( 488) = (   0.5097738   0.2548869   0.5197567  )
       489           Zn  tau( 489) = (   0.0000000   0.0000000   0.3465044  )
       490           Zn  tau( 490) = (  -0.2548869   0.2548869   0.6930089  )
       491           Zn  tau( 491) = (   0.2548869  -0.2548869   0.6930089  )
       492           Zn  tau( 492) = (   0.0000000   0.0000000   1.0395133  )
       493           Zn  tau( 493) = (   0.2548869   0.2548869   0.0000000  )
       494           Zn  tau( 494) = (   0.0000000   0.5097738   0.3465044  )
       495           Zn  tau( 495) = (   0.5097738   0.0000000   0.3465044  )
       496           Zn  tau( 496) = (   0.2548869   0.2548869   0.6930089  )

   Crystallographic axes

     site n.     atom                  positions (cryst. coord.)
         1           N   tau(   1) = (  0.0032815  0.3505269  0.1844547  )
         2           N   tau(   2) = (  0.5032815  0.3505269  0.1844547  )
         3           N   tau(   3) = (  0.0032815  0.8505269  0.1844547  )
         4           N   tau(   4) = (  0.5032815  0.8505269  0.1844547  )
         5           N   tau(   5) = (  0.0032815  0.3505269  0.6844547  )
         6           N   tau(   6) = (  0.5032815  0.3505269  0.6844547  )
         7           N   tau(   7) = (  0.0032815  0.8505269  0.6844547  )
         8           N   tau(   8) = (  0.5032815  0.8505269  0.6844547  )
         9           N   tau(   9) = (  0.4754485  0.4079607  0.2230258  )
        10           N   tau(  10) = (  0.9754485  0.4079607  0.2230258  )
        11           N   tau(  11) = (  0.4754485  0.9079607  0.2230258  )
        12           N   tau(  12) = (  0.9754485  0.9079607  0.2230258  )
        13           N   tau(  13) = (  0.4754485  0.4079607  0.7230258  )
        14           N   tau(  14) = (  0.9754485  0.4079607  0.7230258  )
        15           N   tau(  15) = (  0.4754485  0.9079607  0.7230258  )
        16           N   tau(  16) = (  0.9754485  0.9079607  0.7230258  )
        17           C   tau(  17) = (  0.4413312  0.2133592  0.0380182  )
        18           C   tau(  18) = (  0.9413312  0.2133592  0.0380182  )
        19           C   tau(  19) = (  0.4413312  0.7133592  0.0380182  )
        20           C   tau(  20) = (  0.9413312  0.7133592  0.0380182  )
        21           C   tau(  21) = (  0.4413312  0.2133592  0.5380182  )
        22           C   tau(  22) = (  0.9413312  0.2133592  0.5380182  )
        23           C   tau(  23) = (  0.4413312  0.7133592  0.5380182  )
        24           C   tau(  24) = (  0.9413312  0.7133592  0.5380182  )
        25           C   tau(  25) = (  0.4375339  0.2875827  0.1019219  )
        26           C   tau(  26) = (  0.9375339  0.2875827  0.1019219  )
        27           C   tau(  27) = (  0.4375339  0.7875827  0.1019219  )
        28           C   tau(  28) = (  0.9375339  0.7875827  0.1019219  )
        29           C   tau(  29) = (  0.4375339  0.2875827  0.6019219  )
        30           C   tau(  30) = (  0.9375339  0.2875827  0.6019219  )
        31           C   tau(  31) = (  0.4375339  0.7875827  0.6019219  )
        32           C   tau(  32) = (  0.9375339  0.7875827  0.6019219  )
        33           C   tau(  33) = (  0.3919396  0.1733611  0.4413630  )
        34           C   tau(  34) = (  0.8919396  0.1733611  0.4413630  )
        35           C   tau(  35) = (  0.3919396  0.6733611  0.4413630  )
        36           C   tau(  36) = (  0.8919396  0.6733611  0.4413630  )
        37           C   tau(  37) = (  0.3919396  0.1733611  0.9413630  )
        38           C   tau(  38) = (  0.8919396  0.1733611  0.9413630  )
        39           C   tau(  39) = (  0.3919396  0.6733611  0.9413630  )
        40           C   tau(  40) = (  0.8919396  0.6733611  0.9413630  )
        41           H   tau(  41) = (  0.3457378  0.1957919  0.4089018  )
        42           H   tau(  42) = (  0.8457378  0.1957919  0.4089018  )
        43           H   tau(  43) = (  0.3457378  0.6957919  0.4089018  )
        44           H   tau(  44) = (  0.8457378  0.6957919  0.4089018  )
        45           H   tau(  45) = (  0.3457378  0.1957919  0.9089018  )
        46           H   tau(  46) = (  0.8457378  0.1957919  0.9089018  )
        47           H   tau(  47) = (  0.3457378  0.6957919  0.9089018  )
        48           H   tau(  48) = (  0.8457378  0.6957919  0.9089018  )
        49           C   tau(  49) = (  0.4666208  0.0809633  0.4315744  )
        50           C   tau(  50) = (  0.9666208  0.0809633  0.4315744  )
        51           C   tau(  51) = (  0.4666208  0.5809633  0.4315744  )
        52           C   tau(  52) = (  0.9666208  0.5809633  0.4315744  )
        53           C   tau(  53) = (  0.4666208  0.0809633  0.9315744  )
        54           C   tau(  54) = (  0.9666208  0.0809633  0.9315744  )
        55           C   tau(  55) = (  0.4666208  0.5809633  0.9315744  )
        56           C   tau(  56) = (  0.9666208  0.5809633  0.9315744  )
        57           H   tau(  57) = (  0.4804881  0.0287792  0.3923147  )
        58           H   tau(  58) = (  0.9804881  0.0293106  0.3923147  )
        59           H   tau(  59) = (  0.4804881  0.5293106  0.3923147  )
        60           H   tau(  60) = (  0.9804881  0.5293106  0.3923147  )
        61           H   tau(  61) = (  0.4804881  0.0293106  0.8923147  )
        62           H   tau(  62) = (  0.9804881  0.0293106  0.8923147  )
        63           H   tau(  63) = (  0.4804881  0.5293106  0.8923147  )
        64           H   tau(  64) = (  0.9804881  0.5293106  0.8923147  )
        65           N   tau(  65) = (  0.3708203  0.3066651  0.0911141  )
        66           N   tau(  66) = (  0.8708203  0.3066651  0.0911141  )
        67           N   tau(  67) = (  0.3708203  0.8066651  0.0911141  )
        68           N   tau(  68) = (  0.8708203  0.8066651  0.0911141  )
        69           N   tau(  69) = (  0.3708203  0.3066651  0.5911141  )
        70           N   tau(  70) = (  0.8708203  0.3066651  0.5911141  )
        71           N   tau(  71) = (  0.3708203  0.8066651  0.5911141  )
        72           N   tau(  72) = (  0.8708203  0.8066651  0.5911141  )
        73           N   tau(  73) = (  0.3968809  0.3820661  0.1675562  )
        74           N   tau(  74) = (  0.8968809  0.3820661  0.1675562  )
        75           N   tau(  75) = (  0.3968809  0.8820661  0.1675562  )
        76           N   tau(  76) = (  0.8968809  0.8820661  0.1675562  )
        77           N   tau(  77) = (  0.3968809  0.3820661  0.6675562  )
        78           N   tau(  78) = (  0.8968809  0.3820661  0.6675562  )
        79           N   tau(  79) = (  0.3968809  0.8820661  0.6675562  )
        80           N   tau(  80) = (  0.8968809  0.8820661  0.6675562  )
        81           C   tau(  81) = (  0.4996994  0.1819698  0.0748207  )
        82           C   tau(  82) = (  0.9996994  0.1819698  0.0748207  )
        83           C   tau(  83) = (  0.4996994  0.6819698  0.0748207  )
        84           C   tau(  84) = (  0.9996994  0.6819698  0.0748207  )
        85           C   tau(  85) = (  0.4996994  0.1819698  0.5748207  )
        86           C   tau(  86) = (  0.9996994  0.1819698  0.5748207  )
        87           C   tau(  87) = (  0.4996994  0.6819698  0.5748207  )
        88           C   tau(  88) = (  0.9996994  0.6819698  0.5748207  )
        89           H   tau(  89) = (  0.0372555  0.2098857  0.1500843  )
        90           H   tau(  90) = (  0.5372555  0.2098857  0.1500843  )
        91           H   tau(  91) = (  0.0372555  0.7098857  0.1500843  )
        92           H   tau(  92) = (  0.5372555  0.7098857  0.1500843  )
        93           H   tau(  93) = (  0.0372555  0.2098857  0.6500843  )
        94           H   tau(  94) = (  0.5372555  0.2098857  0.6500843  )
        95           H   tau(  95) = (  0.0372555  0.7098857  0.6500843  )
        96           H   tau(  96) = (  0.5372555  0.7098857  0.6500843  )
        97           N   tau(  97) = (  0.0131529  0.1183715  0.0238685  )
        98           N   tau(  98) = (  0.5131529  0.1183715  0.0238685  )
        99           N   tau(  99) = (  0.0131529  0.6183715  0.0238685  )
       100           N   tau( 100) = (  0.5131529  0.6183715  0.0238685  )
       101           N   tau( 101) = (  0.0131529  0.1183715  0.5238685  )
       102           N   tau( 102) = (  0.5131529  0.1183715  0.5238685  )
       103           N   tau( 103) = (  0.0131529  0.6183715  0.5238685  )
       104           N   tau( 104) = (  0.5131529  0.6183715  0.5238685  )
       105           C   tau( 105) = (  0.2179589  0.0170545  0.1122388  )
       106           C   tau( 106) = (  0.7179589  0.0170545  0.1122388  )
       107           C   tau( 107) = (  0.2179589  0.5170545  0.1122388  )
       108           C   tau( 108) = (  0.7179589  0.5170545  0.1122388  )
       109           C   tau( 109) = (  0.2179589  0.0170545  0.6122388  )
       110           C   tau( 110) = (  0.7179589  0.0170545  0.6122388  )
       111           C   tau( 111) = (  0.2179589  0.5170545  0.6122388  )
       112           C   tau( 112) = (  0.7179589  0.5170545  0.6122388  )
       113           H   tau( 113) = (  0.3684472  0.0726328  0.3119132  )
       114           H   tau( 114) = (  0.8684472  0.0726328  0.3119132  )
       115           H   tau( 115) = (  0.3684472  0.5726328  0.3119132  )
       116           H   tau( 116) = (  0.8684472  0.5726328  0.3119132  )
       117           H   tau( 117) = (  0.3684472  0.0726328  0.8119132  )
       118           H   tau( 118) = (  0.8684472  0.0726328  0.8119132  )
       119           H   tau( 119) = (  0.3684472  0.5726328  0.8119132  )
       120           H   tau( 120) = (  0.8684472  0.5726328  0.8119132  )
       121           N   tau( 121) = (  0.1660722  0.3188268  0.3155453  )
       122           N   tau( 122) = (  0.6660722  0.3188268  0.3155453  )
       123           N   tau( 123) = (  0.1660722  0.8188268  0.3155453  )
       124           N   tau( 124) = (  0.6660722  0.8188268  0.3155453  )
       125           N   tau( 125) = (  0.1660722  0.3188268  0.8155453  )
       126           N   tau( 126) = (  0.6660722  0.3188268  0.8155453  )
       127           N   tau( 127) = (  0.1660722  0.8188268  0.8155453  )
       128           N   tau( 128) = (  0.6660722  0.8188268  0.8155453  )
       129           N   tau( 129) = (  0.1849349  0.2524227  0.2769742  )
       130           N   tau( 130) = (  0.6849349  0.2524227  0.2769742  )
       131           N   tau( 131) = (  0.1849349  0.7524227  0.2769742  )
       132           N   tau( 132) = (  0.6849349  0.7524227  0.2769742  )
       133           N   tau( 133) = (  0.1849349  0.2524227  0.7769742  )
       134           N   tau( 134) = (  0.6849349  0.2524227  0.7769742  )
       135           N   tau( 135) = (  0.1849349  0.7524227  0.7769742  )
       136           N   tau( 136) = (  0.6849349  0.7524227  0.7769742  )
       137           C   tau( 137) = (  0.1753410  0.4033130  0.4619818  )
       138           C   tau( 138) = (  0.6753410  0.4033130  0.4619818  )
       139           C   tau( 139) = (  0.1753410  0.9033130  0.4619818  )
       140           C   tau( 140) = (  0.6753410  0.9033130  0.4619818  )
       141           C   tau( 141) = (  0.1753410  0.4033130  0.9619818  )
       142           C   tau( 142) = (  0.6753410  0.4033130  0.9619818  )
       143           C   tau( 143) = (  0.1753410  0.9033130  0.9619818  )
       144           C   tau( 144) = (  0.6753410  0.9033130  0.9619818  )
       145           C   tau( 145) = (  0.1856608  0.3356120  0.3980781  )
       146           C   tau( 146) = (  0.6856608  0.3356120  0.3980781  )
       147           C   tau( 147) = (  0.1856608  0.8356120  0.3980781  )
       148           C   tau( 148) = (  0.6856608  0.8356120  0.3980781  )
       149           C   tau( 149) = (  0.1856608  0.3356120  0.8980781  )
       150           C   tau( 150) = (  0.6856608  0.3356120  0.8980781  )
       151           C   tau( 151) = (  0.1856608  0.8356120  0.8980781  )
       152           C   tau( 152) = (  0.6856608  0.8356120  0.8980781  )
       153           C   tau( 153) = (  0.2319981  0.4505766  0.0586370  )
       154           C   tau( 154) = (  0.7319981  0.4505766  0.0586370  )
       155           C   tau( 155) = (  0.2319981  0.9505766  0.0586370  )
       156           C   tau( 156) = (  0.7319981  0.9505766  0.0586370  )
       157           C   tau( 157) = (  0.2319981  0.4505766  0.5586370  )
       158           C   tau( 158) = (  0.7319981  0.4505766  0.5586370  )
       159           C   tau( 159) = (  0.2319981  0.9505766  0.5586370  )
       160           C   tau( 160) = (  0.7319981  0.9505766  0.5586370  )
       161           H   tau( 161) = (  0.2868901  0.4368360  0.0910982  )
       162           H   tau( 162) = (  0.7868901  0.4368360  0.0910982  )
       163           H   tau( 163) = (  0.2868901  0.9368360  0.0910982  )
       164           H   tau( 164) = (  0.7868901  0.9368360  0.0910982  )
       165           H   tau( 165) = (  0.2868901  0.4368360  0.5910982  )
       166           H   tau( 166) = (  0.7868901  0.4368360  0.5910982  )
       167           H   tau( 167) = (  0.2868901  0.9368360  0.5910982  )
       168           H   tau( 168) = (  0.7868901  0.9368360  0.5910982  )
       169           C   tau( 169) = (  0.1493889  0.0350464  0.0684256  )
       170           C   tau( 170) = (  0.6493889  0.0350464  0.0684256  )
       171           C   tau( 171) = (  0.1493889  0.5350464  0.0684256  )
       172           C   tau( 172) = (  0.6493889  0.5350464  0.0684256  )
       173           C   tau( 173) = (  0.1493889  0.0350464  0.5684256  )
       174           C   tau( 174) = (  0.6493889  0.0350464  0.5684256  )
       175           C   tau( 175) = (  0.1493889  0.5350464  0.5684256  )
       176           C   tau( 176) = (  0.6493889  0.5350464  0.5684256  )
       177           H   tau( 177) = (  0.1369958  0.0881734  0.1076853  )
       178           H   tau( 178) = (  0.6369958  0.0881734  0.1076853  )
       179           H   tau( 179) = (  0.1369958  0.5881734  0.1076853  )
       180           H   tau( 180) = (  0.6369958  0.5881734  0.1076853  )
       181           H   tau( 181) = (  0.1369958  0.0881734  0.6076853  )
       182           H   tau( 182) = (  0.6369958  0.0881734  0.6076853  )
       183           H   tau( 183) = (  0.1369958  0.5881734  0.6076853  )
       184           H   tau( 184) = (  0.6369958  0.5881734  0.6076853  )
       185           N   tau( 185) = (  0.2155510  0.2797062  0.4088859  )
       186           N   tau( 186) = (  0.7155510  0.2797062  0.4088859  )
       187           N   tau( 187) = (  0.2155510  0.7797062  0.4088859  )
       188           N   tau( 188) = (  0.7155510  0.7797062  0.4088859  )
       189           N   tau( 189) = (  0.2155510  0.2797062  0.9088859  )
       190           N   tau( 190) = (  0.7155510  0.2797062  0.9088859  )
       191           N   tau( 191) = (  0.2155510  0.7797062  0.9088859  )
       192           N   tau( 192) = (  0.7155510  0.7797062  0.9088859  )
       193           N   tau( 193) = (  0.2145099  0.2293247  0.3324438  )
       194           N   tau( 194) = (  0.7145099  0.2293247  0.3324438  )
       195           N   tau( 195) = (  0.2145099  0.7293247  0.3324438  )
       196           N   tau( 196) = (  0.7145099  0.7293247  0.3324438  )
       197           N   tau( 197) = (  0.2145099  0.2293247  0.8324438  )
       198           N   tau( 198) = (  0.7145099  0.2293247  0.8324438  )
       199           N   tau( 199) = (  0.2145099  0.7293247  0.8324438  )
       200           N   tau( 200) = (  0.7145099  0.7293247  0.8324438  )
       201           C   tau( 201) = (  0.1071491  0.4248787  0.4251793  )
       202           C   tau( 202) = (  0.6071491  0.4248787  0.4251793  )
       203           C   tau( 203) = (  0.1071491  0.9248787  0.4251793  )
       204           C   tau( 204) = (  0.6071491  0.9248787  0.4251793  )
       205           C   tau( 205) = (  0.1071491  0.4248787  0.9251793  )
       206           C   tau( 206) = (  0.6071491  0.4248787  0.9251793  )
       207           C   tau( 207) = (  0.1071491  0.9248787  0.9251793  )
       208           C   tau( 208) = (  0.6071491  0.9248787  0.9251793  )
       209           H   tau( 209) = (  0.0598014  0.3871712  0.3499157  )
       210           H   tau( 210) = (  0.5598014  0.3871712  0.3499157  )
       211           H   tau( 211) = (  0.0598014  0.8871712  0.3499157  )
       212           H   tau( 212) = (  0.5598014  0.8871712  0.3499157  )
       213           H   tau( 213) = (  0.0598014  0.3871712  0.8499157  )
       214           H   tau( 214) = (  0.5598014  0.3871712  0.8499157  )
       215           H   tau( 215) = (  0.0598014  0.8871712  0.8499157  )
       216           H   tau( 216) = (  0.5598014  0.8871712  0.8499157  )
       217           N   tau( 217) = (  0.0945030  0.4892844  0.4761315  )
       218           N   tau( 218) = (  0.5945030  0.4892844  0.4761315  )
       219           N   tau( 219) = (  0.0945030  0.9892844  0.4761315  )
       220           N   tau( 220) = (  0.5945030  0.9892844  0.4761315  )
       221           N   tau( 221) = (  0.0945030  0.4892844  0.9761315  )
       222           N   tau( 222) = (  0.5945030  0.4892844  0.9761315  )
       223           N   tau( 223) = (  0.0945030  0.9892844  0.9761315  )
       224           N   tau( 224) = (  0.5945030  0.9892844  0.9761315  )
       225           C   tau( 225) = (  0.4048157  0.1057201  0.3877612  )
       226           C   tau( 226) = (  0.9048157  0.1057201  0.3877612  )
       227           C   tau( 227) = (  0.4048157  0.6057201  0.3877612  )
       228           C   tau( 228) = (  0.9048157  0.6057201  0.3877612  )
       229           C   tau( 229) = (  0.4048157  0.1057201  0.8877612  )
       230           C   tau( 230) = (  0.9048157  0.1057201  0.8877612  )
       231           C   tau( 231) = (  0.4048157  0.6057201  0.8877612  )
       232           C   tau( 232) = (  0.9048157  0.6057201  0.8877612  )
       233           H   tau( 233) = (  0.2607196  0.0565340  0.1880868  )
       234           H   tau( 234) = (  0.7607196  0.0565340  0.1880868  )
       235           H   tau( 235) = (  0.2607196  0.5565340  0.1880868  )
       236           H   tau( 236) = (  0.7607196  0.5565340  0.1880868  )
       237           H   tau( 237) = (  0.2607196  0.0565340  0.6880868  )
       238           H   tau( 238) = (  0.7607196  0.0565340  0.6880868  )
       239           H   tau( 239) = (  0.2607196  0.5565340  0.6880868  )
       240           H   tau( 240) = (  0.7607196  0.5565340  0.6880868  )
       241           N   tau( 241) = (  0.1494731  0.3339278  0.1527546  )
       242           N   tau( 242) = (  0.6494731  0.3339278  0.1527546  )
       243           N   tau( 243) = (  0.1494731  0.8339278  0.1527546  )
       244           N   tau( 244) = (  0.6494731  0.8339278  0.1527546  )
       245           N   tau( 245) = (  0.1494731  0.3339278  0.6527546  )
       246           N   tau( 246) = (  0.6494731  0.3339278  0.6527546  )
       247           N   tau( 247) = (  0.1494731  0.8339278  0.6527546  )
       248           N   tau( 248) = (  0.6494731  0.8339278  0.6527546  )
       249           N   tau( 249) = (  0.0920393  0.3150651  0.0674878  )
       250           N   tau( 250) = (  0.5920393  0.3150651  0.0674878  )
       251           N   tau( 251) = (  0.0920393  0.8150651  0.0674878  )
       252           N   tau( 252) = (  0.5920393  0.8150651  0.0674878  )
       253           N   tau( 253) = (  0.0920393  0.3150651  0.5674878  )
       254           N   tau( 254) = (  0.5920393  0.3150651  0.5674878  )
       255           N   tau( 255) = (  0.0920393  0.8150651  0.5674878  )
       256           N   tau( 256) = (  0.5920393  0.8150651  0.5674878  )
       257           C   tau( 257) = (  0.2866408  0.3246590  0.2279720  )
       258           C   tau( 258) = (  0.7866408  0.3246590  0.2279720  )
       259           C   tau( 259) = (  0.2866408  0.8246590  0.2279720  )
       260           C   tau( 260) = (  0.7866408  0.8246590  0.2279720  )
       261           C   tau( 261) = (  0.2866408  0.3246590  0.7279720  )
       262           C   tau( 262) = (  0.7866408  0.3246590  0.7279720  )
       263           C   tau( 263) = (  0.2866408  0.8246590  0.7279720  )
       264           C   tau( 264) = (  0.7866408  0.8246590  0.7279720  )
       265           C   tau( 265) = (  0.2124173  0.3143392  0.1499511  )
       266           C   tau( 266) = (  0.7124173  0.3143392  0.1499511  )
       267           C   tau( 267) = (  0.2124173  0.8143392  0.1499511  )
       268           C   tau( 268) = (  0.7124173  0.8143392  0.1499511  )
       269           C   tau( 269) = (  0.2124173  0.3143392  0.6499511  )
       270           C   tau( 270) = (  0.7124173  0.3143392  0.6499511  )
       271           C   tau( 271) = (  0.2124173  0.8143392  0.6499511  )
       272           C   tau( 272) = (  0.7124173  0.8143392  0.6499511  )
       273           C   tau( 273) = (  0.3266389  0.2680019  0.2185785  )
       274           C   tau( 274) = (  0.8266389  0.2680019  0.2185785  )
       275           C   tau( 275) = (  0.3266389  0.7680019  0.2185785  )
       276           C   tau( 276) = (  0.8266389  0.7680019  0.2185785  )
       277           C   tau( 277) = (  0.3266389  0.2680019  0.7185785  )
       278           C   tau( 278) = (  0.8266389  0.2680019  0.7185785  )
       279           C   tau( 279) = (  0.3266389  0.7680019  0.7185785  )
       280           C   tau( 280) = (  0.8266389  0.7680019  0.7185785  )
       281           H   tau( 281) = (  0.3042081  0.2131099  0.1499459  )
       282           H   tau( 282) = (  0.8042081  0.2131099  0.1499459  )
       283           H   tau( 283) = (  0.3042081  0.7131099  0.1499459  )
       284           H   tau( 284) = (  0.8042081  0.7131099  0.1499459  )
       285           H   tau( 285) = (  0.3042081  0.2131099  0.6499459  )
       286           H   tau( 286) = (  0.8042081  0.2131099  0.6499459  )
       287           H   tau( 287) = (  0.3042081  0.7131099  0.6499459  )
       288           H   tau( 288) = (  0.8042081  0.7131099  0.6499459  )
       289           C   tau( 289) = (  0.4190367  0.3506111  0.3856575  )
       290           C   tau( 290) = (  0.9190367  0.3506111  0.3856575  )
       291           C   tau( 291) = (  0.4190367  0.8506111  0.3856575  )
       292           C   tau( 292) = (  0.9190367  0.8506111  0.3856575  )
       293           C   tau( 293) = (  0.4190367  0.3506111  0.8856575  )
       294           C   tau( 294) = (  0.9190367  0.3506111  0.8856575  )
       295           C   tau( 295) = (  0.4190367  0.8506111  0.8856575  )
       296           C   tau( 296) = (  0.9190367  0.8506111  0.8856575  )
       297           H   tau( 297) = (  0.4706894  0.3630042  0.4511775  )
       298           H   tau( 298) = (  0.9706894  0.3630042  0.4511775  )
       299           H   tau( 299) = (  0.4706894  0.8630042  0.4511775  )
       300           H   tau( 300) = (  0.9706894  0.8630042  0.4511775  )
       301           H   tau( 301) = (  0.4706894  0.3630042  0.9511775  )
       302           H   tau( 302) = (  0.9706894  0.3630042  0.9511775  )
       303           H   tau( 303) = (  0.4706894  0.8630042  0.9511775  )
       304           H   tau( 304) = (  0.9706894  0.8630042  0.9511775  )
       305           N   tau( 305) = (  0.1933349  0.2844490  0.0641553  )
       306           N   tau( 306) = (  0.6933349  0.2844490  0.0641553  )
       307           N   tau( 307) = (  0.1933349  0.7844490  0.0641553  )
       308           N   tau( 308) = (  0.6933349  0.7844490  0.0641553  )
       309           N   tau( 309) = (  0.1933349  0.2844490  0.5641553  )
       310           N   tau( 310) = (  0.6933349  0.2844490  0.5641553  )
       311           N   tau( 311) = (  0.1933349  0.7844490  0.5641553  )
       312           N   tau( 312) = (  0.6933349  0.7844490  0.5641553  )
       313           N   tau( 313) = (  0.1179339  0.2854901  0.0148148  )
       314           N   tau( 314) = (  0.6179339  0.2854901  0.0148148  )
       315           N   tau( 315) = (  0.1179339  0.7854901  0.0148148  )
       316           N   tau( 316) = (  0.6179339  0.7854901  0.0148148  )
       317           N   tau( 317) = (  0.1179339  0.2854901  0.5148148  )
       318           N   tau( 318) = (  0.6179339  0.2854901  0.5148148  )
       319           N   tau( 319) = (  0.1179339  0.7854901  0.5148148  )
       320           N   tau( 320) = (  0.6179339  0.7854901  0.5148148  )
       321           C   tau( 321) = (  0.3180302  0.3928509  0.3177296  )
       322           C   tau( 322) = (  0.8180302  0.3928509  0.3177296  )
       323           C   tau( 323) = (  0.3180302  0.8928509  0.3177296  )
       324           C   tau( 324) = (  0.8180302  0.8928509  0.3177296  )
       325           C   tau( 325) = (  0.3180302  0.3928509  0.8177296  )
       326           C   tau( 326) = (  0.8180302  0.3928509  0.8177296  )
       327           C   tau( 327) = (  0.3180302  0.8928509  0.8177296  )
       328           C   tau( 328) = (  0.8180302  0.8928509  0.8177296  )
       329           H   tau( 329) = (  0.2901143  0.4401986  0.3273698  )
       330           H   tau( 330) = (  0.7901143  0.4401986  0.3273698  )
       331           H   tau( 331) = (  0.2901143  0.9401986  0.3273698  )
       332           H   tau( 332) = (  0.7901143  0.9401986  0.3273698  )
       333           H   tau( 333) = (  0.2901143  0.4401986  0.8273698  )
       334           H   tau( 334) = (  0.7901143  0.4401986  0.8273698  )
       335           H   tau( 335) = (  0.2901143  0.9401986  0.8273698  )
       336           H   tau( 336) = (  0.7901143  0.9401986  0.8273698  )
       337           N   tau( 337) = (  0.3816285  0.4054970  0.3947814  )
       338           N   tau( 338) = (  0.8816285  0.4054970  0.3947814  )
       339           N   tau( 339) = (  0.3816285  0.9054970  0.3947814  )
       340           N   tau( 340) = (  0.8816285  0.9054970  0.3947814  )
       341           N   tau( 341) = (  0.3816285  0.4054970  0.8947814  )
       342           N   tau( 342) = (  0.8816285  0.4054970  0.8947814  )
       343           N   tau( 343) = (  0.3816285  0.9054970  0.8947814  )
       344           N   tau( 344) = (  0.8816285  0.9054970  0.8947814  )
       345           C   tau( 345) = (  0.4829455  0.0951843  0.2009044  )
       346           C   tau( 346) = (  0.9829455  0.0951843  0.2009044  )
       347           C   tau( 347) = (  0.4829455  0.5951843  0.2009044  )
       348           C   tau( 348) = (  0.9829455  0.5951843  0.2009044  )
       349           C   tau( 349) = (  0.4829455  0.0951843  0.7009044  )
       350           C   tau( 350) = (  0.9829455  0.0951843  0.7009044  )
       351           C   tau( 351) = (  0.4829455  0.5951843  0.7009044  )
       352           C   tau( 352) = (  0.9829455  0.5951843  0.7009044  )
       353           H   tau( 353) = (  0.4273672  0.2392804  0.2958144  )
       354           H   tau( 354) = (  0.9273672  0.2392804  0.2958144  )
       355           H   tau( 355) = (  0.4273672  0.7392804  0.2958144  )
       356           H   tau( 356) = (  0.9273672  0.7392804  0.2958144  )
       357           H   tau( 357) = (  0.4273672  0.2392804  0.7958144  )
       358           H   tau( 358) = (  0.9273672  0.2392804  0.7958144  )
       359           H   tau( 359) = (  0.4273672  0.7392804  0.7958144  )
       360           H   tau( 360) = (  0.9273672  0.7392804  0.7958144  )
       361           N   tau( 361) = (  0.1811732  0.4967185  0.3472454  )
       362           N   tau( 362) = (  0.6811732  0.4967185  0.3472454  )
       363           N   tau( 363) = (  0.1811732  0.9967185  0.3472454  )
       364           N   tau( 364) = (  0.6811732  0.9967185  0.3472454  )
       365           N   tau( 365) = (  0.1811732  0.4967185  0.8472454  )
       366           N   tau( 366) = (  0.6811732  0.4967185  0.8472454  )
       367           N   tau( 367) = (  0.1811732  0.9967185  0.8472454  )
       368           N   tau( 368) = (  0.6811732  0.9967185  0.8472454  )
       369           N   tau( 369) = (  0.2475773  0.0245515  0.4325122  )
       370           N   tau( 370) = (  0.7475773  0.0245515  0.4325122  )
       371           N   tau( 371) = (  0.2475773  0.5245515  0.4325122  )
       372           N   tau( 372) = (  0.7475773  0.5245515  0.4325122  )
       373           N   tau( 373) = (  0.2475773  0.0245515  0.9325122  )
       374           N   tau( 374) = (  0.7475773  0.0245515  0.9325122  )
       375           N   tau( 375) = (  0.2475773  0.5245515  0.9325122  )
       376           N   tau( 376) = (  0.7475773  0.5245515  0.9325122  )
       377           C   tau( 377) = (  0.0966870  0.0586688  0.2720280  )
       378           C   tau( 378) = (  0.5966870  0.0586688  0.2720280  )
       379           C   tau( 379) = (  0.0966870  0.5586688  0.2720280  )
       380           C   tau( 380) = (  0.5966870  0.5586688  0.2720280  )
       381           C   tau( 381) = (  0.0966870  0.0586688  0.7720280  )
       382           C   tau( 382) = (  0.5966870  0.0586688  0.7720280  )
       383           C   tau( 383) = (  0.0966870  0.5586688  0.7720280  )
       384           C   tau( 384) = (  0.5966870  0.5586688  0.7720280  )
       385           C   tau( 385) = (  0.1643880  0.0624661  0.3500489  )
       386           C   tau( 386) = (  0.6643880  0.0624661  0.3500489  )
       387           C   tau( 387) = (  0.1643880  0.5624661  0.3500489  )
       388           C   tau( 388) = (  0.6643880  0.5624661  0.3500489  )
       389           C   tau( 389) = (  0.1643880  0.0624661  0.8500489  )
       390           C   tau( 390) = (  0.6643880  0.0624661  0.8500489  )
       391           C   tau( 391) = (  0.1643880  0.5624661  0.8500489  )
       392           C   tau( 392) = (  0.6643880  0.5624661  0.8500489  )
       393           C   tau( 393) = (  0.0494234  0.1080604  0.2814215  )
       394           C   tau( 394) = (  0.5494234  0.1080604  0.2814215  )
       395           C   tau( 395) = (  0.0494234  0.6080604  0.2814215  )
       396           C   tau( 396) = (  0.5494234  0.6080604  0.2814215  )
       397           C   tau( 397) = (  0.0494234  0.1080604  0.7814215  )
       398           C   tau( 398) = (  0.5494234  0.1080604  0.7814215  )
       399           C   tau( 399) = (  0.0494234  0.6080604  0.7814215  )
       400           C   tau( 400) = (  0.5494234  0.6080604  0.7814215  )
       401           H   tau( 401) = (  0.0631640  0.1542622  0.3500541  )
       402           H   tau( 402) = (  0.5631640  0.1542622  0.3500541  )
       403           H   tau( 403) = (  0.0631640  0.6542622  0.3500541  )
       404           H   tau( 404) = (  0.5631640  0.6542622  0.3500541  )
       405           H   tau( 405) = (  0.0631640  0.1542622  0.8500541  )
       406           H   tau( 406) = (  0.5631640  0.1542622  0.8500541  )
       407           H   tau( 407) = (  0.0631640  0.6542622  0.8500541  )
       408           H   tau( 408) = (  0.5631640  0.6542622  0.8500541  )
       409           C   tau( 409) = (  0.4649536  0.0333792  0.1143425  )
       410           C   tau( 410) = (  0.9649536  0.0333792  0.1143425  )
       411           C   tau( 411) = (  0.4649536  0.5333792  0.1143425  )
       412           C   tau( 412) = (  0.9649536  0.5333792  0.1143425  )
       413           C   tau( 413) = (  0.4649536  0.0333792  0.6143425  )
       414           C   tau( 414) = (  0.9649536  0.0333792  0.6143425  )
       415           C   tau( 415) = (  0.4649536  0.5333792  0.6143425  )
       416           C   tau( 416) = (  0.9649536  0.5333792  0.6143425  )
       417           H   tau( 417) = (  0.4118266  0.0195119  0.0488225  )
       418           H   tau( 418) = (  0.9118266  0.0195119  0.0488225  )
       419           H   tau( 419) = (  0.4118266  0.5195119  0.0488225  )
       420           H   tau( 420) = (  0.9118266  0.5195119  0.0488225  )
       421           H   tau( 421) = (  0.4118266  0.0195119  0.5488225  )
       422           H   tau( 422) = (  0.9118266  0.0195119  0.5488225  )
       423           H   tau( 423) = (  0.4118266  0.5195119  0.5488225  )
       424           H   tau( 424) = (  0.9118266  0.5195119  0.5488225  )
       425           N   tau( 425) = (  0.2202938  0.1291797  0.4358447  )
       426           N   tau( 426) = (  0.7202938  0.1291797  0.4358447  )
       427           N   tau( 427) = (  0.2202938  0.6291797  0.4358447  )
       428           N   tau( 428) = (  0.7202938  0.6291797  0.4358447  )
       429           N   tau( 429) = (  0.2202938  0.1291797  0.9358447  )
       430           N   tau( 430) = (  0.7202938  0.1291797  0.9358447  )
       431           N   tau( 431) = (  0.2202938  0.6291797  0.9358447  )
       432           N   tau( 432) = (  0.7202938  0.6291797  0.9358447  )
       433           N   tau( 433) = (  0.2706753  0.1031191  0.4851852  )
       434           N   tau( 434) = (  0.7706753  0.1031191  0.4851852  )
       435           N   tau( 435) = (  0.2706753  0.6031191  0.4851852  )
       436           N   tau( 436) = (  0.7706753  0.6031191  0.4851852  )
       437           N   tau( 437) = (  0.2706753  0.1031191  0.9851852  )
       438           N   tau( 438) = (  0.7706753  0.1031191  0.9851852  )
       439           N   tau( 439) = (  0.2706753  0.6031191  0.9851852  )
       440           N   tau( 440) = (  0.7706753  0.6031191  0.9851852  )
       441           C   tau( 441) = (  0.0751213  0.0003006  0.1822704  )
       442           C   tau( 442) = (  0.5751213  0.0003006  0.1822704  )
       443           C   tau( 443) = (  0.0751213  0.5003006  0.1822704  )
       444           C   tau( 444) = (  0.5751213  0.5003006  0.1822704  )
       445           C   tau( 445) = (  0.0751213  0.0003006  0.6822704  )
       446           C   tau( 446) = (  0.5751213  0.0003006  0.6822704  )
       447           C   tau( 447) = (  0.0751213  0.5003006  0.6822704  )
       448           C   tau( 448) = (  0.5751213  0.5003006  0.6822704  )
       449           H   tau( 449) = (  0.1128288  0.4627445  0.1726302  )
       450           H   tau( 450) = (  0.6128288  0.4627445  0.1726302  )
       451           H   tau( 451) = (  0.1128288  0.9627445  0.1726302  )
       452           H   tau( 452) = (  0.6128288  0.9627445  0.1726302  )
       453           H   tau( 453) = (  0.1128288  0.4627445  0.6726302  )
       454           H   tau( 454) = (  0.6128288  0.4627445  0.6726302  )
       455           H   tau( 455) = (  0.1128288  0.9627445  0.6726302  )
       456           H   tau( 456) = (  0.6128288  0.9627445  0.6726302  )
       457           N   tau( 457) = (  0.0107156  0.4868471  0.1052186  )
       458           N   tau( 458) = (  0.5107156  0.4868471  0.1052186  )
       459           N   tau( 459) = (  0.0107156  0.9868471  0.1052186  )
       460           N   tau( 460) = (  0.5107156  0.9868471  0.1052186  )
       461           N   tau( 461) = (  0.0107156  0.4868471  0.6052186  )
       462           N   tau( 462) = (  0.5107156  0.4868471  0.6052186  )
       463           N   tau( 463) = (  0.0107156  0.9868471  0.6052186  )
       464           N   tau( 464) = (  0.5107156  0.9868471  0.6052186  )
       465           C   tau( 465) = (  0.3942799  0.2820411  0.2990956  )
       466           C   tau( 466) = (  0.8942799  0.2820411  0.2990956  )
       467           C   tau( 467) = (  0.3942799  0.7820411  0.2990956  )
       468           C   tau( 468) = (  0.8942799  0.7820411  0.2990956  )
       469           C   tau( 469) = (  0.3942799  0.2820411  0.7990956  )
       470           C   tau( 470) = (  0.8942799  0.2820411  0.7990956  )
       471           C   tau( 471) = (  0.3942799  0.7820411  0.7990956  )
       472           C   tau( 472) = (  0.8942799  0.7820411  0.7990956  )
       473           H   tau( 473) = (  0.4434660  0.1315528  0.2041856  )
       474           H   tau( 474) = (  0.9434660  0.1315528  0.2041856  )
       475           H   tau( 475) = (  0.4434660  0.6315528  0.2041856  )
       476           H   tau( 476) = (  0.9434660  0.6315528  0.2041856  )
       477           H   tau( 477) = (  0.4434660  0.1315528  0.7041856  )
       478           H   tau( 478) = (  0.9434660  0.1315528  0.7041856  )
       479           H   tau( 479) = (  0.4434660  0.6315528  0.7041856  )
       480           H   tau( 480) = (  0.9434660  0.6315528  0.7041856  )
       481           Zn  tau( 481) = (  0.1250000  0.3750000  0.2500000  )
       482           Zn  tau( 482) = (  0.6250000  0.3750000  0.2500000  )
       483           Zn  tau( 483) = (  0.1250000  0.8750000  0.2500000  )
       484           Zn  tau( 484) = (  0.6250000  0.8750000  0.2500000  )
       485           Zn  tau( 485) = (  0.1250000  0.3750000  0.7500000  )
       486           Zn  tau( 486) = (  0.6250000  0.3750000  0.7500000  )
       487           Zn  tau( 487) = (  0.1250000  0.8750000  0.7500000  )
       488           Zn  tau( 488) = (  0.6250000  0.8750000  0.7500000  )
       489           Zn  tau( 489) = (  0.2500000  0.2500000  0.0000000  )
       490           Zn  tau( 490) = (  0.7500000  0.2500000  0.0000000  )
       491           Zn  tau( 491) = (  0.2500000  0.7500000  0.0000000  )
       492           Zn  tau( 492) = (  0.7500000  0.7500000  0.0000000  )
       493           Zn  tau( 493) = (  0.2500000  0.2500000  0.5000000  )
       494           Zn  tau( 494) = (  0.7500000  0.2500000  0.5000000  )
       495           Zn  tau( 495) = (  0.2500000  0.7500000  0.5000000  )
       496           Zn  tau( 496) = (  0.7500000  0.7500000  0.5000000  )

     number of k points=     1
                       cart. coord. in units 2pi/alat
        k(    1) = (   0.0000000   0.0000000   0.0000000), wk =   2.0000000

                       cryst. coord.
        k(    1) = (   0.0000000   0.0000000   0.0000000), wk =   2.0000000

     Dense  grid:  2563819 G-vectors     FFT dimensions: ( 192, 192, 192)

     Smooth grid:  2411581 G-vectors     FFT dimensions: ( 192, 192, 192)

     Dynamical RAM for                 wfc:     144.89 MB

     Dynamical RAM for     wfc (w. buffer):     144.89 MB

     Dynamical RAM for           str. fact:       4.89 MB

     Dynamical RAM for           local pot:       0.00 MB

     Dynamical RAM for          nlocal pot:     482.96 MB

     Dynamical RAM for                qrad:       5.08 MB

     Dynamical RAM for          rho,v,vnew:       8.73 MB

     Dynamical RAM for               rhoin:       2.91 MB

     Dynamical RAM for            rho*nmix:      19.56 MB

     Dynamical RAM for           G-vectors:       5.16 MB

     Dynamical RAM for          h,s,v(r/c):       7.43 MB

     Dynamical RAM for          <psi|beta>:      51.68 MB

     Dynamical RAM for                 psi:     289.78 MB

     Dynamical RAM for                hpsi:     289.78 MB

     Dynamical RAM for                spsi:     289.78 MB

     Dynamical RAM for      wfcinit/wfcrot:     570.99 MB

     Dynamical RAM for           addusdens:     462.11 MB

     Dynamical RAM for          addusforce:     930.48 MB

     Dynamical RAM for         addusstress:     245.73 MB

     Estimated static dynamical RAM per process >     669.17 MB

     Estimated max dynamical RAM per process >       1.58 GB

     Estimated total dynamical RAM >      50.60 GB

     Check: negative core charge=   -0.000014

     Initial potential from superposition of free atoms

     starting charge    2015.9874, renormalised to    2016.0000
     Starting wfcs are 1744 randomized atomic wfcs
     Checking if some PAW data can be deallocated... 
       PAW data deallocated on   10 nodes for type:  2

     total cpu time spent up to now is      154.0 secs

     Self-consistent Calculation

     iteration #  1     ecut=    60.00 Ry     beta= 0.40
     Davidson diagonalization with overlap

---- Real-time Memory Report at c_bands before calling an iterative solver
          1344 MiB given to the printing process from OS
             0 MiB allocation reported by mallinfo(arena+hblkhd)
        104770 MiB available memory on the node where the printing process lives
------------------
     ethr =  1.00E-02,  avg # of iterations =  3.0

     total cpu time spent up to now is      483.1 secs

     total energy              =  -14223.11850464 Ry
     estimated scf accuracy    <      42.09109358 Ry

     iteration #  2     ecut=    60.00 Ry     beta= 0.40
     Davidson diagonalization with overlap

---- Real-time Memory Report at c_bands before calling an iterative solver
          1727 MiB given to the printing process from OS
             0 MiB allocation reported by mallinfo(arena+hblkhd)
         95317 MiB available memory on the node where the printing process lives
------------------
     ethr =  2.09E-03,  avg # of iterations =  2.0

     total cpu time spent up to now is      749.7 secs

     total energy              =  -14223.75083596 Ry
     estimated scf accuracy    <       7.72022413 Ry

     iteration #  3     ecut=    60.00 Ry     beta= 0.40
     Davidson diagonalization with overlap

---- Real-time Memory Report at c_bands before calling an iterative solver
          1745 MiB given to the printing process from OS
             0 MiB allocation reported by mallinfo(arena+hblkhd)
         94597 MiB available memory on the node where the printing process lives
------------------
     ethr =  3.83E-04,  avg # of iterations =  4.0

     total cpu time spent up to now is     1096.4 secs

     total energy              =  -14225.17461662 Ry
     estimated scf accuracy    <       0.85065650 Ry

     iteration #  4     ecut=    60.00 Ry     beta= 0.40
     Davidson diagonalization with overlap

---- Real-time Memory Report at c_bands before calling an iterative solver
          1749 MiB given to the printing process from OS
             0 MiB allocation reported by mallinfo(arena+hblkhd)
         90407 MiB available memory on the node where the printing process lives
------------------
     ethr =  4.22E-05,  avg # of iterations =  4.0

     total cpu time spent up to now is     1406.5 secs

     total energy              =  -14225.24911305 Ry
     estimated scf accuracy    <       0.17082320 Ry

     iteration #  5     ecut=    60.00 Ry     beta= 0.40
     Davidson diagonalization with overlap

---- Real-time Memory Report at c_bands before calling an iterative solver
          1752 MiB given to the printing process from OS
             0 MiB allocation reported by mallinfo(arena+hblkhd)
         92741 MiB available memory on the node where the printing process lives
------------------
     ethr =  8.47E-06,  avg # of iterations =  5.0

     total cpu time spent up to now is     1757.3 secs

     total energy              =  -14225.27785569 Ry
     estimated scf accuracy    <       0.02995944 Ry

     iteration #  6     ecut=    60.00 Ry     beta= 0.40
     Davidson diagonalization with overlap

---- Real-time Memory Report at c_bands before calling an iterative solver
          1764 MiB given to the printing process from OS
             0 MiB allocation reported by mallinfo(arena+hblkhd)
         91779 MiB available memory on the node where the printing process lives
------------------
     ethr =  1.49E-06,  avg # of iterations =  5.0

     total cpu time spent up to now is     2139.6 secs

     total energy              =  -14225.28471453 Ry
     estimated scf accuracy    <       0.00781816 Ry

     iteration #  7     ecut=    60.00 Ry     beta= 0.40
     Davidson diagonalization with overlap

---- Real-time Memory Report at c_bands before calling an iterative solver
          1764 MiB given to the printing process from OS
             0 MiB allocation reported by mallinfo(arena+hblkhd)
         93640 MiB available memory on the node where the printing process lives
------------------
     ethr =  3.88E-07,  avg # of iterations =  5.0

     total cpu time spent up to now is     2526.5 secs

     total energy              =  -14225.28696850 Ry
     estimated scf accuracy    <       0.00171363 Ry

     iteration #  8     ecut=    60.00 Ry     beta= 0.40
     Davidson diagonalization with overlap

---- Real-time Memory Report at c_bands before calling an iterative solver
          1764 MiB given to the printing process from OS
             0 MiB allocation reported by mallinfo(arena+hblkhd)
         94833 MiB available memory on the node where the printing process lives
------------------
     ethr =  8.50E-08,  avg # of iterations =  5.0

     total cpu time spent up to now is     2862.6 secs

     total energy              =  -14225.28737257 Ry
     estimated scf accuracy    <       0.00013945 Ry

     iteration #  9     ecut=    60.00 Ry     beta= 0.40
     Davidson diagonalization with overlap

---- Real-time Memory Report at c_bands before calling an iterative solver
          1767 MiB given to the printing process from OS
             0 MiB allocation reported by mallinfo(arena+hblkhd)
         92885 MiB available memory on the node where the printing process lives
------------------
     ethr =  6.92E-09,  avg # of iterations =  6.0

     total cpu time spent up to now is     3311.8 secs

     total energy              =  -14225.28743526 Ry
     estimated scf accuracy    <       0.00005540 Ry

     iteration # 10     ecut=    60.00 Ry     beta= 0.40
     Davidson diagonalization with overlap

---- Real-time Memory Report at c_bands before calling an iterative solver
          1770 MiB given to the printing process from OS
             0 MiB allocation reported by mallinfo(arena+hblkhd)
         92757 MiB available memory on the node where the printing process lives
------------------
     ethr =  2.75E-09,  avg # of iterations =  4.0

     total cpu time spent up to now is     3587.6 secs

     total energy              =  -14225.28743308 Ry
     estimated scf accuracy    <       0.00001445 Ry

     iteration # 11     ecut=    60.00 Ry     beta= 0.40
     Davidson diagonalization with overlap

---- Real-time Memory Report at c_bands before calling an iterative solver
          1774 MiB given to the printing process from OS
             0 MiB allocation reported by mallinfo(arena+hblkhd)
         91362 MiB available memory on the node where the printing process lives
------------------
     ethr =  7.17E-10,  avg # of iterations =  6.0

     total cpu time spent up to now is     4070.2 secs

     total energy              =  -14225.28744145 Ry
     estimated scf accuracy    <       0.00001846 Ry

     iteration # 12     ecut=    60.00 Ry     beta= 0.40
     Davidson diagonalization with overlap

---- Real-time Memory Report at c_bands before calling an iterative solver
          1774 MiB given to the printing process from OS
             0 MiB allocation reported by mallinfo(arena+hblkhd)
         98787 MiB available memory on the node where the printing process lives
------------------
     ethr =  7.17E-10,  avg # of iterations =  2.0

     total cpu time spent up to now is     4316.6 secs

     total energy              =  -14225.28743821 Ry
     estimated scf accuracy    <       0.00000687 Ry

     iteration # 13     ecut=    60.00 Ry     beta= 0.40
     Davidson diagonalization with overlap

---- Real-time Memory Report at c_bands before calling an iterative solver
          1774 MiB given to the printing process from OS
             0 MiB allocation reported by mallinfo(arena+hblkhd)
         97898 MiB available memory on the node where the printing process lives
------------------
     ethr =  3.41E-10,  avg # of iterations =  6.0

     total cpu time spent up to now is     4755.4 secs

     total energy              =  -14225.28744122 Ry
     estimated scf accuracy    <       0.00000493 Ry

     iteration # 14     ecut=    60.00 Ry     beta= 0.40
     Davidson diagonalization with overlap

---- Real-time Memory Report at c_bands before calling an iterative solver
          1774 MiB given to the printing process from OS
             0 MiB allocation reported by mallinfo(arena+hblkhd)
         91149 MiB available memory on the node where the printing process lives
------------------
     ethr =  2.45E-10,  avg # of iterations =  4.0

     total cpu time spent up to now is     5026.0 secs

     total energy              =  -14225.28744156 Ry
     estimated scf accuracy    <       0.00000057 Ry

     iteration # 15     ecut=    60.00 Ry     beta= 0.40
     Davidson diagonalization with overlap

---- Real-time Memory Report at c_bands before calling an iterative solver
          1774 MiB given to the printing process from OS
             0 MiB allocation reported by mallinfo(arena+hblkhd)
         94943 MiB available memory on the node where the printing process lives
------------------
     ethr =  2.81E-11,  avg # of iterations =  6.0

     total cpu time spent up to now is     5463.5 secs

     total energy              =  -14225.28744192 Ry
     estimated scf accuracy    <       0.00000011 Ry

     iteration # 16     ecut=    60.00 Ry     beta= 0.40
     Davidson diagonalization with overlap

---- Real-time Memory Report at c_bands before calling an iterative solver
          1774 MiB given to the printing process from OS
             0 MiB allocation reported by mallinfo(arena+hblkhd)
         90535 MiB available memory on the node where the printing process lives
------------------
     ethr =  5.70E-12,  avg # of iterations =  5.0

     total cpu time spent up to now is     5757.3 secs

     total energy              =  -14225.28744188 Ry
     estimated scf accuracy    <       0.00000017 Ry

     iteration # 17     ecut=    60.00 Ry     beta= 0.40
     Davidson diagonalization with overlap

---- Real-time Memory Report at c_bands before calling an iterative solver
          1774 MiB given to the printing process from OS
             0 MiB allocation reported by mallinfo(arena+hblkhd)
         92401 MiB available memory on the node where the printing process lives
------------------
     ethr =  5.70E-12,  avg # of iterations =  2.0

     total cpu time spent up to now is     6003.4 secs

     total energy              =  -14225.28744185 Ry
     estimated scf accuracy    <       0.00000008 Ry

     iteration # 18     ecut=    60.00 Ry     beta= 0.40
     Davidson diagonalization with overlap

---- Real-time Memory Report at c_bands before calling an iterative solver
          1774 MiB given to the printing process from OS
             0 MiB allocation reported by mallinfo(arena+hblkhd)
         97802 MiB available memory on the node where the printing process lives
------------------
     ethr =  3.90E-12,  avg # of iterations =  6.0

     total cpu time spent up to now is     6412.5 secs

     End of self-consistent calculation

          k = 0.0000 0.0000 0.0000 (301561 PWs)   bands (ev):

  -122.8788-122.8788-122.8787-122.8787-122.8787-122.8787-122.8787-122.8786
  -122.8414-122.8412-122.8412-122.8412-122.8412-122.8412-122.8412-122.8411
   -77.2237 -77.2237 -77.2236 -77.2236 -77.2236 -77.2236 -77.2236 -77.2235
   -77.2190 -77.2190 -77.2189 -77.2189 -77.2189 -77.2189 -77.2189 -77.2189
   -77.2189 -77.2189 -77.2189 -77.2189 -77.2189 -77.2189 -77.2188 -77.2188
   -77.1925 -77.1925 -77.1923 -77.1923 -77.1923 -77.1923 -77.1923 -77.1923
   -77.1923 -77.1923 -77.1923 -77.1923 -77.1923 -77.1923 -77.1922 -77.1922
   -77.1650 -77.1649 -77.1649 -77.1648 -77.1648 -77.1648 -77.1648 -77.1647
   -21.8270 -21.8201 -21.8200 -21.8200 -21.8200 -21.8142 -21.8142 -21.8135
   -21.8135 -21.8119 -21.8098 -21.8059 -21.8059 -21.8059 -21.8059 -21.8007
   -21.8007 -21.8006 -21.8006 -21.8006 -21.8006 -21.8006 -21.8005 -21.7990
   -21.7989 -21.7964 -21.7963 -21.7963 -21.7963 -21.7962 -21.7961 -21.7945
   -16.7493 -16.7477 -16.7475 -16.7467 -16.7465 -16.7465 -16.7465 -16.7421
   -16.7142 -16.7072 -16.7070 -16.7070 -16.7070 -16.7005 -16.6996 -16.6995
   -16.6923 -16.6923 -16.6853 -16.6852 -16.6851 -16.6851 -16.6821 -16.6821
   -16.6803 -16.6803 -16.6785 -16.6785 -16.6784 -16.6784 -16.6784 -16.6783
   -16.5790 -16.5401 -16.5401 -16.5401 -16.5400 -16.5181 -16.5180 -16.5063
   -16.4943 -16.4943 -16.4921 -16.4682 -16.4682 -16.4682 -16.4682 -16.4374
   -16.4374 -16.4364 -16.4364 -16.4364 -16.4363 -16.4349 -16.4348 -16.4335
   -16.4335 -16.4248 -16.4247 -16.4247 -16.4247 -16.4232 -16.4231 -16.4199
   -15.4995 -15.4988 -15.4969 -15.4937 -15.4937 -15.4937 -15.4936 -15.4916
   -15.4878 -15.4877 -15.4877 -15.4877 -15.4874 -15.4874 -15.4870 -15.4870
   -15.4810 -15.4810 -15.4801 -15.4801 -15.4800 -15.4800 -15.4800 -15.4799
   -15.4788 -15.4788 -15.4787 -15.4787 -15.4763 -15.4763 -15.4748 -15.4748
   -13.2306 -13.2197 -13.2123 -13.2122 -13.2122 -13.2121 -13.2097 -13.2096
   -13.2075 -13.2043 -13.2042 -13.2035 -13.2034 -13.2034 -13.2033 -13.1950
   -13.1917 -13.1917 -13.1908 -13.1908 -13.1907 -13.1907 -13.1796 -13.1795
   -13.1794 -13.1794 -13.1781 -13.1781 -13.1778 -13.1778 -13.1778 -13.1777
   -12.1896 -12.1896 -12.1896 -12.1894 -12.1881 -12.1881 -12.1839 -12.1800
   -12.1798 -12.1719 -12.1690 -12.1689 -12.1689 -12.1686 -12.1524 -12.1523
   -12.1520 -12.1519 -12.1501 -12.1500 -12.1500 -12.1498 -12.1497 -12.1493
   -12.1334 -12.1253 -12.1252 -12.1209 -12.1178 -12.1178 -12.1177 -12.1174
    -9.9199  -9.9013  -9.8902  -9.8862  -9.8862  -9.8862  -9.8858  -9.8769
    -9.8609  -9.8609  -9.8609  -9.8604  -9.8573  -9.8572  -9.8497  -9.8496
    -9.8265  -9.8265  -9.8265  -9.8262  -9.8244  -9.8242  -9.8062  -9.8062
    -9.8054  -9.8051  -9.7973  -9.7973  -9.7972  -9.7970  -9.7956  -9.7953
    -9.6802  -9.6659  -9.6659  -9.6644  -9.6644  -9.6643  -9.6643  -9.6484
    -9.6484  -9.6470  -9.6469  -9.6469  -9.6468  -9.6448  -9.6448  -9.6386
    -9.6385  -9.6153  -9.6152  -9.6152  -9.6151  -9.6021  -9.6020  -9.5860
    -9.5826  -9.5597  -9.5596  -9.5456  -9.5455  -9.5455  -9.5455  -9.5259
    -8.5893  -8.5635  -8.5509  -8.5508  -8.5480  -8.5385  -8.5384  -8.5384
    -8.5383  -8.5296  -8.5296  -8.5295  -8.5295  -8.5118  -8.5117  -8.5115
    -8.4956  -8.4955  -8.4955  -8.4955  -8.4929  -8.4928  -8.4628  -8.4628
    -8.4623  -8.4622  -8.4622  -8.4621  -8.4497  -8.4497  -8.4495  -8.4495
    -8.4233  -8.4174  -8.4172  -8.4121  -8.4121  -8.4120  -8.4116  -8.3746
    -8.3698  -8.3698  -8.3697  -8.3693  -8.3631  -8.3630  -8.3625  -8.3622
    -8.3609  -8.3594  -8.3592  -8.3571  -8.3569  -8.3317  -8.3316  -8.3316
    -8.3311  -8.3226  -8.3222  -8.3221  -8.3221  -8.3216  -8.3124  -8.3122
    -7.0584  -6.9055  -6.8984  -6.8981  -6.8980  -6.8980  -6.8979  -6.7920
    -6.7919  -6.7584  -6.7583  -6.7139  -6.7138  -6.7138  -6.7138  -6.6757
    -6.6018  -6.6018  -6.5983  -6.5982  -6.5982  -6.5982  -6.5709  -6.5708
    -6.5610  -6.5610  -6.5609  -6.5609  -6.4881  -6.4881  -6.4859  -6.4859
    -5.8778  -5.8310  -5.8310  -5.8310  -5.8307  -5.8291  -5.7984  -5.7981
    -5.7835  -5.7833  -5.7759  -5.7759  -5.7759  -5.7758  -5.7634  -5.7634
    -5.7373  -5.7373  -5.7373  -5.7368  -5.7301  -5.7300  -5.7279  -5.7245
    -5.6855  -5.6855  -5.6855  -5.6850  -5.6451  -5.6450  -5.6347  -5.6323
    -5.6320  -5.6091  -5.6046  -5.6044  -5.5958  -5.5958  -5.5957  -5.5957
    -5.5808  -5.5601  -5.5453  -5.5451  -5.5421  -5.5421  -5.5421  -5.5414
    -5.5374  -5.5371  -5.5364  -5.5364  -5.5122  -5.5121  -5.5029  -5.5027
    -5.5011  -5.5011  -5.5011  -5.5005  -5.4825  -5.4825  -5.4825  -5.4820
    -5.0614  -5.0613  -5.0475  -5.0474  -5.0474  -5.0473  -5.0443  -5.0442
    -5.0303  -5.0302  -5.0298  -5.0298  -5.0297  -5.0296  -5.0261  -5.0180
    -5.0179  -5.0034  -4.9990  -4.9948  -4.9947  -4.9947  -4.9947  -4.9786
    -4.9786  -4.9661  -4.9660  -4.9660  -4.9659  -4.9569  -4.9534  -4.9533
    -4.9456  -4.8940  -4.8915  -4.8911  -4.8679  -4.8679  -4.8679  -4.8674
    -4.8621  -4.8519  -4.8517  -4.8441  -4.8441  -4.8441  -4.8435  -4.8341
    -4.8339  -4.8299  -4.8299  -4.8298  -4.8291  -4.8266  -4.8260  -4.8254
    -4.8037  -4.8035  -4.7992  -4.7989  -4.7925  -4.7925  -4.7925  -4.7917
    -4.7802  -4.7799  -4.7580  -4.7580  -4.7580  -4.7574  -4.7434  -4.7431
    -4.7410  -4.7408  -4.7217  -4.7216  -4.7216  -4.7212  -4.7132  -4.7130
    -4.7115  -4.7115  -4.7114  -4.7108  -4.6863  -4.6860  -4.6690  -4.6687
    -4.6476  -4.6133  -4.6131  -4.5880  -4.5880  -4.5880  -4.5876  -4.5016
    -4.3229  -4.2810  -4.2810  -4.2809  -4.2809  -4.2188  -4.2127  -4.2078
    -4.2077  -4.1877  -4.1876  -4.1412  -4.1412  -4.1412  -4.1412  -4.1410
    -4.1409  -4.1364  -4.1137  -4.1078  -4.1077  -4.1077  -4.1077  -4.1034
    -4.0976  -4.0975  -4.0854  -4.0854  -4.0853  -4.0853  -4.0653  -4.0572
    -3.9876  -3.9556  -3.9555  -3.8258  -3.8258  -3.8257  -3.8256  -3.7663
    -3.7662  -3.7662  -3.7661  -3.7308  -3.7101  -3.7100  -3.7100  -3.7098
    -3.6717  -3.6558  -3.6557  -3.6268  -3.5756  -3.5756  -3.5732  -3.5731
    -3.5596  -3.5595  -3.5039  -3.5039  -3.4254  -3.4254  -3.4254  -3.4251
    -3.4238  -3.4237  -3.3750  -3.3749  -3.3650  -3.3647  -3.3645  -3.3645
    -3.3645  -3.2780  -3.2779  -3.2779  -3.2778  -3.2411  -3.2411  -3.2410
    -3.2408  -3.2344  -3.2308  -3.2307  -3.2306  -3.2289  -3.2288  -3.2099
    -3.2097  -3.1857  -3.1762  -3.1761  -3.1761  -3.1758  -3.1713  -3.0957
    -3.0956  -3.0948  -3.0948  -3.0900  -3.0899  -3.0869  -3.0868  -3.0868
    -3.0866  -3.0454  -3.0453  -3.0453  -3.0450  -3.0179  -3.0055  -3.0054
    -2.9782  -2.9742  -2.9740  -2.9739  -2.9739  -2.9688  -2.9380  -2.9379
    -2.9350  -2.9349  -2.9349  -2.9348  -2.9293  -2.9292  -2.8984  -2.8836
    -2.8834  -2.7758  -2.7758  -2.7611  -2.7611  -2.7611  -2.7610  -2.7262
    -2.7262  -2.7174  -2.7174  -2.7027  -2.7026  -2.7008  -2.7008  -2.7007
    -2.7007  -2.6120  -2.6120  -2.6119  -2.6117  -2.5572  -2.4828  -2.4416
    -2.4414  -2.3679  -2.3676  -2.2682  -2.2681  -2.2681  -2.2675  -2.1962
    -2.1954  -2.1599  -2.0955  -2.0764  -2.0609  -2.0609  -2.0608  -2.0596
    -2.0134  -2.0133  -2.0133  -2.0120  -2.0062  -2.0060  -2.0053  -1.9944
    -1.9937  -1.9538  -1.9538  -1.9537  -1.9525  -1.9483  -1.9474  -1.9179
    -1.9173  -1.8919  -1.8914  -1.8709  -1.8709  -1.8708  -1.8702  -1.7602
    -1.7600  -1.6296  -1.6296  -1.6296  -1.6291  -1.5897  -1.5894  -1.5192
    -1.4438  -1.4437  -1.4437  -1.4437  -1.4242  -1.4241  -1.4184  -1.4183
    -1.4154  -1.4089  -1.4087  -1.3813  -1.3745  -1.3745  -1.3745  -1.3744
    -1.3635  -1.3635  -1.3634  -1.3634  -1.3625  -1.3624  -1.3484  -1.3483
    -1.3470  -1.3470  -1.3470  -1.3469  -1.3403  -1.3403  -1.3374  -1.3332
    -1.2995  -1.2995  -1.2969  -1.2813  -1.2813  -1.2813  -1.2813  -1.2536
    -1.2534  -1.2417  -1.2416  -1.2416  -1.2414  -1.2337  -1.2300  -1.2299
    -1.2200  -1.2200  -1.2098  -1.2097  -1.2091  -1.2091  -1.2090  -1.2090
    -1.1526  -1.1525  -1.1525  -1.1525  -1.1478  -1.1477  -1.0927  -1.0681
    -1.0405  -0.9019  -0.9019  -0.9019  -0.9019  -0.9013  -0.9012  -0.8036
    -0.8036  -0.8018  -0.7826  -0.7826  -0.7825  -0.7825  -0.7795  -0.7795
    -0.7695  -0.7625  -0.7625  -0.7285  -0.7285  -0.7285  -0.7284  -0.7178
    -0.7178  -0.7143  -0.7124  -0.7123  -0.7123  -0.7123  -0.6637  -0.6636
    -0.6294  -0.6293  -0.5995  -0.5995  -0.5995  -0.5995  -0.5722  -0.5722
    -0.4878  -0.4241  -0.4240  -0.4240  -0.4240  -0.4158  -0.4157  -0.4004
    -0.3838  -0.3838  -0.3633  -0.3633  -0.3632  -0.3632  -0.3471  -0.3407
    -0.3407  -0.3361  -0.3361  -0.3361  -0.3360  -0.3312  -0.3312  -0.3287
    -0.3287  -0.3267  -0.2969  -0.2969  -0.2845  -0.2845  -0.2845  -0.2845
    -0.2801  -0.2800  -0.2760  -0.2760  -0.2759  -0.2759  -0.2727  -0.2432
    -0.2431  -0.2431  -0.2430  -0.2400  -0.2399  -0.2399  -0.2215  -0.2215
    -0.2209  -0.2209  -0.2209  -0.2208  -0.2185  -0.2081  -0.2080  -0.2077
    -0.2036  -0.2036  -0.1908  -0.1908  -0.1908  -0.1907  -0.1907  -0.1906
     0.3864   0.4184   0.4185   0.4185   0.4186   0.4350   0.4350   0.4859
     0.4860   0.4867   0.4948   0.4948   0.4948   0.4949   0.5127   0.5127
     0.5145   0.5145   0.5241   0.5272   0.5272   0.5273   0.5274   0.5738
     0.5738   0.5762   0.5763   0.6100   0.6101   0.6101   0.6102   0.6263
     1.0980   1.0983   1.1043   1.1046   1.1153   1.1159   1.1160   1.1160
     1.1368   1.1374   1.1375   1.1375   1.1549   1.1614   1.1618   1.1633
     1.1636   1.1647   1.1737   1.1737   1.1738   1.1742   1.1847   1.1848
     1.2170   1.2207   1.2421   1.2421   1.2422   1.2424   1.2427   1.2430

     occupation numbers 
     1.0000   1.0000   1.0000   1.0000   1.0000   1.0000   1.0000   1.0000
     1.0000   1.0000   1.0000   1.0000   1.0000   1.0000   1.0000   1.0000
     1.0000   1.0000   1.0000   1.0000   1.0000   1.0000   1.0000   1.0000
     1.0000   1.0000   1.0000   1.0000   1.0000   1.0000   1.0000   1.0000
     1.0000   1.0000   1.0000   1.0000   1.0000   1.0000   1.0000   1.0000
     1.0000   1.0000   1.0000   1.0000   1.0000   1.0000   1.0000   1.0000
     1.0000   1.0000   1.0000   1.0000   1.0000   1.0000   1.0000   1.0000
     1.0000   1.0000   1.0000   1.0000   1.0000   1.0000   1.0000   1.0000
     1.0000   1.0000   1.0000   1.0000   1.0000   1.0000   1.0000   1.0000
     1.0000   1.0000   1.0000   1.0000   1.0000   1.0000   1.0000   1.0000
     1.0000   1.0000   1.0000   1.0000   1.0000   1.0000   1.0000   1.0000
     1.0000   1.0000   1.0000   1.0000   1.0000   1.0000   1.0000   1.0000
     1.0000   1.0000   1.0000   1.0000   1.0000   1.0000   1.0000   1.0000
     1.0000   1.0000   1.0000   1.0000   1.0000   1.0000   1.0000   1.0000
     1.0000   1.0000   1.0000   1.0000   1.0000   1.0000   1.0000   1.0000
     1.0000   1.0000   1.0000   1.0000   1.0000   1.0000   1.0000   1.0000
     1.0000   1.0000   1.0000   1.0000   1.0000   1.0000   1.0000   1.0000
     1.0000   1.0000   1.0000   1.0000   1.0000   1.0000   1.0000   1.0000
     1.0000   1.0000   1.0000   1.0000   1.0000   1.0000   1.0000   1.0000
     1.0000   1.0000   1.0000   1.0000   1.0000   1.0000   1.0000   1.0000
     1.0000   1.0000   1.0000   1.0000   1.0000   1.0000   1.0000   1.0000
     1.0000   1.0000   1.0000   1.0000   1.0000   1.0000   1.0000   1.0000
     1.0000   1.0000   1.0000   1.0000   1.0000   1.0000   1.0000   1.0000
     1.0000   1.0000   1.0000   1.0000   1.0000   1.0000   1.0000   1.0000
     1.0000   1.0000   1.0000   1.0000   1.0000   1.0000   1.0000   1.0000
     1.0000   1.0000   1.0000   1.0000   1.0000   1.0000   1.0000   1.0000
     1.0000   1.0000   1.0000   1.0000   1.0000   1.0000   1.0000   1.0000
     1.0000   1.0000   1.0000   1.0000   1.0000   1.0000   1.0000   1.0000
     1.0000   1.0000   1.0000   1.0000   1.0000   1.0000   1.0000   1.0000
     1.0000   1.0000   1.0000   1.0000   1.0000   1.0000   1.0000   1.0000
     1.0000   1.0000   1.0000   1.0000   1.0000   1.0000   1.0000   1.0000
     1.0000   1.0000   1.0000   1.0000   1.0000   1.0000   1.0000   1.0000
     1.0000   1.0000   1.0000   1.0000   1.0000   1.0000   1.0000   1.0000
     1.0000   1.0000   1.0000   1.0000   1.0000   1.0000   1.0000   1.0000
     1.0000   1.0000   1.0000   1.0000   1.0000   1.0000   1.0000   1.0000
     1.0000   1.0000   1.0000   1.0000   1.0000   1.0000   1.0000   1.0000
     1.0000   1.0000   1.0000   1.0000   1.0000   1.0000   1.0000   1.0000
     1.0000   1.0000   1.0000   1.0000   1.0000   1.0000   1.0000   1.0000
     1.0000   1.0000   1.0000   1.0000   1.0000   1.0000   1.0000   1.0000
     1.0000   1.0000   1.0000   1.0000   1.0000   1.0000   1.0000   1.0000
     1.0000   1.0000   1.0000   1.0000   1.0000   1.0000   1.0000   1.0000
     1.0000   1.0000   1.0000   1.0000   1.0000   1.0000   1.0000   1.0000
     1.0000   1.0000   1.0000   1.0000   1.0000   1.0000   1.0000   1.0000
     1.0000   1.0000   1.0000   1.0000   1.0000   1.0000   1.0000   1.0000
     1.0000   1.0000   1.0000   1.0000   1.0000   1.0000   1.0000   1.0000
     1.0000   1.0000   1.0000   1.0000   1.0000   1.0000   1.0000   1.0000
     1.0000   1.0000   1.0000   1.0000   1.0000   1.0000   1.0000   1.0000
     1.0000   1.0000   1.0000   1.0000   1.0000   1.0000   1.0000   1.0000
     1.0000   1.0000   1.0000   1.0000   1.0000   1.0000   1.0000   1.0000
     1.0000   1.0000   1.0000   1.0000   1.0000   1.0000   1.0000   1.0000
     1.0000   1.0000   1.0000   1.0000   1.0000   1.0000   1.0000   1.0000
     1.0000   1.0000   1.0000   1.0000   1.0000   1.0000   1.0000   1.0000
     1.0000   1.0000   1.0000   1.0000   1.0000   1.0000   1.0000   1.0000
     1.0000   1.0000   1.0000   1.0000   1.0000   1.0000   1.0000   1.0000
     1.0000   1.0000   1.0000   1.0000   1.0000   1.0000   1.0000   1.0000
     1.0000   1.0000   1.0000   1.0000   1.0000   1.0000   1.0000   1.0000
     1.0000   1.0000   1.0000   1.0000   1.0000   1.0000   1.0000   1.0000
     1.0000   1.0000   1.0000   1.0000   1.0000   1.0000   1.0000   1.0000
     1.0000   1.0000   1.0000   1.0000   1.0000   1.0000   1.0000   1.0000
     1.0000   1.0000   1.0000   1.0000   1.0000   1.0000   1.0000   1.0000
     1.0000   1.0000   1.0000   1.0000   1.0000   1.0000   1.0000   1.0000
     1.0000   1.0000   1.0000   1.0000   1.0000   1.0000   1.0000   1.0000
     1.0000   1.0000   1.0000   1.0000   1.0000   1.0000   1.0000   1.0000
     1.0000   1.0000   1.0000   1.0000   1.0000   1.0000   1.0000   1.0000
     1.0000   1.0000   1.0000   1.0000   1.0000   1.0000   1.0000   1.0000
     1.0000   1.0000   1.0000   1.0000   1.0000   1.0000   1.0000   1.0000
     1.0000   1.0000   1.0000   1.0000   1.0000   1.0000   1.0000   1.0000
     1.0000   1.0000   1.0000   1.0000   1.0000   1.0000   1.0000   1.0000
     1.0000   1.0000   1.0000   1.0000   1.0000   1.0000   1.0000   1.0000
     1.0000   1.0000   1.0000   1.0000   1.0000   1.0000   1.0000   1.0000
     1.0000   1.0000   1.0000   1.0000   1.0000   1.0000   1.0000   1.0000
     1.0000   1.0000   1.0000   1.0000   1.0000   1.0000   1.0000   1.0000
     1.0000   1.0000   1.0000   1.0000   1.0000   1.0000   1.0000   1.0000
     1.0000   1.0000   1.0000   1.0000   1.0000   1.0000   1.0000   1.0000
     1.0000   1.0000   1.0000   1.0000   1.0000   1.0000   1.0000   1.0000
     1.0000   1.0000   1.0000   1.0000   1.0000   1.0000   1.0000   1.0000
     1.0000   1.0000   1.0000   1.0000   1.0000   1.0000   1.0000   1.0000
     1.0000   1.0000   1.0000   1.0000   1.0000   1.0000   1.0000   1.0000
     1.0000   1.0000   1.0000   1.0000   1.0000   1.0000   1.0000   1.0000
     1.0000   1.0000   1.0000   1.0000   1.0000   1.0000   1.0000   1.0000
     1.0000   1.0000   1.0000   1.0000   1.0000   1.0000   1.0000   1.0000
     1.0000   1.0000   1.0000   1.0000   1.0000   1.0000   1.0000   1.0000
     1.0000   1.0000   1.0000   1.0000   1.0000   1.0000   1.0000   1.0000
     1.0000   1.0000   1.0000   1.0000   1.0000   1.0000   1.0000   1.0000
     1.0000   1.0000   1.0000   1.0000   1.0000   1.0000   1.0000   1.0000
     1.0000   1.0000   1.0000   1.0000   1.0000   1.0000   1.0000   1.0000
     1.0000   1.0000   1.0000   1.0000   1.0000   1.0000   1.0000   1.0000
     1.0000   1.0000   1.0000   1.0000   1.0000   1.0000   1.0000   1.0000
     1.0000   1.0000   1.0000   1.0000   1.0000   1.0000   1.0000   1.0000
     1.0000   1.0000   1.0000   1.0000   1.0000   1.0000   1.0000   1.0000
     1.0000   1.0000   1.0000   1.0000   1.0000   1.0000   1.0000   1.0000
     1.0000   1.0000   1.0000   1.0000   1.0000   1.0000   1.0000   1.0000
     1.0000   1.0000   1.0000   1.0000   1.0000   1.0000   1.0000   1.0000
     1.0000   1.0000   1.0000   1.0000   1.0000   1.0000   1.0000   1.0000
     1.0000   1.0000   1.0000   1.0000   1.0000   1.0000   1.0000   1.0000
     1.0000   1.0000   1.0000   1.0000   1.0000   1.0000   1.0000   1.0000
     1.0000   1.0000   1.0000   1.0000   1.0000   1.0000   1.0000   1.0000
     1.0000   1.0000   1.0000   1.0000   1.0000   1.0000   1.0000   1.0000
     1.0000   1.0000   1.0000   1.0000   1.0000   1.0000   1.0000   1.0000
     1.0000   1.0000   1.0000   1.0000   1.0000   1.0000   1.0000   1.0000
     1.0000   1.0000   1.0000   1.0000   1.0000   1.0000   1.0000   1.0000
     1.0000   1.0000   1.0000   1.0000   1.0000   1.0000   1.0000   1.0000
     1.0000   1.0000   1.0000   1.0000   1.0000   1.0000   1.0000   1.0000
     1.0000   1.0000   1.0000   1.0000   1.0000   1.0000   1.0000   1.0000
     1.0000   1.0000   1.0000   1.0000   1.0000   1.0000   1.0000   1.0000
     1.0000   1.0000   1.0000   1.0000   1.0000   1.0000   1.0000   1.0000
     1.0000   1.0000   1.0000   1.0000   1.0000   1.0000   1.0000   1.0000
     1.0000   1.0000   1.0000   1.0000   1.0000   1.0000   1.0000   1.0000
     1.0000   1.0000   1.0000   1.0000   1.0000   1.0000   1.0000   1.0000
     1.0000   1.0000   1.0000   1.0000   1.0000   1.0000   1.0000   1.0000
     1.0000   1.0000   1.0000   1.0000   1.0000   1.0000   1.0000   1.0000
     1.0000   1.0000   1.0000   1.0000   1.0000   1.0000   1.0000   1.0000
     1.0000   1.0000   1.0000   1.0000   1.0000   1.0000   1.0000   1.0000
     1.0000   1.0000   1.0000   1.0000   1.0000   1.0000   1.0000   1.0000
     1.0000   1.0000   1.0000   1.0000   1.0000   1.0000   1.0000   1.0000
     1.0000   1.0000   1.0000   1.0000   1.0000   1.0000   1.0000   1.0000
     1.0000   1.0000   1.0000   1.0000   1.0000   1.0000   1.0000   1.0000
     1.0000   1.0000   1.0000   1.0000   1.0000   1.0000   1.0000   1.0000
     1.0000   1.0000   1.0000   1.0000   1.0000   1.0000   1.0000   1.0000
     1.0000   1.0000   1.0000   1.0000   1.0000   1.0000   1.0000   1.0000
     1.0000   1.0000   1.0000   1.0000   1.0000   1.0000   1.0000   1.0000
     1.0000   1.0000   1.0000   1.0000   1.0000   1.0000   1.0000   1.0000
     1.0000   1.0000   1.0000   1.0000   1.0000   1.0000   1.0000   1.0000
     1.0000   1.0000   1.0000   1.0000   1.0000   1.0000   1.0000   1.0000
     1.0000   1.0000   1.0000   1.0000   1.0000   1.0000   1.0000   1.0000
     1.0000   1.0000   1.0000   1.0000   1.0000   1.0000   1.0000   1.0000

     highest occupied level (ev):     1.2430

!    total energy              =  -14225.28744187 Ry
     estimated scf accuracy    <       0.00000001 Ry

     The total energy is the sum of the following terms:
     one-electron contribution =  -15719.94984382 Ry
     hartree contribution      =    8487.42846762 Ry
     xc contribution           =   -2486.47477146 Ry
     ewald contribution        =   -3375.09215975 Ry
     one-center paw contrib.   =   -1131.19913446 Ry
      -> PAW hartree energy AE =       0.00000000 Ry
      -> PAW hartree energy PS =       0.00000000 Ry
      -> PAW xc energy AE      =       0.00000000 Ry
      -> PAW xc energy PS      =       0.00000000 Ry
      -> total E_H with PAW    =    8487.42846762 Ry
      -> total E_XC with PAW   =   -2486.47477146 Ry

     convergence has been achieved in  18 iterations

     Forces acting on atoms (cartesian axes, Ry/au):

     atom    1 type  1   force =    -0.00000401   -0.00023809   -0.00013530
     atom    2 type  1   force =    -0.00000383   -0.00023839   -0.00013497
     atom    3 type  1   force =    -0.00000359   -0.00023843   -0.00013542
     atom    4 type  1   force =    -0.00001162   -0.00023576   -0.00013925
     atom    5 type  1   force =    -0.00000417   -0.00023763   -0.00013505
     atom    6 type  1   force =    -0.00000785   -0.00024351   -0.00013440
     atom    7 type  1   force =    -0.00000270   -0.00023978   -0.00013617
     atom    8 type  1   force =    -0.00000437   -0.00023834   -0.00013503
     atom    9 type  1   force =    -0.00019684   -0.00013250   -0.00017437
     atom   10 type  1   force =    -0.00019726   -0.00013217   -0.00017438
     atom   11 type  1   force =    -0.00019729   -0.00012548   -0.00018254
     atom   12 type  1   force =    -0.00019673   -0.00013219   -0.00017457
     atom   13 type  1   force =    -0.00019817   -0.00012989   -0.00017470
     atom   14 type  1   force =    -0.00019652   -0.00013223   -0.00017443
     atom   15 type  1   force =    -0.00019648   -0.00013274   -0.00017454
     atom   16 type  1   force =    -0.00019727   -0.00013219   -0.00017429
     atom   17 type  2   force =    -0.00001650    0.00000230    0.00001157
     atom   18 type  2   force =    -0.00001629    0.00000210    0.00001169
     atom   19 type  2   force =    -0.00001593    0.00000238    0.00001202
     atom   20 type  2   force =    -0.00001621    0.00000263    0.00001159
     atom   21 type  2   force =    -0.00000999    0.00002599   -0.00001725
     atom   22 type  2   force =    -0.00001644    0.00000265    0.00001167
     atom   23 type  2   force =    -0.00001609    0.00000254    0.00001158
     atom   24 type  2   force =    -0.00001622    0.00000219    0.00001161
     atom   25 type  2   force =     0.00019703   -0.00004495    0.00002711
     atom   26 type  2   force =     0.00019794   -0.00004525    0.00002722
     atom   27 type  2   force =     0.00019279   -0.00004477    0.00002845
     atom   28 type  2   force =     0.00019741   -0.00004511    0.00002717
     atom   29 type  2   force =     0.00020239   -0.00005102   -0.00002767
     atom   30 type  2   force =     0.00019817   -0.00004554    0.00002705
     atom   31 type  2   force =     0.00019763   -0.00004522    0.00002689
     atom   32 type  2   force =     0.00019648   -0.00004452    0.00002734
     atom   33 type  2   force =    -0.00008010    0.00027836    0.00024952
     atom   34 type  2   force =    -0.00008441    0.00015400    0.00008259
     atom   35 type  2   force =    -0.00008469    0.00015420    0.00008258
     atom   36 type  2   force =    -0.00008475    0.00015439    0.00008231
     atom   37 type  2   force =    -0.00008443    0.00015402    0.00008241
     atom   38 type  2   force =    -0.00008450    0.00015391    0.00008248
     atom   39 type  2   force =    -0.00008505    0.00015436    0.00008241
     atom   40 type  2   force =    -0.00008463    0.00015421    0.00008249
     atom   41 type  3   force =    -0.00000267    0.00004245   -0.00006928
     atom   42 type  3   force =     0.00002327    0.00004634   -0.00005452
     atom   43 type  3   force =     0.00002332    0.00004635   -0.00005459
     atom   44 type  3   force =     0.00002302    0.00004683   -0.00005420
     atom   45 type  3   force =     0.00002321    0.00004646   -0.00005430
     atom   46 type  3   force =     0.00002366    0.00004650   -0.00005425
     atom   47 type  3   force =     0.00002335    0.00004655   -0.00005426
     atom   48 type  3   force =     0.00002320    0.00004653   -0.00005439
     atom   49 type  2   force =    -0.00709663    0.00268232   -0.00108403
     atom   50 type  2   force =     0.00014284   -0.00000552   -0.00000124
     atom   51 type  2   force =     0.00014249   -0.00000507   -0.00000140
     atom   52 type  2   force =     0.00014293   -0.00000501   -0.00000132
     atom   53 type  2   force =     0.00014324   -0.00000509   -0.00000150
     atom   54 type  2   force =     0.00014252   -0.00000517   -0.00000129
     atom   55 type  2   force =     0.00014246   -0.00000536   -0.00000117
     atom   56 type  2   force =     0.00014259   -0.00000522   -0.00000130
     atom   57 type  3   force =     0.00752087   -0.00280476    0.00065405
     atom   58 type  3   force =     0.00003615   -0.00007012   -0.00004839
     atom   59 type  3   force =     0.00003603   -0.00006996   -0.00004854
     atom   60 type  3   force =     0.00003596   -0.00007003   -0.00004841
     atom   61 type  3   force =     0.00003607   -0.00007006   -0.00004846
     atom   62 type  3   force =     0.00003576   -0.00006966   -0.00004839
     atom   63 type  3   force =     0.00003584   -0.00007013   -0.00004837
     atom   64 type  3   force =     0.00003614   -0.00007017   -0.00004844
     atom   65 type  1   force =     0.00005180    0.00020443    0.00017769
     atom   66 type  1   force =     0.00005119    0.00020395    0.00017726
     atom   67 type  1   force =     0.00005041    0.00020640    0.00018116
     atom   68 type  1   force =     0.00005167    0.00020450    0.00017772
     atom   69 type  1   force =     0.00006198    0.00020763    0.00018222
     atom   70 type  1   force =     0.00005168    0.00020519    0.00017837
     atom   71 type  1   force =     0.00005144    0.00020463    0.00017789
     atom   72 type  1   force =     0.00005106    0.00020250    0.00017689
     atom   73 type  1   force =    -0.00015520    0.00025271    0.00011409
     atom   74 type  1   force =    -0.00015549    0.00025244    0.00011372
     atom   75 type  1   force =    -0.00015286    0.00025023    0.00010975
     atom   76 type  1   force =    -0.00015539    0.00025310    0.00011406
     atom   77 type  1   force =    -0.00015382    0.00024469    0.00011488
     atom   78 type  1   force =    -0.00015575    0.00025314    0.00011412
     atom   79 type  1   force =    -0.00015528    0.00025325    0.00011431
     atom   80 type  1   force =    -0.00015475    0.00025172    0.00011458
     atom   81 type  2   force =    -0.00009902   -0.00007582   -0.00003202
     atom   82 type  2   force =    -0.00009923   -0.00007656   -0.00003207
     atom   83 type  2   force =    -0.00010010   -0.00007776   -0.00003177
     atom   84 type  2   force =    -0.00009916   -0.00007660   -0.00003200
     atom   85 type  2   force =     0.00002211   -0.00005582    0.00023028
     atom   86 type  2   force =    -0.00009928   -0.00007666   -0.00003202
     atom   87 type  2   force =    -0.00009933   -0.00007638   -0.00003212
     atom   88 type  2   force =    -0.00009907   -0.00007619   -0.00003197
     atom   89 type  3   force =    -0.00000440   -0.00001997    0.00001381
     atom   90 type  3   force =    -0.00000467   -0.00002009    0.00001347
     atom   91 type  3   force =    -0.00000443   -0.00002019    0.00001381
     atom   92 type  3   force =    -0.00000437   -0.00002037    0.00001366
     atom   93 type  3   force =    -0.00000439   -0.00002008    0.00001391
     atom   94 type  3   force =     0.00000825   -0.00001885    0.00003004
     atom   95 type  3   force =    -0.00000441   -0.00002000    0.00001385
     atom   96 type  3   force =    -0.00000442   -0.00002004    0.00001375
     atom   97 type  1   force =     0.00013212   -0.00020561    0.00002169
     atom   98 type  1   force =     0.00013200   -0.00020495    0.00002240
     atom   99 type  1   force =     0.00013230   -0.00020439    0.00002172
     atom  100 type  1   force =     0.00013286   -0.00020406    0.00002159
     atom  101 type  1   force =     0.00013211   -0.00020417    0.00002138
     atom  102 type  1   force =     0.00034821   -0.00036397   -0.00004483
     atom  103 type  1   force =     0.00013238   -0.00020500    0.00002173
     atom  104 type  1   force =     0.00013225   -0.00020462    0.00002193
     atom  105 type  2   force =    -0.00006518   -0.00004212    0.00007314
     atom  106 type  2   force =    -0.00006668   -0.00004231    0.00007315
     atom  107 type  2   force =    -0.00006608   -0.00004289    0.00007313
     atom  108 type  2   force =    -0.00006654   -0.00004223    0.00007305
     atom  109 type  2   force =    -0.00006641   -0.00004240    0.00007302
     atom  110 type  2   force =    -0.00007406   -0.00005065    0.00007617
     atom  111 type  2   force =    -0.00006670   -0.00004229    0.00007305
     atom  112 type  2   force =    -0.00006623   -0.00004276    0.00007313
     atom  113 type  3   force =    -0.00005589   -0.00003975   -0.00010234
     atom  114 type  3   force =    -0.00006649   -0.00002217   -0.00002938
     atom  115 type  3   force =    -0.00006663   -0.00002216   -0.00002951
     atom  116 type  3   force =    -0.00006652   -0.00002210   -0.00002936
     atom  117 type  3   force =    -0.00006658   -0.00002228   -0.00002935
     atom  118 type  3   force =    -0.00006667   -0.00002146   -0.00002918
     atom  119 type  3   force =    -0.00006651   -0.00002197   -0.00002936
     atom  120 type  3   force =    -0.00006661   -0.00002220   -0.00002942
     atom  121 type  1   force =     0.00000364    0.00023823   -0.00013556
     atom  122 type  1   force =     0.00000451    0.00023758   -0.00013500
     atom  123 type  1   force =     0.00000361    0.00023831   -0.00013524
     atom  124 type  1   force =     0.00000533    0.00023969   -0.00013738
     atom  125 type  1   force =     0.00000383    0.00023841   -0.00013537
     atom  126 type  1   force =     0.00000317    0.00023979   -0.00013509
     atom  127 type  1   force =     0.00000356    0.00023789   -0.00013522
     atom  128 type  1   force =     0.00000366    0.00023790   -0.00013490
     atom  129 type  1   force =     0.00019680    0.00013185   -0.00017409
     atom  130 type  1   force =     0.00019641    0.00013269   -0.00017438
     atom  131 type  1   force =     0.00019692    0.00013234   -0.00017428
     atom  132 type  1   force =     0.00020157    0.00013086   -0.00017345
     atom  133 type  1   force =     0.00019685    0.00013248   -0.00017461
     atom  134 type  1   force =     0.00019869    0.00013118   -0.00017448
     atom  135 type  1   force =     0.00019662    0.00013208   -0.00017445
     atom  136 type  1   force =     0.00019625    0.00013263   -0.00017460
     atom  137 type  2   force =     0.00001644   -0.00000255    0.00001159
     atom  138 type  2   force =     0.00001640   -0.00000256    0.00001162
     atom  139 type  2   force =     0.00001619   -0.00000252    0.00001166
     atom  140 type  2   force =     0.00002744   -0.00000898    0.00001296
     atom  141 type  2   force =     0.00001636   -0.00000248    0.00001161
     atom  142 type  2   force =     0.00001667   -0.00000218    0.00001170
     atom  143 type  2   force =     0.00001674   -0.00000308    0.00001139
     atom  144 type  2   force =     0.00001584   -0.00000269    0.00001150
     atom  145 type  2   force =    -0.00019712    0.00004525    0.00002714
     atom  146 type  2   force =    -0.00019850    0.00004568    0.00002652
     atom  147 type  2   force =    -0.00019701    0.00004495    0.00002708
     atom  148 type  2   force =    -0.00021210    0.00004276    0.00002762
     atom  149 type  2   force =    -0.00019795    0.00004510    0.00002727
     atom  150 type  2   force =    -0.00019915    0.00004452    0.00002810
     atom  151 type  2   force =    -0.00019599    0.00004532    0.00002701
     atom  152 type  2   force =    -0.00019659    0.00004514    0.00002704
     atom  153 type  2   force =     0.00008443   -0.00015406    0.00008257
     atom  154 type  2   force =     0.00008440   -0.00015421    0.00008245
     atom  155 type  2   force =     0.00008381   -0.00015330    0.00008238
     atom  156 type  2   force =     0.00008489   -0.00015407    0.00008248
     atom  157 type  2   force =     0.00008450   -0.00015406    0.00008246
     atom  158 type  2   force =     0.00008438   -0.00015428    0.00008255
     atom  159 type  2   force =     0.00008451   -0.00015420    0.00008245
     atom  160 type  2   force =     0.00008485   -0.00015708    0.00008183
     atom  161 type  3   force =    -0.00002333   -0.00004634   -0.00005440
     atom  162 type  3   force =    -0.00002321   -0.00004647   -0.00005432
     atom  163 type  3   force =    -0.00002172   -0.00004548   -0.00005390
     atom  164 type  3   force =    -0.00002327   -0.00004644   -0.00005429
     atom  165 type  3   force =    -0.00002327   -0.00004627   -0.00005434
     atom  166 type  3   force =    -0.00002329   -0.00004657   -0.00005450
     atom  167 type  3   force =    -0.00002319   -0.00004644   -0.00005436
     atom  168 type  3   force =    -0.00002339   -0.00004607   -0.00005515
     atom  169 type  2   force =    -0.00014395    0.00000629   -0.00000105
     atom  170 type  2   force =    -0.00014213    0.00000489   -0.00000147
     atom  171 type  2   force =    -0.00014290    0.00000520   -0.00000128
     atom  172 type  2   force =    -0.00014363    0.00000544   -0.00000117
     atom  173 type  2   force =    -0.00014284    0.00000534   -0.00000130
     atom  174 type  2   force =    -0.00009496    0.00001213    0.00000440
     atom  175 type  2   force =    -0.00014282    0.00000527   -0.00000125
     atom  176 type  2   force =    -0.00014284    0.00000552   -0.00000133
     atom  177 type  3   force =    -0.00003597    0.00007019   -0.00004837
     atom  178 type  3   force =    -0.00003620    0.00007014   -0.00004875
     atom  179 type  3   force =    -0.00003611    0.00006996   -0.00004853
     atom  180 type  3   force =    -0.00003601    0.00006982   -0.00004842
     atom  181 type  3   force =    -0.00003606    0.00007003   -0.00004836
     atom  182 type  3   force =    -0.00004570    0.00007534   -0.00005043
     atom  183 type  3   force =    -0.00003600    0.00007016   -0.00004840
     atom  184 type  3   force =    -0.00003614    0.00007022   -0.00004855
     atom  185 type  1   force =    -0.00005091   -0.00020410    0.00017730
     atom  186 type  1   force =    -0.00005174   -0.00020486    0.00017889
     atom  187 type  1   force =    -0.00005188   -0.00020455    0.00017769
     atom  188 type  1   force =    -0.00004819   -0.00020481    0.00017833
     atom  189 type  1   force =    -0.00005159   -0.00020454    0.00017769
     atom  190 type  1   force =    -0.00005218   -0.00020278    0.00017635
     atom  191 type  1   force =    -0.00005147   -0.00020424    0.00017712
     atom  192 type  1   force =    -0.00005188   -0.00020496    0.00017797
     atom  193 type  1   force =     0.00015532   -0.00025224    0.00011421
     atom  194 type  1   force =     0.00015613   -0.00025300    0.00011466
     atom  195 type  1   force =     0.00015528   -0.00025247    0.00011405
     atom  196 type  1   force =     0.00015984   -0.00025195    0.00011267
     atom  197 type  1   force =     0.00015520   -0.00025310    0.00011402
     atom  198 type  1   force =     0.00015567   -0.00025161    0.00011322
     atom  199 type  1   force =     0.00015518   -0.00025259    0.00011386
     atom  200 type  1   force =     0.00015509   -0.00025316    0.00011437
     atom  201 type  2   force =     0.00009894    0.00007664   -0.00003200
     atom  202 type  2   force =     0.00009897    0.00007664   -0.00003212
     atom  203 type  2   force =     0.00009925    0.00007644   -0.00003195
     atom  204 type  2   force =     0.00006608    0.00007725   -0.00003255
     atom  205 type  2   force =     0.00009947    0.00007628   -0.00003215
     atom  206 type  2   force =     0.00009864    0.00007614   -0.00003209
     atom  207 type  2   force =     0.00009895    0.00007667   -0.00003180
     atom  208 type  2   force =     0.00009942    0.00007658   -0.00003199
     atom  209 type  3   force =     0.00000438    0.00002007    0.00001378
     atom  210 type  3   force =     0.00000443    0.00002028    0.00001371
     atom  211 type  3   force =     0.00000439    0.00002004    0.00001388
     atom  212 type  3   force =     0.00000485    0.00002384    0.00001496
     atom  213 type  3   force =     0.00000449    0.00002003    0.00001389
     atom  214 type  3   force =     0.00000438    0.00001995    0.00001392
     atom  215 type  3   force =     0.00000422    0.00001998    0.00001374
     atom  216 type  3   force =     0.00000435    0.00002005    0.00001372
     atom  217 type  1   force =    -0.00013225    0.00020449    0.00002176
     atom  218 type  1   force =    -0.00013180    0.00020432    0.00002201
     atom  219 type  1   force =    -0.00013241    0.00020462    0.00002141
     atom  220 type  1   force =    -0.00015565    0.00020085   -0.00000695
     atom  221 type  1   force =    -0.00013184    0.00020450    0.00002165
     atom  222 type  1   force =    -0.00013179    0.00020504    0.00002173
     atom  223 type  1   force =    -0.00013290    0.00020328    0.00002139
     atom  224 type  1   force =    -0.00013276    0.00020441    0.00002194
     atom  225 type  2   force =    -0.00049848    0.00011464    0.00028574
     atom  226 type  2   force =     0.00006612    0.00004286    0.00007308
     atom  227 type  2   force =     0.00006637    0.00004235    0.00007319
     atom  228 type  2   force =     0.00006674    0.00004180    0.00007308
     atom  229 type  2   force =     0.00006635    0.00004230    0.00007293
     atom  230 type  2   force =     0.00006779    0.00004265    0.00007285
     atom  231 type  2   force =     0.00006674    0.00004207    0.00007302
     atom  232 type  2   force =     0.00006642    0.00004243    0.00007312
     atom  233 type  3   force =     0.00006501    0.00002290   -0.00002937
     atom  234 type  3   force =     0.00006658    0.00002200   -0.00002950
     atom  235 type  3   force =     0.00006657    0.00002224   -0.00002952
     atom  236 type  3   force =     0.00006633    0.00002221   -0.00002934
     atom  237 type  3   force =     0.00006651    0.00002217   -0.00002934
     atom  238 type  3   force =     0.00006692    0.00001664   -0.00002976
     atom  239 type  3   force =     0.00006647    0.00002208   -0.00002934
     atom  240 type  3   force =     0.00006659    0.00002219   -0.00002944
     atom  241 type  1   force =    -0.00023806    0.00000415    0.00013511
     atom  242 type  1   force =    -0.00023800    0.00000364    0.00013546
     atom  243 type  1   force =    -0.00023846    0.00000457    0.00013526
     atom  244 type  1   force =    -0.00023869    0.00000487    0.00013454
     atom  245 type  1   force =    -0.00023809    0.00000369    0.00013517
     atom  246 type  1   force =    -0.00023764    0.00000647    0.00013484
     atom  247 type  1   force =    -0.00023823    0.00000364    0.00013514
     atom  248 type  1   force =    -0.00023915    0.00000247    0.00013546
     atom  249 type  1   force =    -0.00013247    0.00019626    0.00017450
     atom  250 type  1   force =    -0.00013200    0.00019734    0.00017453
     atom  251 type  1   force =    -0.00013184    0.00019849    0.00017389
     atom  252 type  1   force =    -0.00013291    0.00019638    0.00017398
     atom  253 type  1   force =    -0.00013188    0.00019708    0.00017425
     atom  254 type  1   force =    -0.00013398    0.00019627    0.00017654
     atom  255 type  1   force =    -0.00013263    0.00019662    0.00017467
     atom  256 type  1   force =    -0.00013094    0.00019730    0.00017454
     atom  257 type  2   force =     0.00000276    0.00001606   -0.00001162
     atom  258 type  2   force =     0.00000248    0.00001620   -0.00001161
     atom  259 type  2   force =     0.00000491    0.00001864   -0.00001382
     atom  260 type  2   force =     0.00000252    0.00001644   -0.00001161
     atom  261 type  2   force =     0.00000244    0.00001636   -0.00001162
     atom  262 type  2   force =     0.00000254    0.00001584   -0.00001178
     atom  263 type  2   force =     0.00000246    0.00001600   -0.00001171
     atom  264 type  2   force =     0.00000248    0.00001630   -0.00001157
     atom  265 type  2   force =    -0.00004505   -0.00019662   -0.00002713
     atom  266 type  2   force =    -0.00004509   -0.00019716   -0.00002724
     atom  267 type  2   force =    -0.00004537   -0.00020188   -0.00002687
     atom  268 type  2   force =    -0.00004534   -0.00019845   -0.00002700
     atom  269 type  2   force =    -0.00004544   -0.00019730   -0.00002691
     atom  270 type  2   force =    -0.00004534   -0.00020042   -0.00002733
     atom  271 type  2   force =    -0.00004499   -0.00019670   -0.00002729
     atom  272 type  2   force =    -0.00004484   -0.00019555   -0.00002776
     atom  273 type  2   force =     0.00015437    0.00008472   -0.00008241
     atom  274 type  2   force =     0.00015441    0.00008472   -0.00008245
     atom  275 type  2   force =     0.00015375    0.00008327   -0.00008251
     atom  276 type  2   force =     0.00015386    0.00008459   -0.00008260
     atom  277 type  2   force =     0.00015421    0.00008459   -0.00008260
     atom  278 type  2   force =     0.00015490    0.00008464   -0.00008284
     atom  279 type  2   force =     0.00015390    0.00008459   -0.00008247
     atom  280 type  2   force =     0.00015389    0.00008488   -0.00008240
     atom  281 type  3   force =     0.00004638   -0.00002301    0.00005421
     atom  282 type  3   force =     0.00004639   -0.00002328    0.00005418
     atom  283 type  3   force =     0.00004610   -0.00002306    0.00005460
     atom  284 type  3   force =     0.00004633   -0.00002329    0.00005437
     atom  285 type  3   force =     0.00004631   -0.00002325    0.00005447
     atom  286 type  3   force =     0.00004630   -0.00002377    0.00005515
     atom  287 type  3   force =     0.00004644   -0.00002327    0.00005424
     atom  288 type  3   force =     0.00004627   -0.00002317    0.00005412
     atom  289 type  2   force =    -0.00000533   -0.00014272    0.00000125
     atom  290 type  2   force =    -0.00000543   -0.00014309    0.00000114
     atom  291 type  2   force =    -0.00000791   -0.00014269   -0.00000426
     atom  292 type  2   force =    -0.00000521   -0.00014244    0.00000134
     atom  293 type  2   force =    -0.00000559   -0.00014311    0.00000120
     atom  294 type  2   force =    -0.00000482   -0.00014248    0.00000118
     atom  295 type  2   force =    -0.00000483   -0.00014279    0.00000126
     atom  296 type  2   force =    -0.00000516   -0.00014293    0.00000121
     atom  297 type  3   force =    -0.00007041   -0.00003607    0.00004830
     atom  298 type  3   force =    -0.00007006   -0.00003586    0.00004836
     atom  299 type  3   force =    -0.00006944   -0.00003434    0.00004664
     atom  300 type  3   force =    -0.00007014   -0.00003616    0.00004848
     atom  301 type  3   force =    -0.00007020   -0.00003589    0.00004835
     atom  302 type  3   force =    -0.00007017   -0.00003616    0.00004848
     atom  303 type  3   force =    -0.00006928   -0.00003599    0.00004842
     atom  304 type  3   force =    -0.00006991   -0.00003588    0.00004843
     atom  305 type  1   force =     0.00020455   -0.00005167   -0.00017756
     atom  306 type  1   force =     0.00020342   -0.00005131   -0.00017705
     atom  307 type  1   force =     0.00020387   -0.00005064   -0.00017809
     atom  308 type  1   force =     0.00020453   -0.00005104   -0.00017753
     atom  309 type  1   force =     0.00020395   -0.00005139   -0.00017747
     atom  310 type  1   force =     0.00020510   -0.00005235   -0.00017766
     atom  311 type  1   force =     0.00020441   -0.00005187   -0.00017749
     atom  312 type  1   force =     0.00020322   -0.00005183   -0.00017560
     atom  313 type  1   force =     0.00025288    0.00015512   -0.00011420
     atom  314 type  1   force =     0.00025218    0.00015531   -0.00011368
     atom  315 type  1   force =     0.00025242    0.00015683   -0.00011315
     atom  316 type  1   force =     0.00025376    0.00015553   -0.00011441
     atom  317 type  1   force =     0.00025250    0.00015563   -0.00011379
     atom  318 type  1   force =     0.00025534    0.00015594   -0.00011151
     atom  319 type  1   force =     0.00025280    0.00015500   -0.00011409
     atom  320 type  1   force =     0.00025244    0.00015453   -0.00011268
     atom  321 type  2   force =    -0.00007649    0.00009935    0.00003194
     atom  322 type  2   force =    -0.00007666    0.00009942    0.00003187
     atom  323 type  2   force =    -0.00007451    0.00009077    0.00002926
     atom  324 type  2   force =    -0.00007617    0.00009892    0.00003226
     atom  325 type  2   force =    -0.00007673    0.00009895    0.00003196
     atom  326 type  2   force =    -0.00007667    0.00009960    0.00003243
     atom  327 type  2   force =    -0.00007633    0.00010008    0.00003191
     atom  328 type  2   force =    -0.00007641    0.00009942    0.00003184
     atom  329 type  3   force =    -0.00002006    0.00000433   -0.00001386
     atom  330 type  3   force =    -0.00002007    0.00000429   -0.00001386
     atom  331 type  3   force =    -0.00002122    0.00000639   -0.00001043
     atom  332 type  3   force =    -0.00001996    0.00000439   -0.00001378
     atom  333 type  3   force =    -0.00002008    0.00000432   -0.00001382
     atom  334 type  3   force =    -0.00002032    0.00000443   -0.00001398
     atom  335 type  3   force =    -0.00001995    0.00000443   -0.00001380
     atom  336 type  3   force =    -0.00001974    0.00000436   -0.00001391
     atom  337 type  1   force =    -0.00020372   -0.00013256   -0.00002146
     atom  338 type  1   force =    -0.00020464   -0.00013236   -0.00002144
     atom  339 type  1   force =    -0.00020738   -0.00012547   -0.00002892
     atom  340 type  1   force =    -0.00020412   -0.00013122   -0.00002230
     atom  341 type  1   force =    -0.00020462   -0.00013222   -0.00002174
     atom  342 type  1   force =    -0.00020450   -0.00013108   -0.00002178
     atom  343 type  1   force =    -0.00020508   -0.00013249   -0.00002139
     atom  344 type  1   force =    -0.00020486   -0.00013295   -0.00002155
     atom  345 type  2   force =    -0.00004626    0.00006890   -0.00007075
     atom  346 type  2   force =    -0.00004219    0.00006622   -0.00007303
     atom  347 type  2   force =    -0.00004198    0.00006676   -0.00007284
     atom  348 type  2   force =    -0.00004262    0.00006637   -0.00007303
     atom  349 type  2   force =    -0.00004257    0.00006697   -0.00007396
     atom  350 type  2   force =    -0.00004304    0.00006620   -0.00007345
     atom  351 type  2   force =    -0.00004254    0.00006633   -0.00007299
     atom  352 type  2   force =    -0.00004220    0.00006651   -0.00007307
     atom  353 type  3   force =    -0.00002203    0.00006660    0.00002889
     atom  354 type  3   force =    -0.00002193    0.00006633    0.00002931
     atom  355 type  3   force =    -0.00002243    0.00006640    0.00002922
     atom  356 type  3   force =    -0.00002213    0.00006660    0.00002937
     atom  357 type  3   force =    -0.00002197    0.00006632    0.00002939
     atom  358 type  3   force =    -0.00002216    0.00006694    0.00002963
     atom  359 type  3   force =    -0.00002223    0.00006657    0.00002931
     atom  360 type  3   force =    -0.00002199    0.00006630    0.00002935
     atom  361 type  1   force =     0.00023834   -0.00000433    0.00013526
     atom  362 type  1   force =     0.00023899   -0.00000396    0.00013594
     atom  363 type  1   force =     0.00023779   -0.00000455    0.00013510
     atom  364 type  1   force =     0.00023682   -0.00000405    0.00013289
     atom  365 type  1   force =     0.00023808   -0.00000338    0.00013513
     atom  366 type  1   force =     0.00023885   -0.00000341    0.00013550
     atom  367 type  1   force =     0.00023843   -0.00000445    0.00013548
     atom  368 type  1   force =     0.00023760   -0.00000399    0.00013532
     atom  369 type  1   force =     0.00013275   -0.00019710    0.00017460
     atom  370 type  1   force =     0.00013299   -0.00019342    0.00017246
     atom  371 type  1   force =     0.00013252   -0.00019682    0.00017461
     atom  372 type  1   force =     0.00013265   -0.00019783    0.00017486
     atom  373 type  1   force =     0.00013272   -0.00019680    0.00017457
     atom  374 type  1   force =     0.00013194   -0.00019690    0.00017453
     atom  375 type  1   force =     0.00013180   -0.00019719    0.00017414
     atom  376 type  1   force =     0.00013262   -0.00019709    0.00017465
     atom  377 type  2   force =    -0.00000240   -0.00001625   -0.00001160
     atom  378 type  2   force =    -0.00000293   -0.00001956   -0.00001183
     atom  379 type  2   force =    -0.00000259   -0.00001637   -0.00001168
     atom  380 type  2   force =    -0.00000214   -0.00001586   -0.00001167
     atom  381 type  2   force =    -0.00000236   -0.00001644   -0.00001162
     atom  382 type  2   force =    -0.00000295   -0.00001551   -0.00001152
     atom  383 type  2   force =    -0.00000238   -0.00001645   -0.00001165
     atom  384 type  2   force =    -0.00000244   -0.00001661   -0.00001173
     atom  385 type  2   force =     0.00004469    0.00019757   -0.00002723
     atom  386 type  2   force =     0.00004823    0.00018982   -0.00002708
     atom  387 type  2   force =     0.00004505    0.00019768   -0.00002728
     atom  388 type  2   force =     0.00004455    0.00019750   -0.00002770
     atom  389 type  2   force =     0.00004517    0.00019836   -0.00002720
     atom  390 type  2   force =     0.00004547    0.00019752   -0.00002709
     atom  391 type  2   force =     0.00004528    0.00019737   -0.00002709
     atom  392 type  2   force =     0.00004465    0.00019755   -0.00002749
     atom  393 type  2   force =    -0.00015437   -0.00008455   -0.00008245
     atom  394 type  2   force =    -0.00014803   -0.00008341   -0.00008032
     atom  395 type  2   force =    -0.00015402   -0.00008467   -0.00008251
     atom  396 type  2   force =    -0.00015452   -0.00008479   -0.00008227
     atom  397 type  2   force =    -0.00015412   -0.00008415   -0.00008265
     atom  398 type  2   force =    -0.00015459   -0.00008544   -0.00008229
     atom  399 type  2   force =    -0.00015424   -0.00008465   -0.00008250
     atom  400 type  2   force =    -0.00015408   -0.00008447   -0.00008246
     atom  401 type  3   force =    -0.00004635    0.00002328    0.00005428
     atom  402 type  3   force =    -0.00005118    0.00002303    0.00004736
     atom  403 type  3   force =    -0.00004644    0.00002326    0.00005431
     atom  404 type  3   force =    -0.00004650    0.00002343    0.00005384
     atom  405 type  3   force =    -0.00004646    0.00002330    0.00005441
     atom  406 type  3   force =    -0.00004635    0.00002335    0.00005431
     atom  407 type  3   force =    -0.00004641    0.00002325    0.00005431
     atom  408 type  3   force =    -0.00004652    0.00002317    0.00005428
     atom  409 type  2   force =     0.00000840    0.00014399    0.00000023
     atom  410 type  2   force =     0.00000548    0.00014325    0.00000122
     atom  411 type  2   force =     0.00000486    0.00014267    0.00000120
     atom  412 type  2   force =     0.00000491    0.00014262    0.00000124
     atom  413 type  2   force =     0.00000577    0.00013965    0.00000072
     atom  414 type  2   force =     0.00000510    0.00014295    0.00000116
     atom  415 type  2   force =     0.00000505    0.00014311    0.00000119
     atom  416 type  2   force =     0.00000544    0.00014312    0.00000120
     atom  417 type  3   force =     0.00007009    0.00003636    0.00004829
     atom  418 type  3   force =     0.00007018    0.00003590    0.00004834
     atom  419 type  3   force =     0.00006995    0.00003581    0.00004838
     atom  420 type  3   force =     0.00007004    0.00003612    0.00004841
     atom  421 type  3   force =     0.00007103    0.00003670    0.00004961
     atom  422 type  3   force =     0.00006998    0.00003590    0.00004887
     atom  423 type  3   force =     0.00007000    0.00003616    0.00004837
     atom  424 type  3   force =     0.00006998    0.00003584    0.00004830
     atom  425 type  1   force =    -0.00020421    0.00005107   -0.00017751
     atom  426 type  1   force =    -0.00020789    0.00005403   -0.00017724
     atom  427 type  1   force =    -0.00020437    0.00005127   -0.00017741
     atom  428 type  1   force =    -0.00020309    0.00005040   -0.00017657
     atom  429 type  1   force =    -0.00020462    0.00005106   -0.00017784
     atom  430 type  1   force =    -0.00020389    0.00005124   -0.00017714
     atom  431 type  1   force =    -0.00020333    0.00005145   -0.00017717
     atom  432 type  1   force =    -0.00020409    0.00005178   -0.00017742
     atom  433 type  1   force =    -0.00025254   -0.00015485   -0.00011476
     atom  434 type  1   force =    -0.00025151   -0.00015544   -0.00011405
     atom  435 type  1   force =    -0.00025298   -0.00015519   -0.00011396
     atom  436 type  1   force =    -0.00025240   -0.00015455   -0.00011375
     atom  437 type  1   force =    -0.00025340   -0.00015542   -0.00011412
     atom  438 type  1   force =    -0.00025261   -0.00015562   -0.00011387
     atom  439 type  1   force =    -0.00025192   -0.00015560   -0.00011380
     atom  440 type  1   force =    -0.00025254   -0.00015490   -0.00011398
     atom  441 type  2   force =     0.00007635   -0.00009890    0.00003197
     atom  442 type  2   force =     0.00007845   -0.00009867    0.00003048
     atom  443 type  2   force =     0.00007633   -0.00009958    0.00003206
     atom  444 type  2   force =     0.00007628   -0.00009932    0.00003201
     atom  445 type  2   force =     0.00007635   -0.00009929    0.00003227
     atom  446 type  2   force =     0.00007795   -0.00009848    0.00003178
     atom  447 type  2   force =     0.00007644   -0.00009931    0.00003192
     atom  448 type  2   force =     0.00007586   -0.00009918    0.00003206
     atom  449 type  3   force =     0.00002007   -0.00000449   -0.00001390
     atom  450 type  3   force =     0.00001997   -0.00000433   -0.00001391
     atom  451 type  3   force =     0.00002018   -0.00000433   -0.00001361
     atom  452 type  3   force =     0.00001949   -0.00000432   -0.00001362
     atom  453 type  3   force =     0.00001999   -0.00000436   -0.00001385
     atom  454 type  3   force =     0.00001987   -0.00000457   -0.00001406
     atom  455 type  3   force =     0.00002012   -0.00000448   -0.00001389
     atom  456 type  3   force =     0.00002011   -0.00000369   -0.00001459
     atom  457 type  1   force =     0.00020440    0.00013155   -0.00002161
     atom  458 type  1   force =     0.00020521    0.00013229   -0.00002165
     atom  459 type  1   force =     0.00020461    0.00013193   -0.00002197
     atom  460 type  1   force =     0.00020126    0.00013211   -0.00002079
     atom  461 type  1   force =     0.00020480    0.00013210   -0.00002161
     atom  462 type  1   force =     0.00020468    0.00013183   -0.00002149
     atom  463 type  1   force =     0.00020435    0.00013177   -0.00002197
     atom  464 type  1   force =     0.00020321    0.00013305   -0.00001961
     atom  465 type  2   force =     0.00004137   -0.00006557   -0.00007297
     atom  466 type  2   force =     0.00004214   -0.00006650   -0.00007309
     atom  467 type  2   force =     0.00003868   -0.00006491   -0.00007134
     atom  468 type  2   force =     0.00004270   -0.00006607   -0.00007308
     atom  469 type  2   force =     0.00004223   -0.00006656   -0.00007321
     atom  470 type  2   force =     0.00004293   -0.00006605   -0.00007336
     atom  471 type  2   force =     0.00004236   -0.00006679   -0.00007301
     atom  472 type  2   force =     0.00004175   -0.00006685   -0.00007314
     atom  473 type  3   force =     0.00002196   -0.00006586    0.00002864
     atom  474 type  3   force =     0.00002203   -0.00006641    0.00002928
     atom  475 type  3   force =     0.00002183   -0.00006665    0.00002913
     atom  476 type  3   force =     0.00002208   -0.00006664    0.00002934
     atom  477 type  3   force =     0.00002149   -0.00006633    0.00002946
     atom  478 type  3   force =     0.00002244   -0.00006664    0.00002988
     atom  479 type  3   force =     0.00002223   -0.00006662    0.00002928
     atom  480 type  3   force =     0.00002196   -0.00006636    0.00002929
     atom  481 type  4   force =     0.00000056    0.00000137   -0.00000320
     atom  482 type  4   force =    -0.00000102    0.00000119    0.00000166
     atom  483 type  4   force =     0.00000254   -0.00000182    0.00000121
     atom  484 type  4   force =    -0.00000033   -0.00000803    0.00000549
     atom  485 type  4   force =    -0.00000204    0.00000049    0.00000292
     atom  486 type  4   force =    -0.00000549   -0.00000348   -0.00000375
     atom  487 type  4   force =     0.00000152    0.00000250   -0.00000164
     atom  488 type  4   force =     0.00000060    0.00000147    0.00000064
     atom  489 type  4   force =    -0.00000015    0.00000010   -0.00000052
     atom  490 type  4   force =     0.00000099    0.00000027    0.00000091
     atom  491 type  4   force =     0.00000157   -0.00000130    0.00000386
     atom  492 type  4   force =    -0.00000075   -0.00000033   -0.00000022
     atom  493 type  4   force =     0.00000087    0.00000281    0.00000111
     atom  494 type  4   force =     0.00000032   -0.00000229   -0.00000350
     atom  495 type  4   force =     0.00000130    0.00000030   -0.00000009
     atom  496 type  4   force =    -0.00000284    0.00000563   -0.00000177
     The non-local contrib.  to forces
     atom    1 type  1   force =     0.42450338   -0.94527725   -0.55499936
     atom    2 type  1   force =     0.42450505   -0.94527554   -0.55499582
     atom    3 type  1   force =     0.42450360   -0.94527431   -0.55499840
     atom    4 type  1   force =     0.42447214   -0.94524495   -0.55499071
     atom    5 type  1   force =     0.42450284   -0.94527115   -0.55499609
     atom    6 type  1   force =     0.42452549   -0.94528633   -0.55499700
     atom    7 type  1   force =     0.42450946   -0.94528650   -0.55500525
     atom    8 type  1   force =     0.42450117   -0.94527304   -0.55499449
     atom    9 type  1   force =    -1.90169692   -0.92018274   -0.83650978
     atom   10 type  1   force =    -1.90170065   -0.92018487   -0.83651216
     atom   11 type  1   force =    -1.90172917   -0.92017209   -0.83656002
     atom   12 type  1   force =    -1.90170042   -0.92018469   -0.83651204
     atom   13 type  1   force =    -1.90169900   -0.92018610   -0.83649814
     atom   14 type  1   force =    -1.90169762   -0.92018101   -0.83650969
     atom   15 type  1   force =    -1.90170171   -0.92018395   -0.83651172
     atom   16 type  1   force =    -1.90170292   -0.92019111   -0.83651707
     atom   17 type  2   force =     0.20917413   -0.04486855    0.00802162
     atom   18 type  2   force =     0.20917005   -0.04486894    0.00802063
     atom   19 type  2   force =     0.20916696   -0.04486290    0.00801991
     atom   20 type  2   force =     0.20917271   -0.04486583    0.00802076
     atom   21 type  2   force =     0.20918672   -0.04492611    0.00787908
     atom   22 type  2   force =     0.20917216   -0.04486490    0.00802066
     atom   23 type  2   force =     0.20917233   -0.04486711    0.00802206
     atom   24 type  2   force =     0.20917514   -0.04486887    0.00802076
     atom   25 type  2   force =     0.18057979   -0.00954259    0.01138376
     atom   26 type  2   force =     0.18057610   -0.00954318    0.01138295
     atom   27 type  2   force =     0.18056874   -0.00954441    0.01139106
     atom   28 type  2   force =     0.18057713   -0.00954259    0.01138354
     atom   29 type  2   force =     0.18059549   -0.00956956    0.01141136
     atom   30 type  2   force =     0.18057669   -0.00954083    0.01138443
     atom   31 type  2   force =     0.18057685   -0.00954202    0.01138391
     atom   32 type  2   force =     0.18058117   -0.00954619    0.01138120
     atom   33 type  2   force =     0.03809090    0.04952184   -0.02160563
     atom   34 type  2   force =     0.03833839    0.04943622   -0.02158943
     atom   35 type  2   force =     0.03834033    0.04943164   -0.02158803
     atom   36 type  2   force =     0.03834261    0.04942860   -0.02158927
     atom   37 type  2   force =     0.03834001    0.04943155   -0.02158928
     atom   38 type  2   force =     0.03833617    0.04943044   -0.02159004
     atom   39 type  2   force =     0.03833829    0.04943458   -0.02159019
     atom   40 type  2   force =     0.03834023    0.04943365   -0.02158935
     atom   41 type  3   force =    -0.02449142    0.07095311   -0.00854020
     atom   42 type  3   force =    -0.02448913    0.07095373   -0.00853845
     atom   43 type  3   force =    -0.02448909    0.07095362   -0.00853841
     atom   44 type  3   force =    -0.02448902    0.07095351   -0.00853850
     atom   45 type  3   force =    -0.02448909    0.07095362   -0.00853848
     atom   46 type  3   force =    -0.02448920    0.07095357   -0.00853850
     atom   47 type  3   force =    -0.02448912    0.07095367   -0.00853851
     atom   48 type  3   force =    -0.02448909    0.07095366   -0.00853847
     atom   49 type  2   force =     0.18825407    0.10676738   -0.02131749
     atom   50 type  2   force =     0.19564484    0.10406839   -0.02183188
     atom   51 type  2   force =     0.19564852    0.10406586   -0.02183117
     atom   52 type  2   force =     0.19564771    0.10406582   -0.02183178
     atom   53 type  2   force =     0.19564375    0.10406602   -0.02183169
     atom   54 type  2   force =     0.19564659    0.10406215   -0.02183159
     atom   55 type  2   force =     0.19564854    0.10406839   -0.02183197
     atom   56 type  2   force =     0.19564674    0.10406785   -0.02183168
     atom   57 type  3   force =     0.07312087   -0.02096321   -0.00044287
     atom   58 type  3   force =     0.07447318   -0.02094778   -0.00102134
     atom   59 type  3   force =     0.07447327   -0.02094783   -0.00102127
     atom   60 type  3   force =     0.07447326   -0.02094782   -0.00102130
     atom   61 type  3   force =     0.07447316   -0.02094781   -0.00102128
     atom   62 type  3   force =     0.07447320   -0.02094790   -0.00102132
     atom   63 type  3   force =     0.07447327   -0.02094777   -0.00102132
     atom   64 type  3   force =     0.07447324   -0.02094778   -0.00102131
     atom   65 type  1   force =     0.46059472    0.90170793    0.60854031
     atom   66 type  1   force =     0.46059286    0.90170797    0.60853918
     atom   67 type  1   force =     0.46056831    0.90170225    0.60854077
     atom   68 type  1   force =     0.46059411    0.90171009    0.60854069
     atom   69 type  1   force =     0.46061669    0.90166044    0.60855043
     atom   70 type  1   force =     0.46059629    0.90171865    0.60854652
     atom   71 type  1   force =     0.46059275    0.90171020    0.60854163
     atom   72 type  1   force =     0.46059377    0.90169487    0.60853415
     atom   73 type  1   force =    -1.81427242    1.18902066    0.50398847
     atom   74 type  1   force =    -1.81427568    1.18902151    0.50398836
     atom   75 type  1   force =    -1.81434207    1.18905981    0.50401859
     atom   76 type  1   force =    -1.81427492    1.18902191    0.50398848
     atom   77 type  1   force =    -1.81427125    1.18901506    0.50398848
     atom   78 type  1   force =    -1.81427415    1.18902365    0.50398993
     atom   79 type  1   force =    -1.81427637    1.18902331    0.50398961
     atom   80 type  1   force =    -1.81426166    1.18900791    0.50398359
     atom   81 type  2   force =    -0.12228823    0.00071704    0.01061040
     atom   82 type  2   force =    -0.12228784    0.00071913    0.01060918
     atom   83 type  2   force =    -0.12228228    0.00073030    0.01060751
     atom   84 type  2   force =    -0.12228576    0.00072246    0.01060883
     atom   85 type  2   force =    -0.12209184    0.00069828    0.01071175
     atom   86 type  2   force =    -0.12228660    0.00072320    0.01060857
     atom   87 type  2   force =    -0.12228636    0.00072021    0.01060985
     atom   88 type  2   force =    -0.12228624    0.00071846    0.01060901
     atom   89 type  3   force =    -0.04392403   -0.06010595    0.00989230
     atom   90 type  3   force =    -0.04392400   -0.06010601    0.00989245
     atom   91 type  3   force =    -0.04392398   -0.06010586    0.00989230
     atom   92 type  3   force =    -0.04392384   -0.06010564    0.00989228
     atom   93 type  3   force =    -0.04392398   -0.06010585    0.00989227
     atom   94 type  3   force =    -0.04392245   -0.06010499    0.00989335
     atom   95 type  3   force =    -0.04392400   -0.06010597    0.00989230
     atom   96 type  3   force =    -0.04392399   -0.06010592    0.00989235
     atom   97 type  1   force =     0.67099981   -1.73658718    0.15449855
     atom   98 type  1   force =     0.67099872   -1.73658435    0.15450115
     atom   99 type  1   force =     0.67099962   -1.73657616    0.15449850
     atom  100 type  1   force =     0.67100128   -1.73657173    0.15449759
     atom  101 type  1   force =     0.67099787   -1.73657516    0.15449747
     atom  102 type  1   force =     0.67189153   -1.73600729    0.15669867
     atom  103 type  1   force =     0.67100078   -1.73658234    0.15449862
     atom  104 type  1   force =     0.67100104   -1.73658168    0.15450004
     atom  105 type  2   force =    -0.02522486    0.04107596   -0.00104515
     atom  106 type  2   force =    -0.02522150    0.04109197   -0.00104186
     atom  107 type  2   force =    -0.02521720    0.04109299   -0.00104224
     atom  108 type  2   force =    -0.02521725    0.04109348   -0.00104322
     atom  109 type  2   force =    -0.02522026    0.04109145   -0.00104361
     atom  110 type  2   force =    -0.02522253    0.04102583   -0.00105098
     atom  111 type  2   force =    -0.02521907    0.04109139   -0.00104329
     atom  112 type  2   force =    -0.02521696    0.04109218   -0.00104182
     atom  113 type  3   force =     0.05072065    0.05410019   -0.00606293
     atom  114 type  3   force =     0.05071360    0.05410626   -0.00605703
     atom  115 type  3   force =     0.05071364    0.05410622   -0.00605698
     atom  116 type  3   force =     0.05071366    0.05410623   -0.00605703
     atom  117 type  3   force =     0.05071358    0.05410619   -0.00605702
     atom  118 type  3   force =     0.05071341    0.05410579   -0.00605704
     atom  119 type  3   force =     0.05071365    0.05410625   -0.00605704
     atom  120 type  3   force =     0.05071366    0.05410627   -0.00605701
     atom  121 type  1   force =    -0.42450388    0.94527342   -0.55499919
     atom  122 type  1   force =    -0.42449964    0.94526698   -0.55499147
     atom  123 type  1   force =    -0.42450616    0.94527771   -0.55499856
     atom  124 type  1   force =    -0.42448810    0.94530485   -0.55501719
     atom  125 type  1   force =    -0.42450346    0.94527618   -0.55499884
     atom  126 type  1   force =    -0.42451279    0.94529782   -0.55500284
     atom  127 type  1   force =    -0.42450568    0.94526959   -0.55499686
     atom  128 type  1   force =    -0.42450381    0.94526893   -0.55499391
     atom  129 type  1   force =     1.90170128    0.92018455   -0.83651331
     atom  130 type  1   force =     1.90169830    0.92018045   -0.83650962
     atom  131 type  1   force =     1.90169653    0.92018344   -0.83650973
     atom  132 type  1   force =     1.90172279    0.92019370   -0.83651950
     atom  133 type  1   force =     1.90170025    0.92018466   -0.83651188
     atom  134 type  1   force =     1.90168596    0.92018104   -0.83650723
     atom  135 type  1   force =     1.90169798    0.92018355   -0.83651092
     atom  136 type  1   force =     1.90169731    0.92018214   -0.83650965
     atom  137 type  2   force =    -0.20917269    0.04486562    0.00802051
     atom  138 type  2   force =    -0.20916981    0.04486546    0.00802233
     atom  139 type  2   force =    -0.20917447    0.04486659    0.00802053
     atom  140 type  2   force =    -0.20912073    0.04480725    0.00800940
     atom  141 type  2   force =    -0.20917189    0.04486663    0.00802084
     atom  142 type  2   force =    -0.20917268    0.04486797    0.00802060
     atom  143 type  2   force =    -0.20917828    0.04485978    0.00801898
     atom  144 type  2   force =    -0.20917515    0.04486635    0.00802107
     atom  145 type  2   force =    -0.18057794    0.00954298    0.01138376
     atom  146 type  2   force =    -0.18057490    0.00954047    0.01138472
     atom  147 type  2   force =    -0.18057938    0.00954254    0.01138349
     atom  148 type  2   force =    -0.18052675    0.00954194    0.01138109
     atom  149 type  2   force =    -0.18057643    0.00954254    0.01138358
     atom  150 type  2   force =    -0.18057844    0.00954581    0.01138207
     atom  151 type  2   force =    -0.18058306    0.00954351    0.01138386
     atom  152 type  2   force =    -0.18058006    0.00954146    0.01138446
     atom  153 type  2   force =    -0.03833843   -0.04943342   -0.02158948
     atom  154 type  2   force =    -0.03833872   -0.04943262   -0.02158987
     atom  155 type  2   force =    -0.03834099   -0.04944922   -0.02159236
     atom  156 type  2   force =    -0.03834181   -0.04943267   -0.02158911
     atom  157 type  2   force =    -0.03833915   -0.04943545   -0.02159002
     atom  158 type  2   force =    -0.03833790   -0.04943347   -0.02158865
     atom  159 type  2   force =    -0.03834074   -0.04943327   -0.02158960
     atom  160 type  2   force =    -0.03832194   -0.04946772   -0.02159448
     atom  161 type  3   force =     0.02448912   -0.07095367   -0.00853846
     atom  162 type  3   force =     0.02448910   -0.07095364   -0.00853849
     atom  163 type  3   force =     0.02448882   -0.07095415   -0.00853865
     atom  164 type  3   force =     0.02448907   -0.07095363   -0.00853849
     atom  165 type  3   force =     0.02448911   -0.07095370   -0.00853849
     atom  166 type  3   force =     0.02448913   -0.07095366   -0.00853844
     atom  167 type  3   force =     0.02448908   -0.07095366   -0.00853848
     atom  168 type  3   force =     0.02448946   -0.07095451   -0.00853865
     atom  169 type  2   force =    -0.19564270   -0.10407478   -0.02183202
     atom  170 type  2   force =    -0.19565083   -0.10406691   -0.02183097
     atom  171 type  2   force =    -0.19564479   -0.10406695   -0.02183128
     atom  172 type  2   force =    -0.19564159   -0.10406666   -0.02183166
     atom  173 type  2   force =    -0.19564657   -0.10406726   -0.02183206
     atom  174 type  2   force =    -0.19572799   -0.10413211   -0.02182660
     atom  175 type  2   force =    -0.19564570   -0.10406781   -0.02183166
     atom  176 type  2   force =    -0.19564315   -0.10406815   -0.02183099
     atom  177 type  3   force =    -0.07447315    0.02094769   -0.00102133
     atom  178 type  3   force =    -0.07447332    0.02094779   -0.00102119
     atom  179 type  3   force =    -0.07447318    0.02094781   -0.00102128
     atom  180 type  3   force =    -0.07447309    0.02094784   -0.00102131
     atom  181 type  3   force =    -0.07447323    0.02094780   -0.00102134
     atom  182 type  3   force =    -0.07447529    0.02094789   -0.00102124
     atom  183 type  3   force =    -0.07447322    0.02094777   -0.00102132
     atom  184 type  3   force =    -0.07447316    0.02094776   -0.00102128
     atom  185 type  1   force =    -0.46059367   -0.90170915    0.60854155
     atom  186 type  1   force =    -0.46059327   -0.90171272    0.60854914
     atom  187 type  1   force =    -0.46059577   -0.90171028    0.60854171
     atom  188 type  1   force =    -0.46057398   -0.90173198    0.60855548
     atom  189 type  1   force =    -0.46059346   -0.90171107    0.60854047
     atom  190 type  1   force =    -0.46059863   -0.90170609    0.60853741
     atom  191 type  1   force =    -0.46059657   -0.90170760    0.60853674
     atom  192 type  1   force =    -0.46059521   -0.90171075    0.60854160
     atom  193 type  1   force =     1.81427307   -1.18901936    0.50398961
     atom  194 type  1   force =     1.81427737   -1.18902445    0.50399244
     atom  195 type  1   force =     1.81427263   -1.18902088    0.50398887
     atom  196 type  1   force =     1.81429683   -1.18903035    0.50399331
     atom  197 type  1   force =     1.81427455   -1.18902179    0.50398853
     atom  198 type  1   force =     1.81426341   -1.18901361    0.50398389
     atom  199 type  1   force =     1.81427330   -1.18902098    0.50398783
     atom  200 type  1   force =     1.81427497   -1.18902333    0.50398981
     atom  201 type  2   force =     0.12228609   -0.00072238    0.01060879
     atom  202 type  2   force =     0.12228808   -0.00072229    0.01060999
     atom  203 type  2   force =     0.12228584   -0.00072119    0.01060850
     atom  204 type  2   force =     0.12236852   -0.00073678    0.01061024
     atom  205 type  2   force =     0.12228786   -0.00072082    0.01060896
     atom  206 type  2   force =     0.12228899   -0.00071816    0.01060907
     atom  207 type  2   force =     0.12228353   -0.00072770    0.01060732
     atom  208 type  2   force =     0.12228368   -0.00072257    0.01060887
     atom  209 type  3   force =     0.04392398    0.06010586    0.00989230
     atom  210 type  3   force =     0.04392403    0.06010586    0.00989236
     atom  211 type  3   force =     0.04392398    0.06010590    0.00989228
     atom  212 type  3   force =     0.04392654    0.06010564    0.00989182
     atom  213 type  3   force =     0.04392401    0.06010592    0.00989229
     atom  214 type  3   force =     0.04392407    0.06010599    0.00989228
     atom  215 type  3   force =     0.04392393    0.06010573    0.00989228
     atom  216 type  3   force =     0.04392393    0.06010585    0.00989233
     atom  217 type  1   force =    -0.67099872    1.73657612    0.15449834
     atom  218 type  1   force =    -0.67099630    1.73657439    0.15449961
     atom  219 type  1   force =    -0.67099980    1.73657878    0.15449751
     atom  220 type  1   force =    -0.67081025    1.73589055    0.15441511
     atom  221 type  1   force =    -0.67099801    1.73657957    0.15449859
     atom  222 type  1   force =    -0.67099678    1.73658134    0.15449820
     atom  223 type  1   force =    -0.67099746    1.73656592    0.15449688
     atom  224 type  1   force =    -0.67100257    1.73657795    0.15449972
     atom  225 type  2   force =     0.02459763   -0.04002561    0.00005351
     atom  226 type  2   force =     0.02521813   -0.04109048   -0.00104317
     atom  227 type  2   force =     0.02522006   -0.04109284   -0.00104163
     atom  228 type  2   force =     0.02522143   -0.04109289   -0.00104324
     atom  229 type  2   force =     0.02521843   -0.04109398   -0.00104262
     atom  230 type  2   force =     0.02521089   -0.04110464   -0.00104265
     atom  231 type  2   force =     0.02521932   -0.04109093   -0.00104356
     atom  232 type  2   force =     0.02522019   -0.04109079   -0.00104278
     atom  233 type  3   force =    -0.05071360   -0.05410684   -0.00605708
     atom  234 type  3   force =    -0.05071367   -0.05410622   -0.00605699
     atom  235 type  3   force =    -0.05071357   -0.05410620   -0.00605698
     atom  236 type  3   force =    -0.05071355   -0.05410621   -0.00605703
     atom  237 type  3   force =    -0.05071364   -0.05410626   -0.00605704
     atom  238 type  3   force =    -0.05071408   -0.05410746   -0.00605717
     atom  239 type  3   force =    -0.05071362   -0.05410624   -0.00605704
     atom  240 type  3   force =    -0.05071358   -0.05410621   -0.00605700
     atom  241 type  1   force =    -0.94527278   -0.42450484    0.55499695
     atom  242 type  1   force =    -0.94527531   -0.42450518    0.55500087
     atom  243 type  1   force =    -0.94528148   -0.42449932    0.55499608
     atom  244 type  1   force =    -0.94527207   -0.42449768    0.55499096
     atom  245 type  1   force =    -0.94527363   -0.42450407    0.55499785
     atom  246 type  1   force =    -0.94526752   -0.42448985    0.55499332
     atom  247 type  1   force =    -0.94527453   -0.42450584    0.55499776
     atom  248 type  1   force =    -0.94528634   -0.42451309    0.55500755
     atom  249 type  1   force =    -0.92018250    1.90169751    0.83651006
     atom  250 type  1   force =    -0.92018527    1.90170024    0.83651241
     atom  251 type  1   force =    -0.92018460    1.90170303    0.83651270
     atom  252 type  1   force =    -0.92018688    1.90170747    0.83651336
     atom  253 type  1   force =    -0.92018454    1.90170001    0.83651178
     atom  254 type  1   force =    -0.92018269    1.90170540    0.83650964
     atom  255 type  1   force =    -0.92018289    1.90169641    0.83651031
     atom  256 type  1   force =    -0.92018791    1.90169711    0.83651326
     atom  257 type  2   force =    -0.04486417   -0.20917666   -0.00802048
     atom  258 type  2   force =    -0.04486624   -0.20917315   -0.00801970
     atom  259 type  2   force =    -0.04487027   -0.20915882   -0.00802545
     atom  260 type  2   force =    -0.04486551   -0.20917022   -0.00802214
     atom  261 type  2   force =    -0.04486539   -0.20917265   -0.00802075
     atom  262 type  2   force =    -0.04486671   -0.20916202   -0.00802142
     atom  263 type  2   force =    -0.04486781   -0.20917520   -0.00802078
     atom  264 type  2   force =    -0.04486690   -0.20917938   -0.00801959
     atom  265 type  2   force =    -0.00954234   -0.18058148   -0.01138403
     atom  266 type  2   force =    -0.00954414   -0.18057913   -0.01138286
     atom  267 type  2   force =    -0.00954319   -0.18056718   -0.01138367
     atom  268 type  2   force =    -0.00954158   -0.18057441   -0.01138369
     atom  269 type  2   force =    -0.00954330   -0.18057827   -0.01138349
     atom  270 type  2   force =    -0.00954133   -0.18056424   -0.01138511
     atom  271 type  2   force =    -0.00954280   -0.18058089   -0.01138365
     atom  272 type  2   force =    -0.00954654   -0.18058545   -0.01138250
     atom  273 type  2   force =     0.04943547   -0.03834413    0.02158973
     atom  274 type  2   force =     0.04943257   -0.03833997    0.02159030
     atom  275 type  2   force =     0.04943819   -0.03832626    0.02159692
     atom  276 type  2   force =     0.04943501   -0.03833835    0.02158910
     atom  277 type  2   force =     0.04943501   -0.03833882    0.02158908
     atom  278 type  2   force =     0.04942772   -0.03833625    0.02158755
     atom  279 type  2   force =     0.04943197   -0.03834123    0.02158965
     atom  280 type  2   force =     0.04943468   -0.03834255    0.02158990
     atom  281 type  3   force =     0.07095369    0.02448901    0.00853852
     atom  282 type  3   force =     0.07095362    0.02448908    0.00853851
     atom  283 type  3   force =     0.07095385    0.02448929    0.00853852
     atom  284 type  3   force =     0.07095370    0.02448913    0.00853848
     atom  285 type  3   force =     0.07095370    0.02448911    0.00853845
     atom  286 type  3   force =     0.07095354    0.02448920    0.00853825
     atom  287 type  3   force =     0.07095362    0.02448907    0.00853850
     atom  288 type  3   force =     0.07095368    0.02448904    0.00853853
     atom  289 type  2   force =     0.10407062   -0.19564931    0.02183194
     atom  290 type  2   force =     0.10406682   -0.19564659    0.02183181
     atom  291 type  2   force =     0.10406327   -0.19563205    0.02184916
     atom  292 type  2   force =     0.10406765   -0.19564639    0.02183119
     atom  293 type  2   force =     0.10406799   -0.19564460    0.02183157
     atom  294 type  2   force =     0.10406592   -0.19564477    0.02183114
     atom  295 type  2   force =     0.10406467   -0.19565031    0.02183201
     atom  296 type  2   force =     0.10406672   -0.19564988    0.02183176
     atom  297 type  3   force =    -0.02094770   -0.07447332    0.00102134
     atom  298 type  3   force =    -0.02094779   -0.07447323    0.00102132
     atom  299 type  3   force =    -0.02094775   -0.07447301    0.00102200
     atom  300 type  3   force =    -0.02094778   -0.07447323    0.00102128
     atom  301 type  3   force =    -0.02094776   -0.07447319    0.00102132
     atom  302 type  3   force =    -0.02094780   -0.07447318    0.00102131
     atom  303 type  3   force =    -0.02094794   -0.07447326    0.00102131
     atom  304 type  3   force =    -0.02094782   -0.07447330    0.00102128
     atom  305 type  1   force =     0.90170942   -0.46059572   -0.60853970
     atom  306 type  1   force =     0.90170526   -0.46059391   -0.60853762
     atom  307 type  1   force =     0.90171355   -0.46059075   -0.60854585
     atom  308 type  1   force =     0.90171086   -0.46059113   -0.60853976
     atom  309 type  1   force =     0.90170989   -0.46059533   -0.60854166
     atom  310 type  1   force =     0.90170969   -0.46058123   -0.60853419
     atom  311 type  1   force =     0.90170738   -0.46059495   -0.60853860
     atom  312 type  1   force =     0.90170740   -0.46060078   -0.60853202
     atom  313 type  1   force =     1.18902042    1.81427144   -0.50398820
     atom  314 type  1   force =     1.18902031    1.81427483   -0.50398783
     atom  315 type  1   force =     1.18902314    1.81427866   -0.50398975
     atom  316 type  1   force =     1.18902281    1.81427624   -0.50398831
     atom  317 type  1   force =     1.18902153    1.81427458   -0.50398816
     atom  318 type  1   force =     1.18904436    1.81430017   -0.50398744
     atom  319 type  1   force =     1.18902093    1.81427280   -0.50398828
     atom  320 type  1   force =     1.18901359    1.81426165   -0.50397989
     atom  321 type  2   force =     0.00072390    0.12228380   -0.01060832
     atom  322 type  2   force =     0.00072264    0.12228571   -0.01060819
     atom  323 type  2   force =     0.00070028    0.12231476   -0.01062184
     atom  324 type  2   force =     0.00072024    0.12228905   -0.01061050
     atom  325 type  2   force =     0.00072243    0.12228671   -0.01060871
     atom  326 type  2   force =     0.00072214    0.12229060   -0.01060966
     atom  327 type  2   force =     0.00072102    0.12228444   -0.01060905
     atom  328 type  2   force =     0.00072093    0.12228327   -0.01060770
     atom  329 type  3   force =    -0.06010582    0.04392393   -0.00989228
     atom  330 type  3   force =    -0.06010586    0.04392397   -0.00989227
     atom  331 type  3   force =    -0.06010640    0.04392441   -0.00989301
     atom  332 type  3   force =    -0.06010593    0.04392406   -0.00989238
     atom  333 type  3   force =    -0.06010586    0.04392400   -0.00989230
     atom  334 type  3   force =    -0.06010587    0.04392407   -0.00989229
     atom  335 type  3   force =    -0.06010591    0.04392393   -0.00989230
     atom  336 type  3   force =    -0.06010592    0.04392391   -0.00989224
     atom  337 type  1   force =    -1.73657232   -0.67100090   -0.15449778
     atom  338 type  1   force =    -1.73657734   -0.67099931   -0.15449725
     atom  339 type  1   force =    -1.73661329   -0.67096458   -0.15449875
     atom  340 type  1   force =    -1.73657637   -0.67099719   -0.15450137
     atom  341 type  1   force =    -1.73657509   -0.67099744   -0.15449818
     atom  342 type  1   force =    -1.73657725   -0.67099541   -0.15449844
     atom  343 type  1   force =    -1.73658919   -0.67100472   -0.15449845
     atom  344 type  1   force =    -1.73658166   -0.67100345   -0.15449834
     atom  345 type  2   force =     0.04108336    0.02520193    0.00105509
     atom  346 type  2   force =     0.04109209    0.02521794    0.00104339
     atom  347 type  2   force =     0.04109715    0.02521851    0.00104443
     atom  348 type  2   force =     0.04109215    0.02521888    0.00104314
     atom  349 type  2   force =     0.04108716    0.02522258    0.00104180
     atom  350 type  2   force =     0.04109312    0.02521542    0.00104013
     atom  351 type  2   force =     0.04109258    0.02521857    0.00104374
     atom  352 type  2   force =     0.04109311    0.02521839    0.00104333
     atom  353 type  3   force =     0.05410655   -0.05071394    0.00605718
     atom  354 type  3   force =     0.05410623   -0.05071363    0.00605704
     atom  355 type  3   force =     0.05410638   -0.05071354    0.00605726
     atom  356 type  3   force =     0.05410627   -0.05071363    0.00605702
     atom  357 type  3   force =     0.05410624   -0.05071360    0.00605702
     atom  358 type  3   force =     0.05410612   -0.05071358    0.00605694
     atom  359 type  3   force =     0.05410621   -0.05071362    0.00605703
     atom  360 type  3   force =     0.05410628   -0.05071368    0.00605703
     atom  361 type  1   force =     0.94527543    0.42450253    0.55499842
     atom  362 type  1   force =     0.94528295    0.42450444    0.55500454
     atom  363 type  1   force =     0.94526909    0.42450117    0.55499366
     atom  364 type  1   force =     0.94524872    0.42451700    0.55497696
     atom  365 type  1   force =     0.94527678    0.42450621    0.55499963
     atom  366 type  1   force =     0.94528254    0.42450711    0.55500202
     atom  367 type  1   force =     0.94527258    0.42449839    0.55499686
     atom  368 type  1   force =     0.94527031    0.42450224    0.55500004
     atom  369 type  1   force =     0.92018111   -1.90169848    0.83650998
     atom  370 type  1   force =     0.92016739   -1.90166726    0.83649140
     atom  371 type  1   force =     0.92018470   -1.90170169    0.83651238
     atom  372 type  1   force =     0.92018940   -1.90170499    0.83651554
     atom  373 type  1   force =     0.92018681   -1.90170715    0.83651464
     atom  374 type  1   force =     0.92018480   -1.90170257    0.83651251
     atom  375 type  1   force =     0.92018491   -1.90169904    0.83651214
     atom  376 type  1   force =     0.92018468   -1.90169689    0.83651146
     atom  377 type  2   force =     0.04486661    0.20917104   -0.00802067
     atom  378 type  2   force =     0.04484805    0.20919270   -0.00800712
     atom  379 type  2   force =     0.04486640    0.20917222   -0.00802051
     atom  380 type  2   force =     0.04486954    0.20917139   -0.00801923
     atom  381 type  2   force =     0.04486631    0.20916858   -0.00802097
     atom  382 type  2   force =     0.04486000    0.20917159   -0.00801821
     atom  383 type  2   force =     0.04486680    0.20917322   -0.00802060
     atom  384 type  2   force =     0.04486799    0.20917320   -0.00802040
     atom  385 type  2   force =     0.00954225    0.18057657   -0.01138352
     atom  386 type  2   force =     0.00953778    0.18060751   -0.01138527
     atom  387 type  2   force =     0.00954295    0.18057732   -0.01138339
     atom  388 type  2   force =     0.00954584    0.18057665   -0.01138126
     atom  389 type  2   force =     0.00954208    0.18057277   -0.01138337
     atom  390 type  2   force =     0.00954304    0.18057672   -0.01138330
     atom  391 type  2   force =     0.00954391    0.18057948   -0.01138298
     atom  392 type  2   force =     0.00954349    0.18057812   -0.01138288
     atom  393 type  2   force =    -0.04943297    0.03833848    0.02159001
     atom  394 type  2   force =    -0.04948131    0.03832456    0.02161962
     atom  395 type  2   force =    -0.04943306    0.03833948    0.02158988
     atom  396 type  2   force =    -0.04942742    0.03834012    0.02159159
     atom  397 type  2   force =    -0.04943401    0.03833652    0.02158940
     atom  398 type  2   force =    -0.04943681    0.03834156    0.02159006
     atom  399 type  2   force =    -0.04943283    0.03833948    0.02158961
     atom  400 type  2   force =    -0.04943205    0.03833965    0.02159000
     atom  401 type  3   force =    -0.07095364   -0.02448911    0.00853849
     atom  402 type  3   force =    -0.07095432   -0.02448969    0.00854078
     atom  403 type  3   force =    -0.07095365   -0.02448910    0.00853849
     atom  404 type  3   force =    -0.07095349   -0.02448910    0.00853859
     atom  405 type  3   force =    -0.07095368   -0.02448915    0.00853846
     atom  406 type  3   force =    -0.07095372   -0.02448909    0.00853851
     atom  407 type  3   force =    -0.07095364   -0.02448910    0.00853848
     atom  408 type  3   force =    -0.07095363   -0.02448909    0.00853849
     atom  409 type  2   force =    -0.10408164    0.19563072    0.02183296
     atom  410 type  2   force =    -0.10406726    0.19564345    0.02183167
     atom  411 type  2   force =    -0.10406380    0.19564866    0.02183201
     atom  412 type  2   force =    -0.10406699    0.19564708    0.02183180
     atom  413 type  2   force =    -0.10407110    0.19565951    0.02182854
     atom  414 type  2   force =    -0.10406689    0.19564344    0.02182985
     atom  415 type  2   force =    -0.10406660    0.19564478    0.02183199
     atom  416 type  2   force =    -0.10406652    0.19564542    0.02183180
     atom  417 type  3   force =     0.02094759    0.07447290    0.00102137
     atom  418 type  3   force =     0.02094776    0.07447316    0.00102133
     atom  419 type  3   force =     0.02094785    0.07447327    0.00102131
     atom  420 type  3   force =     0.02094781    0.07447324    0.00102131
     atom  421 type  3   force =     0.02094767    0.07447353    0.00102090
     atom  422 type  3   force =     0.02094781    0.07447317    0.00102117
     atom  423 type  3   force =     0.02094781    0.07447318    0.00102133
     atom  424 type  3   force =     0.02094781    0.07447320    0.00102134
     atom  425 type  1   force =    -0.90170856    0.46059098   -0.60853840
     atom  426 type  1   force =    -0.90172185    0.46061995   -0.60853036
     atom  427 type  1   force =    -0.90170798    0.46059213   -0.60853798
     atom  428 type  1   force =    -0.90169541    0.46058779   -0.60852968
     atom  429 type  1   force =    -0.90170913    0.46058896   -0.60853941
     atom  430 type  1   force =    -0.90171065    0.46059375   -0.60854054
     atom  431 type  1   force =    -0.90170809    0.46059623   -0.60854116
     atom  432 type  1   force =    -0.90170646    0.46059378   -0.60853802
     atom  433 type  1   force =    -1.18902730   -1.81428261   -0.50399171
     atom  434 type  1   force =    -1.18902027   -1.81425630   -0.50398768
     atom  435 type  1   force =    -1.18902152   -1.81427494   -0.50398801
     atom  436 type  1   force =    -1.18901893   -1.81427746   -0.50398681
     atom  437 type  1   force =    -1.18902518   -1.81428123   -0.50399012
     atom  438 type  1   force =    -1.18902314   -1.81427744   -0.50398892
     atom  439 type  1   force =    -1.18901766   -1.81427029   -0.50398709
     atom  440 type  1   force =    -1.18901869   -1.81427140   -0.50398750
     atom  441 type  2   force =    -0.00072070   -0.12228836   -0.01060963
     atom  442 type  2   force =    -0.00074048   -0.12227833   -0.01060449
     atom  443 type  2   force =    -0.00072148   -0.12228742   -0.01060891
     atom  444 type  2   force =    -0.00071830   -0.12228740   -0.01060882
     atom  445 type  2   force =    -0.00072095   -0.12228930   -0.01060925
     atom  446 type  2   force =    -0.00073226   -0.12228195   -0.01060510
     atom  447 type  2   force =    -0.00072094   -0.12228683   -0.01060878
     atom  448 type  2   force =    -0.00071827   -0.12228876   -0.01060876
     atom  449 type  3   force =     0.06010589   -0.04392399   -0.00989229
     atom  450 type  3   force =     0.06010597   -0.04392402   -0.00989228
     atom  451 type  3   force =     0.06010590   -0.04392405   -0.00989238
     atom  452 type  3   force =     0.06010546   -0.04392372   -0.00989228
     atom  453 type  3   force =     0.06010591   -0.04392400   -0.00989230
     atom  454 type  3   force =     0.06010601   -0.04392402   -0.00989226
     atom  455 type  3   force =     0.06010592   -0.04392404   -0.00989232
     atom  456 type  3   force =     0.06010560   -0.04392399   -0.00989198
     atom  457 type  1   force =     1.73657882    0.67099870   -0.15449836
     atom  458 type  1   force =     1.73658452    0.67100039   -0.15449812
     atom  459 type  1   force =     1.73657703    0.67099634   -0.15449864
     atom  460 type  1   force =     1.73654793    0.67099206   -0.15449627
     atom  461 type  1   force =     1.73657908    0.67099865   -0.15449799
     atom  462 type  1   force =     1.73658173    0.67099780   -0.15449797
     atom  463 type  1   force =     1.73657909    0.67099649   -0.15449955
     atom  464 type  1   force =     1.73654112    0.67099680   -0.15449240
     atom  465 type  2   force =    -0.04108140   -0.02522844    0.00104511
     atom  466 type  2   force =    -0.04109222   -0.02521935    0.00104365
     atom  467 type  2   force =    -0.04108657   -0.02521325    0.00106277
     atom  468 type  2   force =    -0.04109039   -0.02521889    0.00104215
     atom  469 type  2   force =    -0.04109152   -0.02521829    0.00104261
     atom  470 type  2   force =    -0.04109546   -0.02521552    0.00104089
     atom  471 type  2   force =    -0.04109419   -0.02522028    0.00104328
     atom  472 type  2   force =    -0.04109110   -0.02522240    0.00104340
     atom  473 type  3   force =    -0.05410618    0.05071322    0.00605730
     atom  474 type  3   force =    -0.05410622    0.05071359    0.00605704
     atom  475 type  3   force =    -0.05410607    0.05071361    0.00605708
     atom  476 type  3   force =    -0.05410622    0.05071362    0.00605703
     atom  477 type  3   force =    -0.05410631    0.05071373    0.00605697
     atom  478 type  3   force =    -0.05410622    0.05071353    0.00605688
     atom  479 type  3   force =    -0.05410622    0.05071360    0.00605704
     atom  480 type  3   force =    -0.05410621    0.05071360    0.00605705
     atom  481 type  4   force =     0.00000355   -0.00000421   -0.00000458
     atom  482 type  4   force =     0.00001052   -0.00000884    0.00002103
     atom  483 type  4   force =    -0.00001329    0.00000453   -0.00000520
     atom  484 type  4   force =    -0.00001946    0.00007244   -0.00006361
     atom  485 type  4   force =     0.00000212    0.00000617    0.00000324
     atom  486 type  4   force =     0.00003290    0.00002853    0.00000241
     atom  487 type  4   force =     0.00000005   -0.00002097   -0.00000731
     atom  488 type  4   force =    -0.00001840   -0.00000816    0.00002174
     atom  489 type  4   force =     0.00000048   -0.00000544    0.00000110
     atom  490 type  4   force =    -0.00000673    0.00000283    0.00000028
     atom  491 type  4   force =     0.00000312   -0.00000154   -0.00001878
     atom  492 type  4   force =     0.00000383   -0.00000051    0.00000303
     atom  493 type  4   force =    -0.00000330   -0.00001699   -0.00000376
     atom  494 type  4   force =    -0.00000076    0.00001709    0.00003262
     atom  495 type  4   force =    -0.00000049   -0.00000053    0.00000750
     atom  496 type  4   force =     0.00001621   -0.00004910    0.00003043
     The ionic contribution  to forces
     atom    1 type  1   force =    -0.12037299   -1.15060214   -2.54597200
     atom    2 type  1   force =    -0.12038138   -1.15057404   -2.54603276
     atom    3 type  1   force =    -0.12034740   -1.15066072   -2.54595011
     atom    4 type  1   force =    -0.12061397   -1.15082233   -2.54562742
     atom    5 type  1   force =    -0.12037077   -1.15066256   -2.54597684
     atom    6 type  1   force =    -0.12054663   -1.15068097   -2.54591244
     atom    7 type  1   force =    -0.12036061   -1.15058817   -2.54595762
     atom    8 type  1   force =    -0.12033176   -1.15055746   -2.54603904
     atom    9 type  1   force =    14.27341778    1.63979918    2.01250914
     atom   10 type  1   force =    14.27344819    1.63975804    2.01256710
     atom   11 type  1   force =    14.27317429    1.63904597    2.01349133
     atom   12 type  1   force =    14.27347047    1.63972489    2.01260253
     atom   13 type  1   force =    14.27334492    1.63972343    2.01260868
     atom   14 type  1   force =    14.27344295    1.63969808    2.01255426
     atom   15 type  1   force =    14.27350982    1.63979353    2.01251812
     atom   16 type  1   force =    14.27346140    1.63979373    2.01259186
     atom   17 type  2   force =    -2.68734452   -1.12161929   -0.87822644
     atom   18 type  2   force =    -2.68735453   -1.12162810   -0.87818303
     atom   19 type  2   force =    -2.68744522   -1.12170704   -0.87813846
     atom   20 type  2   force =    -2.68736811   -1.12168466   -0.87819565
     atom   21 type  2   force =    -2.68790195   -1.12170501   -0.87790593
     atom   22 type  2   force =    -2.68734696   -1.12168583   -0.87818611
     atom   23 type  2   force =    -2.68737709   -1.12160340   -0.87826880
     atom   24 type  2   force =    -2.68737101   -1.12163515   -0.87819386
     atom   25 type  2   force =    -5.25570878   -0.26028017   -0.96590550
     atom   26 type  2   force =    -5.25570458   -0.26030457   -0.96585977
     atom   27 type  2   force =    -5.25583781   -0.26044772   -0.96573976
     atom   28 type  2   force =    -5.25570568   -0.26034430   -0.96585638
     atom   29 type  2   force =    -5.25592155   -0.26034547   -0.96576328
     atom   30 type  2   force =    -5.25569880   -0.26036209   -0.96587233
     atom   31 type  2   force =    -5.25569450   -0.26027407   -0.96593621
     atom   32 type  2   force =    -5.25571424   -0.26029216   -0.96585830
     atom   33 type  2   force =    -3.27937820   -5.22829145    2.50244012
     atom   34 type  2   force =    -3.27856923   -5.22873064    2.50207468
     atom   35 type  2   force =    -3.27862408   -5.22865374    2.50197572
     atom   36 type  2   force =    -3.27860774   -5.22868195    2.50206914
     atom   37 type  2   force =    -3.27857365   -5.22867641    2.50205382
     atom   38 type  2   force =    -3.27857380   -5.22867131    2.50208865
     atom   39 type  2   force =    -3.27863621   -5.22873587    2.50210328
     atom   40 type  2   force =    -3.27860740   -5.22872421    2.50206398
     atom   41 type  3   force =    -0.74081673   -2.14433116    1.26074179
     atom   42 type  3   force =    -0.74072221   -2.14441374    1.26069747
     atom   43 type  3   force =    -0.74073636   -2.14439691    1.26067187
     atom   44 type  3   force =    -0.74073559   -2.14439906    1.26070253
     atom   45 type  3   force =    -0.74072729   -2.14440041    1.26069894
     atom   46 type  3   force =    -0.74072292   -2.14440004    1.26070777
     atom   47 type  3   force =    -0.74073590   -2.14441412    1.26070945
     atom   48 type  3   force =    -0.74073389   -2.14440830    1.26069987
     atom   49 type  2   force =    -6.19876462   -1.54957058    0.64614938
     atom   50 type  2   force =    -6.17631092   -1.54847182    0.63334876
     atom   51 type  2   force =    -6.17636972   -1.54840886    0.63325917
     atom   52 type  2   force =    -6.17633059   -1.54845042    0.63331477
     atom   53 type  2   force =    -6.17628404   -1.54843737    0.63330410
     atom   54 type  2   force =    -6.17631112   -1.54841479    0.63333981
     atom   55 type  2   force =    -6.17637150   -1.54847315    0.63334260
     atom   56 type  2   force =    -6.17634120   -1.54849859    0.63330716
     atom   57 type  3   force =    -1.94300873    0.04425632    0.17085282
     atom   58 type  3   force =    -1.97452759    0.04601405    0.18331864
     atom   59 type  3   force =    -1.97454272    0.04602917    0.18329638
     atom   60 type  3   force =    -1.97453220    0.04601865    0.18330958
     atom   61 type  3   force =    -1.97452015    0.04602173    0.18330751
     atom   62 type  3   force =    -1.97452736    0.04602833    0.18331617
     atom   63 type  3   force =    -1.97454188    0.04601381    0.18331617
     atom   64 type  3   force =    -1.97453528    0.04600661    0.18330751
     atom   65 type  1   force =    -0.87361247    0.57402054    1.98641004
     atom   66 type  1   force =    -0.87359039    0.57397975    1.98645982
     atom   67 type  1   force =    -0.87371329    0.57371047    1.98662646
     atom   68 type  1   force =    -0.87360062    0.57395222    1.98646897
     atom   69 type  1   force =    -0.87375069    0.57397807    1.98654440
     atom   70 type  1   force =    -0.87358672    0.57388929    1.98641215
     atom   71 type  1   force =    -0.87356699    0.57400405    1.98637160
     atom   72 type  1   force =    -0.87361654    0.57402517    1.98646595
     atom   73 type  1   force =    14.19221054   -5.31464821    0.05309000
     atom   74 type  1   force =    14.19224445   -5.31469302    0.05314318
     atom   75 type  1   force =    14.19219922   -5.31533534    0.05366972
     atom   76 type  1   force =    14.19225233   -5.31471417    0.05316920
     atom   77 type  1   force =    14.19214303   -5.31470454    0.05318982
     atom   78 type  1   force =    14.19223531   -5.31476657    0.05310563
     atom   79 type  1   force =    14.19229843   -5.31466810    0.05308360
     atom   80 type  1   force =    14.19224080   -5.31463700    0.05316556
     atom   81 type  2   force =    -0.21534582    2.77185995   -3.53166740
     atom   82 type  2   force =    -0.21537776    2.77186175   -3.53161090
     atom   83 type  2   force =    -0.21547222    2.77180223   -3.53158253
     atom   84 type  2   force =    -0.21538639    2.77178266   -3.53163739
     atom   85 type  2   force =    -0.21584427    2.77135638   -3.53111565
     atom   86 type  2   force =    -0.21537051    2.77180609   -3.53160471
     atom   87 type  2   force =    -0.21540478    2.77187179   -3.53167808
     atom   88 type  2   force =    -0.21538413    2.77183585   -3.53162618
     atom   89 type  3   force =     0.26883205    1.65183806   -1.78766524
     atom   90 type  3   force =     0.26884258    1.65183828   -1.78768565
     atom   91 type  3   force =     0.26883336    1.65181691   -1.78767398
     atom   92 type  3   force =     0.26880104    1.65182709   -1.78765646
     atom   93 type  3   force =     0.26883469    1.65182444   -1.78766451
     atom   94 type  3   force =     0.26881084    1.65176461   -1.78760670
     atom   95 type  3   force =     0.26883343    1.65183045   -1.78766833
     atom   96 type  3   force =     0.26882890    1.65183799   -1.78767871
     atom   97 type  1   force =    -5.25693505    6.86279261   -1.77950372
     atom   98 type  1   force =    -5.25688923    6.86276681   -1.77956246
     atom   99 type  1   force =    -5.25696170    6.86268111   -1.77954982
     atom  100 type  1   force =    -5.25702010    6.86272056   -1.77949489
     atom  101 type  1   force =    -5.25693076    6.86272043   -1.77949427
     atom  102 type  1   force =    -5.25748995    6.86011976   -1.77702993
     atom  103 type  1   force =    -5.25694997    6.86274475   -1.77953260
     atom  104 type  1   force =    -5.25699278    6.86279393   -1.77959410
     atom  105 type  2   force =     5.12464688    4.86177622    1.83981726
     atom  106 type  2   force =     5.12459497    4.86162024    1.83972397
     atom  107 type  2   force =     5.12452015    4.86161302    1.83967349
     atom  108 type  2   force =     5.12454192    4.86162034    1.83972794
     atom  109 type  2   force =     5.12459873    4.86161279    1.83972518
     atom  110 type  2   force =     5.12464686    4.86186494    1.83987218
     atom  111 type  2   force =     5.12454208    4.86162621    1.83972497
     atom  112 type  2   force =     5.12451783    4.86162066    1.83966100
     atom  113 type  3   force =    -1.67849791   -1.91306029    0.71641331
     atom  114 type  3   force =    -1.67844915   -1.91359996    0.71621242
     atom  115 type  3   force =    -1.67846770   -1.91358716    0.71618919
     atom  116 type  3   force =    -1.67845749   -1.91359411    0.71620697
     atom  117 type  3   force =    -1.67844556   -1.91359311    0.71620576
     atom  118 type  3   force =    -1.67844778   -1.91358260    0.71621585
     atom  119 type  3   force =    -1.67846315   -1.91359913    0.71621183
     atom  120 type  3   force =    -1.67846067   -1.91360347    0.71620252
     atom  121 type  1   force =     0.12032164    1.15068601   -2.54596218
     atom  122 type  1   force =     0.12037523    1.15064331   -2.54607276
     atom  123 type  1   force =     0.12041482    1.15053222   -2.54605105
     atom  124 type  1   force =     0.12020529    1.15070857   -2.54584096
     atom  125 type  1   force =     0.12034819    1.15061496   -2.54596719
     atom  126 type  1   force =     0.12033621    1.15052879   -2.54590703
     atom  127 type  1   force =     0.12039389    1.15063699   -2.54594953
     atom  128 type  1   force =     0.12036406    1.15066136   -2.54598954
     atom  129 type  1   force =   -14.27350796   -1.63964584    2.01259555
     atom  130 type  1   force =   -14.27341759   -1.63973914    2.01248499
     atom  131 type  1   force =   -14.27344634   -1.63983102    2.01244792
     atom  132 type  1   force =   -14.27355555   -1.63970009    2.01263334
     atom  133 type  1   force =   -14.27346291   -1.63974786    2.01258307
     atom  134 type  1   force =   -14.27342244   -1.63985917    2.01267713
     atom  135 type  1   force =   -14.27344134   -1.63974563    2.01258824
     atom  136 type  1   force =   -14.27347348   -1.63971268    2.01254948
     atom  137 type  2   force =     2.68733141    1.12167691   -0.87818797
     atom  138 type  2   force =     2.68732600    1.12166283   -0.87830059
     atom  139 type  2   force =     2.68740590    1.12162658   -0.87821470
     atom  140 type  2   force =     2.68721081    1.12195120   -0.87804397
     atom  141 type  2   force =     2.68733591    1.12164918   -0.87820994
     atom  142 type  2   force =     2.68734551    1.12163503   -0.87817580
     atom  143 type  2   force =     2.68741841    1.12168720   -0.87814581
     atom  144 type  2   force =     2.68737527    1.12166673   -0.87819391
     atom  145 type  2   force =     5.25566576    0.26036219   -0.96585072
     atom  146 type  2   force =     5.25570364    0.26032284   -0.96597897
     atom  147 type  2   force =     5.25574999    0.26028116   -0.96592317
     atom  148 type  2   force =     5.25557743    0.26045728   -0.96578063
     atom  149 type  2   force =     5.25569032    0.26032158   -0.96587061
     atom  150 type  2   force =     5.25570366    0.26028747   -0.96583300
     atom  151 type  2   force =     5.25574502    0.26032539   -0.96583010
     atom  152 type  2   force =     5.25570826    0.26033769   -0.96586926
     atom  153 type  2   force =     3.27855458    5.22870242    2.50203798
     atom  154 type  2   force =     3.27857822    5.22869298    2.50207756
     atom  155 type  2   force =     3.27870994    5.22878095    2.50216642
     atom  156 type  2   force =     3.27860944    5.22870419    2.50207717
     atom  157 type  2   force =     3.27855829    5.22871455    2.50207658
     atom  158 type  2   force =     3.27855128    5.22868866    2.50198768
     atom  159 type  2   force =     3.27864145    5.22868564    2.50205205
     atom  160 type  2   force =     3.27857280    5.22891390    2.50217867
     atom  161 type  3   force =     0.74072008    2.14440883    1.26069273
     atom  162 type  3   force =     0.74072783    2.14440399    1.26070234
     atom  163 type  3   force =     0.74078113    2.14441967    1.26074046
     atom  164 type  3   force =     0.74073261    2.14440542    1.26070444
     atom  165 type  3   force =     0.74071792    2.14440885    1.26070430
     atom  166 type  3   force =     0.74072238    2.14439765    1.26068359
     atom  167 type  3   force =     0.74074442    2.14440376    1.26069222
     atom  168 type  3   force =     0.74072673    2.14443578    1.26071672
     atom  169 type  2   force =     6.17635361    1.54855227    0.63337155
     atom  170 type  2   force =     6.17636169    1.54846428    0.63331324
     atom  171 type  2   force =     6.17628649    1.54843239    0.63328165
     atom  172 type  2   force =     6.17628828    1.54845666    0.63333332
     atom  173 type  2   force =     6.17634366    1.54844966    0.63333789
     atom  174 type  2   force =     6.17664317    1.54902969    0.63371425
     atom  175 type  2   force =     6.17630802    1.54846415    0.63332070
     atom  176 type  2   force =     6.17627104    1.54848039    0.63326181
     atom  177 type  3   force =     1.97453248   -0.04599358    0.18332183
     atom  178 type  3   force =     1.97454224   -0.04601517    0.18330589
     atom  179 type  3   force =     1.97452217   -0.04602615    0.18329917
     atom  180 type  3   force =     1.97451907   -0.04601600    0.18331518
     atom  181 type  3   force =     1.97453345   -0.04601810    0.18331636
     atom  182 type  3   force =     1.97465290   -0.04596559    0.18341538
     atom  183 type  3   force =     1.97452793   -0.04601618    0.18331127
     atom  184 type  3   force =     1.97451889   -0.04601023    0.18329986
     atom  185 type  1   force =     0.87352170   -0.57389801    1.98650214
     atom  186 type  1   force =     0.87362792   -0.57400955    1.98629496
     atom  187 type  1   force =     0.87362932   -0.57399118    1.98635662
     atom  188 type  1   force =     0.87349968   -0.57385903    1.98649116
     atom  189 type  1   force =     0.87358609   -0.57395220    1.98644699
     atom  190 type  1   force =     0.87362467   -0.57398780    1.98649244
     atom  191 type  1   force =     0.87362618   -0.57400307    1.98650398
     atom  192 type  1   force =     0.87358635   -0.57395850    1.98645182
     atom  193 type  1   force =   -14.19232847    5.31482164    0.05320389
     atom  194 type  1   force =   -14.19218885    5.31467620    0.05303728
     atom  195 type  1   force =   -14.19224293    5.31466512    0.05301845
     atom  196 type  1   force =   -14.19232903    5.31476109    0.05317650
     atom  197 type  1   force =   -14.19224903    5.31471119    0.05314786
     atom  198 type  1   force =   -14.19218478    5.31467219    0.05321529
     atom  199 type  1   force =   -14.19223796    5.31468033    0.05317184
     atom  200 type  1   force =   -14.19226875    5.31471521    0.05313040
     atom  201 type  2   force =     0.21536154   -2.77180844   -3.53162431
     atom  202 type  2   force =     0.21533358   -2.77178877   -3.53171986
     atom  203 type  2   force =     0.21540782   -2.77184795   -3.53161859
     atom  204 type  2   force =     0.21485053   -2.77101494   -3.53125299
     atom  205 type  2   force =     0.21535722   -2.77184370   -3.53163745
     atom  206 type  2   force =     0.21534881   -2.77184478   -3.53160287
     atom  207 type  2   force =     0.21541109   -2.77178423   -3.53159309
     atom  208 type  2   force =     0.21540236   -2.77180798   -3.53163070
     atom  209 type  3   force =    -0.26883694   -1.65182369   -1.78766877
     atom  210 type  3   force =    -0.26884249   -1.65181536   -1.78769279
     atom  211 type  3   force =    -0.26882823   -1.65183447   -1.78766696
     atom  212 type  3   force =    -0.26907521   -1.65169183   -1.78758408
     atom  213 type  3   force =    -0.26883705   -1.65183405   -1.78767016
     atom  214 type  3   force =    -0.26884371   -1.65183575   -1.78766056
     atom  215 type  3   force =    -0.26882890   -1.65182041   -1.78766371
     atom  216 type  3   force =    -0.26882845   -1.65182239   -1.78767229
     atom  217 type  1   force =     5.25692577   -6.86272362   -1.77953051
     atom  218 type  1   force =     5.25687512   -6.86268931   -1.77961779
     atom  219 type  1   force =     5.25696739   -6.86275261   -1.77950270
     atom  220 type  1   force =     5.25682801   -6.86010443   -1.77844138
     atom  221 type  1   force =     5.25690918   -6.86277077   -1.77955348
     atom  222 type  1   force =     5.25689718   -6.86274824   -1.77950632
     atom  223 type  1   force =     5.25697425   -6.86266441   -1.77948589
     atom  224 type  1   force =     5.25698578   -6.86271856   -1.77953662
     atom  225 type  2   force =    -5.12687819   -4.85909580    1.84110413
     atom  226 type  2   force =    -5.12454684   -4.86163976    1.83974099
     atom  227 type  2   force =    -5.12461291   -4.86157496    1.83964441
     atom  228 type  2   force =    -5.12457721   -4.86160994    1.83971668
     atom  229 type  2   force =    -5.12453411   -4.86160197    1.83970876
     atom  230 type  2   force =    -5.12454639   -4.86157874    1.83974351
     atom  231 type  2   force =    -5.12460714   -4.86163971    1.83974268
     atom  232 type  2   force =    -5.12458568   -4.86165253    1.83970804
     atom  233 type  3   force =     1.67847309    1.91367268    0.71624469
     atom  234 type  3   force =     1.67846204    1.91359425    0.71620864
     atom  235 type  3   force =     1.67844094    1.91359637    0.71619091
     atom  236 type  3   force =     1.67844845    1.91359757    0.71620883
     atom  237 type  3   force =     1.67846174    1.91359600    0.71620867
     atom  238 type  3   force =     1.67847309    1.91362704    0.71623137
     atom  239 type  3   force =     1.67844828    1.91359594    0.71620959
     atom  240 type  3   force =     1.67844411    1.91359427    0.71619736
     atom  241 type  1   force =    -1.15064708    0.12041205    2.54593704
     atom  242 type  1   force =    -1.15062131    0.12038378    2.54592507
     atom  243 type  1   force =    -1.15057380    0.12020540    2.54597888
     atom  244 type  1   force =    -1.15064927    0.12033912    2.54603711
     atom  245 type  1   force =    -1.15064392    0.12035225    2.54597044
     atom  246 type  1   force =    -1.15086743    0.12015664    2.54584680
     atom  247 type  1   force =    -1.15060729    0.12038135    2.54594989
     atom  248 type  1   force =    -1.15062756    0.12048832    2.54589937
     atom  249 type  1   force =     1.63973277  -14.27342561   -2.01259773
     atom  250 type  1   force =     1.63974832  -14.27344055   -2.01260551
     atom  251 type  1   force =     1.63977521  -14.27353255   -2.01254879
     atom  252 type  1   force =     1.63973498  -14.27348486   -2.01252836
     atom  253 type  1   force =     1.63973116  -14.27346549   -2.01257450
     atom  254 type  1   force =     1.63933410  -14.27359190   -2.01286954
     atom  255 type  1   force =     1.63975528  -14.27344330   -2.01259308
     atom  256 type  1   force =     1.63971697  -14.27327250   -2.01269677
     atom  257 type  2   force =    -1.12169177    2.68743969    0.87814511
     atom  258 type  2   force =    -1.12164911    2.68737064    0.87816393
     atom  259 type  2   force =    -1.12176518    2.68692801    0.87790691
     atom  260 type  2   force =    -1.12167053    2.68735808    0.87821759
     atom  261 type  2   force =    -1.12167957    2.68735277    0.87820555
     atom  262 type  2   force =    -1.12168180    2.68723996    0.87817003
     atom  263 type  2   force =    -1.12163565    2.68737424    0.87817174
     atom  264 type  2   force =    -1.12166163    2.68741499    0.87817151
     atom  265 type  2   force =    -0.26034347    5.25575966    0.96583077
     atom  266 type  2   force =    -0.26031469    5.25571802    0.96583651
     atom  267 type  2   force =    -0.26031463    5.25547403    0.96583761
     atom  268 type  2   force =    -0.26033807    5.25569698    0.96589196
     atom  269 type  2   force =    -0.26034402    5.25570060    0.96587590
     atom  270 type  2   force =    -0.26042458    5.25551228    0.96576036
     atom  271 type  2   force =    -0.26030623    5.25571822    0.96584038
     atom  272 type  2   force =    -0.26033606    5.25579048    0.96582781
     atom  273 type  2   force =    -5.22873491    3.27871288   -2.50213747
     atom  274 type  2   force =    -5.22869098    3.27860106   -2.50209290
     atom  275 type  2   force =    -5.22897593    3.27836755   -2.50237127
     atom  276 type  2   force =    -5.22871613    3.27858879   -2.50206177
     atom  277 type  2   force =    -5.22871643    3.27857851   -2.50204611
     atom  278 type  2   force =    -5.22868447    3.27849562   -2.50205861
     atom  279 type  2   force =    -5.22869124    3.27860361   -2.50209338
     atom  280 type  2   force =    -5.22871181    3.27862751   -2.50209181
     atom  281 type  3   force =    -2.14440648    0.74075969   -1.26071540
     atom  282 type  3   force =    -2.14440153    0.74073285   -1.26070588
     atom  283 type  3   force =    -2.14445087    0.74069457   -1.26073477
     atom  284 type  3   force =    -2.14440980    0.74072797   -1.26070086
     atom  285 type  3   force =    -2.14440706    0.74072489   -1.26069096
     atom  286 type  3   force =    -2.14439328    0.74069897   -1.26069267
     atom  287 type  3   force =    -2.14440513    0.74073312   -1.26070865
     atom  288 type  3   force =    -2.14440981    0.74073832   -1.26070860
     atom  289 type  2   force =    -1.54856774    6.17643575   -0.63342443
     atom  290 type  2   force =    -1.54845914    6.17632307   -0.63334729
     atom  291 type  2   force =    -1.54870278    6.17651365   -0.63424451
     atom  292 type  2   force =    -1.54846467    6.17632714   -0.63331250
     atom  293 type  2   force =    -1.54847967    6.17631720   -0.63332305
     atom  294 type  2   force =    -1.54846131    6.17629065   -0.63332743
     atom  295 type  2   force =    -1.54842996    6.17632547   -0.63332889
     atom  296 type  2   force =    -1.54845498    6.17634362   -0.63332476
     atom  297 type  3   force =     0.04597863    1.97455446   -0.18334336
     atom  298 type  3   force =     0.04601584    1.97452951   -0.18331678
     atom  299 type  3   force =     0.04599656    1.97462760   -0.18346293
     atom  300 type  3   force =     0.04601662    1.97453196   -0.18331084
     atom  301 type  3   force =     0.04601210    1.97453027   -0.18331370
     atom  302 type  3   force =     0.04601558    1.97452648   -0.18331450
     atom  303 type  3   force =     0.04602524    1.97452865   -0.18331071
     atom  304 type  3   force =     0.04601925    1.97453326   -0.18330957
     atom  305 type  1   force =     0.57395161    0.87364965   -1.98649028
     atom  306 type  1   force =     0.57398236    0.87360854   -1.98647578
     atom  307 type  1   force =     0.57396783    0.87341938   -1.98643065
     atom  308 type  1   force =     0.57395066    0.87358641   -1.98644030
     atom  309 type  1   force =     0.57393420    0.87359921   -1.98642827
     atom  310 type  1   force =     0.57384505    0.87332591   -1.98675216
     atom  311 type  1   force =     0.57398392    0.87360705   -1.98649674
     atom  312 type  1   force =     0.57392067    0.87372517   -1.98650367
     atom  313 type  1   force =    -5.31471192  -14.19221429   -0.05316911
     atom  314 type  1   force =    -5.31468838  -14.19223852   -0.05316374
     atom  315 type  1   force =    -5.31468044  -14.19232840   -0.05311996
     atom  316 type  1   force =    -5.31471413  -14.19226012   -0.05312931
     atom  317 type  1   force =    -5.31472208  -14.19224501   -0.05313403
     atom  318 type  1   force =    -5.31500966  -14.19240972   -0.05364763
     atom  319 type  1   force =    -5.31468958  -14.19224105   -0.05317731
     atom  320 type  1   force =    -5.31477914  -14.19205936   -0.05324262
     atom  321 type  2   force =     2.77177322    0.21544590    3.53157066
     atom  322 type  2   force =     2.77182251    0.21538684    3.53158916
     atom  323 type  2   force =     2.77198414    0.21469934    3.53100463
     atom  324 type  2   force =     2.77181512    0.21537859    3.53166041
     atom  325 type  2   force =     2.77179305    0.21537013    3.53162403
     atom  326 type  2   force =     2.77179608    0.21530905    3.53160592
     atom  327 type  2   force =     2.77185638    0.21539579    3.53160685
     atom  328 type  2   force =     2.77182862    0.21542608    3.53161055
     atom  329 type  3   force =     1.65181768   -0.26882167    1.78765631
     atom  330 type  3   force =     1.65182610   -0.26883076    1.78765952
     atom  331 type  3   force =     1.65191478   -0.26896998    1.78765509
     atom  332 type  3   force =     1.65182854   -0.26883615    1.78768219
     atom  333 type  3   force =     1.65181928   -0.26883675    1.78766763
     atom  334 type  3   force =     1.65181743   -0.26884890    1.78766234
     atom  335 type  3   force =     1.65183660   -0.26882787    1.78766421
     atom  336 type  3   force =     1.65183133   -0.26881984    1.78766525
     atom  337 type  1   force =     6.86264115    5.25703486    1.77944467
     atom  338 type  1   force =     6.86273162    5.25694515    1.77948481
     atom  339 type  1   force =     6.86305626    5.25665681    1.77794516
     atom  340 type  1   force =     6.86272777    5.25694966    1.77955901
     atom  341 type  1   force =     6.86269399    5.25693488    1.77951957
     atom  342 type  1   force =     6.86271816    5.25688840    1.77951023
     atom  343 type  1   force =     6.86279012    5.25695898    1.77951049
     atom  344 type  1   force =     6.86274245    5.25698257    1.77952020
     atom  345 type  2   force =     4.86187536   -5.12440085   -1.83995745
     atom  346 type  2   force =     4.86162471   -5.12454553   -1.83970747
     atom  347 type  2   force =     4.86152050   -5.12453492   -1.83977073
     atom  348 type  2   force =     4.86161302   -5.12457722   -1.83974913
     atom  349 type  2   force =     4.86176198   -5.12457093   -1.83971783
     atom  350 type  2   force =     4.86163268   -5.12454903   -1.83970259
     atom  351 type  2   force =     4.86157843   -5.12455218   -1.83974843
     atom  352 type  2   force =     4.86161123   -5.12457659   -1.83974453
     atom  353 type  3   force =    -1.91361493    1.67851407   -0.71626022
     atom  354 type  3   force =    -1.91359531    1.67845579   -0.71621080
     atom  355 type  3   force =    -1.91366686    1.67847135   -0.71627292
     atom  356 type  3   force =    -1.91359806    1.67845319   -0.71621001
     atom  357 type  3   force =    -1.91359415    1.67845010   -0.71620381
     atom  358 type  3   force =    -1.91359237    1.67844985   -0.71620410
     atom  359 type  3   force =    -1.91359692    1.67845543   -0.71621152
     atom  360 type  3   force =    -1.91359745    1.67845594   -0.71621134
     atom  361 type  1   force =     1.15059712   -0.12033765    2.54592353
     atom  362 type  1   force =     1.15059198   -0.12033150    2.54590853
     atom  363 type  1   force =     1.15070234   -0.12044300    2.54607182
     atom  364 type  1   force =     1.15072951   -0.12048646    2.54622524
     atom  365 type  1   force =     1.15058378   -0.12039944    2.54595031
     atom  366 type  1   force =     1.15055264   -0.12040840    2.54595246
     atom  367 type  1   force =     1.15065563   -0.12031885    2.54595859
     atom  368 type  1   force =     1.15066936   -0.12030205    2.54593999
     atom  369 type  1   force =    -1.63961843   14.27333598   -2.01246579
     atom  370 type  1   force =    -1.63967902   14.27340598   -2.01236995
     atom  371 type  1   force =    -1.63977870   14.27348853   -2.01262087
     atom  372 type  1   force =    -1.63977298   14.27348198   -2.01263305
     atom  373 type  1   force =    -1.63969379   14.27352372   -2.01259178
     atom  374 type  1   force =    -1.63971484   14.27349908   -2.01259078
     atom  375 type  1   force =    -1.63980803   14.27341898   -2.01259987
     atom  376 type  1   force =    -1.63978968   14.27341907   -2.01258639
     atom  377 type  2   force =     1.12166037   -2.68734386    0.87825276
     atom  378 type  2   force =     1.12198356   -2.68748134    0.87807863
     atom  379 type  2   force =     1.12164370   -2.68736097    0.87815256
     atom  380 type  2   force =     1.12160151   -2.68732540    0.87815525
     atom  381 type  2   force =     1.12166604   -2.68733672    0.87819202
     atom  382 type  2   force =     1.12175275   -2.68730278    0.87817113
     atom  383 type  2   force =     1.12163833   -2.68738802    0.87817935
     atom  384 type  2   force =     1.12159583   -2.68736805    0.87816876
     atom  385 type  2   force =     0.26033445   -5.25570945    0.96596034
     atom  386 type  2   force =     0.26056881   -5.25591190    0.96589061
     atom  387 type  2   force =     0.26030750   -5.25569545    0.96581996
     atom  388 type  2   force =     0.26028275   -5.25567116    0.96582363
     atom  389 type  2   force =     0.26033855   -5.25567205    0.96585458
     atom  390 type  2   force =     0.26037567   -5.25566066    0.96584781
     atom  391 type  2   force =     0.26029249   -5.25574302    0.96585166
     atom  392 type  2   force =     0.26027208   -5.25572547    0.96584724
     atom  393 type  2   force =     5.22869891   -3.27857475   -2.50203982
     atom  394 type  2   force =     5.22909805   -3.27853928   -2.50252726
     atom  395 type  2   force =     5.22869445   -3.27859783   -2.50210506
     atom  396 type  2   force =     5.22861659   -3.27854257   -2.50211929
     atom  397 type  2   force =     5.22870953   -3.27856993   -2.50206543
     atom  398 type  2   force =     5.22879290   -3.27857381   -2.50207574
     atom  399 type  2   force =     5.22868946   -3.27861685   -2.50208521
     atom  400 type  2   force =     5.22865783   -3.27859060   -2.50208894
     atom  401 type  3   force =     2.14440362   -0.74072691   -1.26069509
     atom  402 type  3   force =     2.14446968   -0.74071858   -1.26091941
     atom  403 type  3   force =     2.14440459   -0.74073042   -1.26070962
     atom  404 type  3   force =     2.14438211   -0.74071128   -1.26071715
     atom  405 type  3   force =     2.14440686   -0.74072366   -1.26070144
     atom  406 type  3   force =     2.14441876   -0.74072780   -1.26070230
     atom  407 type  3   force =     2.14440287   -0.74073806   -1.26070385
     atom  408 type  3   force =     2.14439731   -0.74073041   -1.26070376
     atom  409 type  2   force =     1.54863524   -6.17626256   -0.63339076
     atom  410 type  2   force =     1.54846674   -6.17629868   -0.63330808
     atom  411 type  2   force =     1.54838940   -6.17630991   -0.63335239
     atom  412 type  2   force =     1.54844775   -6.17633901   -0.63334766
     atom  413 type  2   force =     1.54876394   -6.17628829   -0.63340576
     atom  414 type  2   force =     1.54846710   -6.17630639   -0.63329876
     atom  415 type  2   force =     1.54839687   -6.17629772   -0.63336126
     atom  416 type  2   force =     1.54844918   -6.17633034   -0.63335005
     atom  417 type  3   force =    -0.04598800   -1.97451535   -0.18332160
     atom  418 type  3   force =    -0.04601436   -1.97452374   -0.18331057
     atom  419 type  3   force =    -0.04603325   -1.97453038   -0.18331774
     atom  420 type  3   force =    -0.04602026   -1.97453602   -0.18331652
     atom  421 type  3   force =    -0.04591314   -1.97454696   -0.18334168
     atom  422 type  3   force =    -0.04601474   -1.97452710   -0.18330185
     atom  423 type  3   force =    -0.04603097   -1.97452166   -0.18332227
     atom  424 type  3   force =    -0.04601928   -1.97453054   -0.18332006
     atom  425 type  1   force =    -0.57399144   -0.87359335   -1.98631639
     atom  426 type  1   force =    -0.57376444   -0.87385423   -1.98650915
     atom  427 type  1   force =    -0.57397902   -0.87358077   -1.98651863
     atom  428 type  1   force =    -0.57401370   -0.87354547   -1.98649781
     atom  429 type  1   force =    -0.57394849   -0.87354092   -1.98647959
     atom  430 type  1   force =    -0.57392171   -0.87356291   -1.98646526
     atom  431 type  1   force =    -0.57402446   -0.87367107   -1.98646604
     atom  432 type  1   force =    -0.57400681   -0.87361633   -1.98646879
     atom  433 type  1   force =     5.31473283   14.19218579   -0.05298130
     atom  434 type  1   force =     5.31482120   14.19210787   -0.05304236
     atom  435 type  1   force =     5.31468017   14.19227274   -0.05320145
     atom  436 type  1   force =     5.31466977   14.19228163   -0.05319210
     atom  437 type  1   force =     5.31474026   14.19232872   -0.05318031
     atom  438 type  1   force =     5.31473263   14.19228073   -0.05315817
     atom  439 type  1   force =     5.31461141   14.19218032   -0.05317351
     atom  440 type  1   force =     5.31466699   14.19222147   -0.05315827
     atom  441 type  2   force =    -2.77180624   -0.21536096    3.53167901
     atom  442 type  2   force =    -2.77165547   -0.21543377    3.53162468
     atom  443 type  2   force =    -2.77183823   -0.21538065    3.53158654
     atom  444 type  2   force =    -2.77186543   -0.21535702    3.53159343
     atom  445 type  2   force =    -2.77181353   -0.21536092    3.53162409
     atom  446 type  2   force =    -2.77167496   -0.21523686    3.53155246
     atom  447 type  2   force =    -2.77183775   -0.21539609    3.53160732
     atom  448 type  2   force =    -2.77191285   -0.21538062    3.53157809
     atom  449 type  3   force =    -1.65183251    0.26883532    1.78765904
     atom  450 type  3   force =    -1.65183474    0.26883800    1.78766153
     atom  451 type  3   force =    -1.65181851    0.26883421    1.78768844
     atom  452 type  3   force =    -1.65180665    0.26882088    1.78767794
     atom  453 type  3   force =    -1.65183213    0.26883002    1.78766565
     atom  454 type  3   force =    -1.65185543    0.26882877    1.78765270
     atom  455 type  3   force =    -1.65182459    0.26883752    1.78766704
     atom  456 type  3   force =    -1.65180454    0.26887633    1.78765119
     atom  457 type  1   force =    -6.86275003   -5.25695663    1.77948944
     atom  458 type  1   force =    -6.86279277   -5.25692482    1.77949478
     atom  459 type  1   force =    -6.86271942   -5.25691411    1.77955971
     atom  460 type  1   force =    -6.86256061   -5.25694966    1.77950673
     atom  461 type  1   force =    -6.86274690   -5.25695554    1.77949681
     atom  462 type  1   force =    -6.86284937   -5.25691292    1.77945894
     atom  463 type  1   force =    -6.86272676   -5.25692291    1.77953816
     atom  464 type  1   force =    -6.86237291   -5.25668376    1.77928650
     atom  465 type  2   force =    -4.86169836    5.12472918   -1.83984276
     atom  466 type  2   force =    -4.86161638    5.12457028   -1.83974167
     atom  467 type  2   force =    -4.86199580    5.12455674   -1.84019722
     atom  468 type  2   force =    -4.86163067    5.12456403   -1.83971952
     atom  469 type  2   force =    -4.86163071    5.12455239   -1.83970794
     atom  470 type  2   force =    -4.86160961    5.12452450   -1.83971151
     atom  471 type  2   force =    -4.86161132    5.12457161   -1.83973664
     atom  472 type  2   force =    -4.86162514    5.12458489   -1.83973453
     atom  473 type  3   force =     1.91363311   -1.67839322   -0.71626610
     atom  474 type  3   force =     1.91359756   -1.67845012   -0.71620712
     atom  475 type  3   force =     1.91356130   -1.67844788   -0.71622617
     atom  476 type  3   force =     1.91359416   -1.67845711   -0.71621313
     atom  477 type  3   force =     1.91361838   -1.67846189   -0.71620094
     atom  478 type  3   force =     1.91360071   -1.67845226   -0.71620087
     atom  479 type  3   force =     1.91358906   -1.67845083   -0.71621412
     atom  480 type  3   force =     1.91359371   -1.67845512   -0.71621396
     atom  481 type  4   force =    -0.00010117    0.00015695   -0.00007796
     atom  482 type  4   force =    -0.00003961    0.00012736   -0.00027139
     atom  483 type  4   force =     0.00023979   -0.00041437    0.00002003
     atom  484 type  4   force =    -0.00043016   -0.00012275    0.00090935
     atom  485 type  4   force =    -0.00008060   -0.00009030   -0.00002127
     atom  486 type  4   force =    -0.00054905   -0.00043007    0.00004459
     atom  487 type  4   force =     0.00008507    0.00011211    0.00000272
     atom  488 type  4   force =     0.00008828    0.00030156   -0.00019449
     atom  489 type  4   force =    -0.00002356    0.00018400   -0.00011610
     atom  490 type  4   force =     0.00010314    0.00004307    0.00001295
     atom  491 type  4   force =    -0.00011911   -0.00053452    0.00019994
     atom  492 type  4   force =    -0.00006949   -0.00003358    0.00000707
     atom  493 type  4   force =    -0.00031610    0.00012238    0.00032360
     atom  494 type  4   force =     0.00017311   -0.00064918   -0.00069174
     atom  495 type  4   force =     0.00006317    0.00004267   -0.00028841
     atom  496 type  4   force =    -0.00021199    0.00035297   -0.00004776
     The local contribution  to forces
     atom    1 type  1   force =    -0.30102828    2.09126623    3.09823051
     atom    2 type  1   force =    -0.30102410    2.09123617    3.09828641
     atom    3 type  1   force =    -0.30105609    2.09132019    3.09820539
     atom    4 type  1   force =    -0.30076278    2.09145698    3.09787338
     atom    5 type  1   force =    -0.30103329    2.09132177    3.09823096
     atom    6 type  1   force =    -0.30087798    2.09134707    3.09816877
     atom    7 type  1   force =    -0.30104531    2.09125823    3.09821992
     atom    8 type  1   force =    -0.30107092    2.09121751    3.09829156
     atom    9 type  1   force =   -12.38533493   -0.72455943   -1.18106991
     atom   10 type  1   force =   -12.38536161   -0.72451865   -1.18112590
     atom   11 type  1   force =   -12.38505934   -0.72381100   -1.18200997
     atom   12 type  1   force =   -12.38538100   -0.72448712   -1.18116337
     atom   13 type  1   force =   -12.38525841   -0.72448205   -1.18118223
     atom   14 type  1   force =   -12.38536025   -0.72445781   -1.18111436
     atom   15 type  1   force =   -12.38542244   -0.72455223   -1.18107704
     atom   16 type  1   force =   -12.38537030   -0.72455041   -1.18114705
     atom   17 type  2   force =     2.48458581    1.16468676    0.87014771
     atom   18 type  2   force =     2.48459948    1.16469414    0.87010461
     atom   19 type  2   force =     2.48469334    1.16476742    0.87006101
     atom   20 type  2   force =     2.48461084    1.16474954    0.87011774
     atom   21 type  2   force =     2.48513650    1.16485053    0.86993710
     atom   22 type  2   force =     2.48459036    1.16475014    0.87010861
     atom   23 type  2   force =     2.48462060    1.16466967    0.87018990
     atom   24 type  2   force =     2.48461085    1.16470086    0.87011510
     atom   25 type  2   force =     5.07230665    0.26997193    0.95427382
     atom   26 type  2   force =     5.07230859    0.26999391    0.95422784
     atom   27 type  2   force =     5.07244398    0.27013887    0.95410096
     atom   28 type  2   force =     5.07230541    0.27003505    0.95422453
     atom   29 type  2   force =     5.07251066    0.27005448    0.95404875
     atom   30 type  2   force =     5.07230102    0.27005202    0.95424028
     atom   31 type  2   force =     5.07229575    0.26996528    0.95430447
     atom   32 type  2   force =     5.07231048    0.26998481    0.95422769
     atom   33 type  2   force =     3.24354626    5.17626691   -2.48091803
     atom   34 type  2   force =     3.24249104    5.17666818   -2.48073333
     atom   35 type  2   force =     3.24254399    5.17659564   -2.48063561
     atom   36 type  2   force =     3.24252601    5.17662604   -2.48072898
     atom   37 type  2   force =     3.24249466    5.17661845   -2.48071284
     atom   38 type  2   force =     3.24249759    5.17661305   -2.48074774
     atom   39 type  2   force =     3.24255817    5.17667390   -2.48076231
     atom   40 type  2   force =     3.24252818    5.17666417   -2.48072280
     atom   41 type  3   force =     0.76530605    2.07342166   -1.25227222
     atom   42 type  3   force =     0.76523501    2.07350791   -1.25221474
     atom   43 type  3   force =     0.76524920    2.07349114   -1.25218926
     atom   44 type  3   force =     0.76524827    2.07349388   -1.25221962
     atom   45 type  3   force =     0.76524011    2.07349490   -1.25221597
     atom   46 type  3   force =     0.76523647    2.07349422   -1.25222495
     atom   47 type  3   force =     0.76524907    2.07350842   -1.25222666
     atom   48 type  3   force =     0.76524665    2.07350286   -1.25221702
     atom   49 type  2   force =     6.00221871    1.44711161   -0.62622699
     atom   50 type  2   force =     5.97993102    1.44596201   -0.61190000
     atom   51 type  2   force =     5.97998613    1.44590196   -0.61181106
     atom   52 type  2   force =     5.97994824    1.44594327   -0.61186612
     atom   53 type  2   force =     5.97990618    1.44593151   -0.61185569
     atom   54 type  2   force =     5.97993023    1.44591179   -0.61189187
     atom   55 type  2   force =     5.97998858    1.44596273   -0.61189398
     atom   56 type  2   force =     5.97995937    1.44599030   -0.61185843
     atom   57 type  3   force =     1.87740689   -0.02609872   -0.16975501
     atom   58 type  3   force =     1.90008920   -0.02513748   -0.18234483
     atom   59 type  3   force =     1.90010412   -0.02515235   -0.18232273
     atom   60 type  3   force =     1.90009313   -0.02514187   -0.18233575
     atom   61 type  3   force =     1.90008168   -0.02514480   -0.18233378
     atom   62 type  3   force =     1.90008821   -0.02515102   -0.18234242
     atom   63 type  3   force =     1.90010253   -0.02513723   -0.18234236
     atom   64 type  3   force =     1.90009677   -0.02512985   -0.18233371
     atom   65 type  1   force =     0.41632192   -1.47140792   -2.59180585
     atom   66 type  1   force =     0.41630393   -1.47137140   -2.59185670
     atom   67 type  1   force =     0.41644894   -1.47109382   -2.59202129
     atom   68 type  1   force =     0.41631378   -1.47134120   -2.59186423
     atom   69 type  1   force =     0.41645270   -1.47131841   -2.59194677
     atom   70 type  1   force =     0.41629292   -1.47128647   -2.59181369
     atom   71 type  1   force =     0.41627756   -1.47139352   -2.59176857
     atom   72 type  1   force =     0.41633009   -1.47140444   -2.59185769
     atom   73 type  1   force =   -12.39094996    4.13253045   -0.55441685
     atom   74 type  1   force =   -12.39098256    4.13257202   -0.55447091
     atom   75 type  1   force =   -12.39086932    4.13317593   -0.55503051
     atom   76 type  1   force =   -12.39098692    4.13259485   -0.55449623
     atom   77 type  1   force =   -12.39088191    4.13258361   -0.55451524
     atom   78 type  1   force =   -12.39097447    4.13264674   -0.55443393
     atom   79 type  1   force =   -12.39103427    4.13254826   -0.55441163
     atom   80 type  1   force =   -12.39099005    4.13252894   -0.55448762
     atom   81 type  2   force =     0.33926845   -2.77033666    3.52080403
     atom   82 type  2   force =     0.33929872   -2.77034092    3.52074850
     atom   83 type  2   force =     0.33938878   -2.77029418    3.52072205
     atom   84 type  2   force =     0.33930707   -2.77026577    3.52077556
     atom   85 type  2   force =     0.33969329   -2.76979467    3.52041264
     atom   86 type  2   force =     0.33929149   -2.77029016    3.52074316
     atom   87 type  2   force =     0.33932566   -2.77035268    3.52081527
     atom   88 type  2   force =     0.33930529   -2.77031499    3.52076398
     atom   89 type  3   force =    -0.22491019   -1.59175247    1.77778753
     atom   90 type  3   force =    -0.22492107   -1.59175314    1.77780748
     atom   91 type  3   force =    -0.22491177   -1.59173205    1.77779628
     atom   92 type  3   force =    -0.22487920   -1.59174238    1.77777865
     atom   93 type  3   force =    -0.22491284   -1.59173948    1.77778692
     atom   94 type  3   force =    -0.22487802   -1.59167873    1.77774404
     atom   95 type  3   force =    -0.22491164   -1.59174503    1.77779061
     atom   96 type  3   force =    -0.22490712   -1.59175294    1.77780093
     atom   97 type  1   force =     4.59011590   -5.13724310    1.62600790
     atom   98 type  1   force =     4.59007161   -5.13722074    1.62606544
     atom   99 type  1   force =     4.59014391   -5.13714284    1.62605501
     atom  100 type  1   force =     4.59020257   -5.13718510    1.62600013
     atom  101 type  1   force =     4.59011336   -5.13718372    1.62599985
     atom  102 type  1   force =     4.59000420   -5.13530069    1.62128995
     atom  103 type  1   force =     4.59013105   -5.13720036    1.62603744
     atom  104 type  1   force =     4.59017303   -5.13725104    1.62609792
     atom  105 type  2   force =    -5.09720530   -4.89908419   -1.83869726
     atom  106 type  2   force =    -5.09715801   -4.89894647   -1.83860712
     atom  107 type  2   force =    -5.09708640   -4.89894112   -1.83855623
     atom  108 type  2   force =    -5.09711027   -4.89894525   -1.83861007
     atom  109 type  2   force =    -5.09716296   -4.89893827   -1.83860668
     atom  110 type  2   force =    -5.09721756   -4.89913247   -1.83874363
     atom  111 type  2   force =    -5.09710874   -4.89894996   -1.83860702
     atom  112 type  2   force =    -5.09708531   -4.89894753   -1.83854414
     atom  113 type  3   force =     1.62772178    1.85891912   -0.71045271
     atom  114 type  3   force =     1.62766927    1.85947040   -0.71018479
     atom  115 type  3   force =     1.62768774    1.85945758   -0.71016169
     atom  116 type  3   force =     1.62767768    1.85946443   -0.71017929
     atom  117 type  3   force =     1.62766567    1.85946341   -0.71017805
     atom  118 type  3   force =     1.62766816    1.85945422   -0.71018804
     atom  119 type  3   force =     1.62768352    1.85946963   -0.71018418
     atom  120 type  3   force =     1.62768071    1.85947370   -0.71017487
     atom  121 type  1   force =     0.30107958   -2.09134584    3.09821994
     atom  122 type  1   force =     0.30102615   -2.09129792    3.09832182
     atom  123 type  1   force =     0.30099057   -2.09119568    3.09830713
     atom  124 type  1   force =     0.30118234   -2.09139842    3.09811496
     atom  125 type  1   force =     0.30105725   -2.09127714    3.09822319
     atom  126 type  1   force =     0.30107295   -2.09120979    3.09816810
     atom  127 type  1   force =     0.30100714   -2.09129210    3.09820494
     atom  128 type  1   force =     0.30104089   -2.09131688    3.09824133
     atom  129 type  1   force =    12.38541901    0.72440725   -1.18115346
     atom  130 type  1   force =    12.38533317    0.72450135   -1.18104601
     atom  131 type  1   force =    12.38536254    0.72459225   -1.18100947
     atom  132 type  1   force =    12.38545128    0.72445020   -1.18118373
     atom  133 type  1   force =    12.38537638    0.72450767   -1.18114292
     atom  134 type  1   force =    12.38535024    0.72462459   -1.18124201
     atom  135 type  1   force =    12.38535472    0.72451000   -1.18114959
     atom  136 type  1   force =    12.38538919    0.72447518   -1.18111145
     atom  137 type  2   force =    -2.48457352   -1.16474006    0.87010956
     atom  138 type  2   force =    -2.48457208   -1.16472790    0.87022104
     atom  139 type  2   force =    -2.48464730   -1.16469217    0.87013704
     atom  140 type  2   force =    -2.48449334   -1.16496411    0.86997797
     atom  141 type  2   force =    -2.48458003   -1.16471554    0.87013241
     atom  142 type  2   force =    -2.48458762   -1.16469954    0.87009700
     atom  143 type  2   force =    -2.48465465   -1.16474510    0.87006859
     atom  144 type  2   force =    -2.48461650   -1.16473246    0.87011598
     atom  145 type  2   force =    -5.07226634   -0.27005150    0.95421773
     atom  146 type  2   force =    -5.07230748   -0.27001218    0.95434564
     atom  147 type  2   force =    -5.07234821   -0.26997234    0.95429146
     atom  148 type  2   force =    -5.07224336   -0.27014865    0.95415120
     atom  149 type  2   force =    -5.07229176   -0.27001288    0.95423921
     atom  150 type  2   force =    -5.07230604   -0.26997866    0.95420171
     atom  151 type  2   force =    -5.07234070   -0.27001392    0.95419651
     atom  152 type  2   force =    -5.07230496   -0.27002824    0.95423713
     atom  153 type  2   force =    -3.24247667   -5.17664283   -2.48069630
     atom  154 type  2   force =    -3.24250044   -5.17663267   -2.48073692
     atom  155 type  2   force =    -3.24262932   -5.17670321   -2.48082305
     atom  156 type  2   force =    -3.24252773   -5.17664484   -2.48073607
     atom  157 type  2   force =    -3.24247995   -5.17665149   -2.48073551
     atom  158 type  2   force =    -3.24247469   -5.17662938   -2.48064727
     atom  159 type  2   force =    -3.24256146   -5.17662598   -2.48071072
     atom  160 type  2   force =    -3.24251121   -5.17682212   -2.48083384
     atom  161 type  3   force =    -0.76523301   -2.07350296   -1.25220980
     atom  162 type  3   force =    -0.76524087   -2.07349818   -1.25221962
     atom  163 type  3   force =    -0.76529232   -2.07351210   -1.25225708
     atom  164 type  3   force =    -0.76524540   -2.07349957   -1.25222140
     atom  165 type  3   force =    -0.76523090   -2.07350285   -1.25222152
     atom  166 type  3   force =    -0.76523532   -2.07349226   -1.25220088
     atom  167 type  3   force =    -0.76525719   -2.07349806   -1.25220931
     atom  168 type  3   force =    -0.76524023   -2.07352872   -1.25223460
     atom  169 type  2   force =    -5.97997791   -1.44603621   -0.61192273
     atom  170 type  2   force =    -5.97997573   -1.44595760   -0.61186559
     atom  171 type  2   force =    -5.97990696   -1.44592461   -0.61183325
     atom  172 type  2   force =    -5.97991291   -1.44594806   -0.61188489
     atom  173 type  2   force =    -5.97996258   -1.44594220   -0.61188898
     atom  174 type  2   force =    -5.98013535   -1.44645122   -0.61226521
     atom  175 type  2   force =    -5.97992787   -1.44595499   -0.61187225
     atom  176 type  2   force =    -5.97989321   -1.44597158   -0.61181383
     atom  177 type  3   force =    -1.90009340    0.02511690   -0.18234799
     atom  178 type  3   force =    -1.90010387    0.02513846   -0.18233257
     atom  179 type  3   force =    -1.90008381    0.02514941   -0.18232549
     atom  180 type  3   force =    -1.90007998    0.02513898   -0.18234138
     atom  181 type  3   force =    -1.90009488    0.02514122   -0.18234249
     atom  182 type  3   force =    -1.90022156    0.02509395   -0.18244370
     atom  183 type  3   force =    -1.90008897    0.02513968   -0.18233742
     atom  184 type  3   force =    -1.90008043    0.02513365   -0.18232620
     atom  185 type  1   force =    -0.41623480    1.47128946   -2.59190082
     atom  186 type  1   force =    -0.41633826    1.47140084   -2.59169857
     atom  187 type  1   force =    -0.41633974    1.47138077   -2.59175378
     atom  188 type  1   force =    -0.41622850    1.47127231   -2.59190264
     atom  189 type  1   force =    -0.41629699    1.47134220   -2.59184239
     atom  190 type  1   force =    -0.41633399    1.47137901   -2.59188857
     atom  191 type  1   force =    -0.41633881    1.47139450   -2.59189834
     atom  192 type  1   force =    -0.41629638    1.47134742   -2.59184787
     atom  193 type  1   force =    12.39106770   -4.13270323   -0.55453213
     atom  194 type  1   force =    12.39092424   -4.13255499   -0.55436784
     atom  195 type  1   force =    12.39098106   -4.13254660   -0.55434594
     atom  196 type  1   force =    12.39104981   -4.13263197   -0.55450964
     atom  197 type  1   force =    12.39098633   -4.13259185   -0.55447540
     atom  198 type  1   force =    12.39093524   -4.13255785   -0.55453937
     atom  199 type  1   force =    12.39097692   -4.13255998   -0.55449857
     atom  200 type  1   force =    12.39100462   -4.13259493   -0.55445849
     atom  201 type  2   force =    -0.33928240    2.77029141    3.52076238
     atom  202 type  2   force =    -0.33925681    2.77027166    3.52085674
     atom  203 type  2   force =    -0.33932749    2.77032919    3.52075702
     atom  204 type  2   force =    -0.33888496    2.76951253    3.52038942
     atom  205 type  2   force =    -0.33927920    2.77032479    3.52077563
     atom  206 type  2   force =    -0.33927272    2.77032344    3.52074025
     atom  207 type  2   force =    -0.33932708    2.77027143    3.52073252
     atom  208 type  2   force =    -0.33931962    2.77029083    3.52076901
     atom  209 type  3   force =     0.22491504    1.59173843    1.77779103
     atom  210 type  3   force =     0.22492070    1.59173065    1.77781496
     atom  211 type  3   force =     0.22490662    1.59174935    1.77778929
     atom  212 type  3   force =     0.22515126    1.59161057    1.77770810
     atom  213 type  3   force =     0.22491538    1.59174901    1.77779264
     atom  214 type  3   force =     0.22492183    1.59175021    1.77778288
     atom  215 type  3   force =     0.22490715    1.59173499    1.77778584
     atom  216 type  3   force =     0.22490672    1.59173734    1.77779453
     atom  217 type  1   force =    -4.59010891    5.13718485    1.62603558
     atom  218 type  1   force =    -4.59006044    5.13715257    1.62612204
     atom  219 type  1   force =    -4.59014900    5.13721130    1.62600805
     atom  220 type  1   force =    -4.59022189    5.13524131    1.62500032
     atom  221 type  1   force =    -4.59009211    5.13723005    1.62605859
     atom  222 type  1   force =    -4.59008198    5.13720386    1.62601110
     atom  223 type  1   force =    -4.59015812    5.13713266    1.62599133
     atom  224 type  1   force =    -4.59016435    5.13717884    1.62604057
     atom  225 type  2   force =     5.09948859    4.89544734   -1.84084763
     atom  226 type  2   force =     5.09711228    4.89896511   -1.83862299
     atom  227 type  2   force =     5.09717725    4.89890175   -1.83852761
     atom  228 type  2   force =     5.09714181    4.89893470   -1.83859865
     atom  229 type  2   force =     5.09710058    4.89893008   -1.83859134
     atom  230 type  2   force =     5.09712145    4.89891589   -1.83862658
     atom  231 type  2   force =     5.09717409    4.89896199   -1.83862459
     atom  232 type  2   force =     5.09715090    4.89897746   -1.83859024
     atom  233 type  3   force =    -1.62769491   -1.85954171   -0.71021698
     atom  234 type  3   force =    -1.62768204   -1.85946474   -0.71018115
     atom  235 type  3   force =    -1.62766097   -1.85946674   -0.71016343
     atom  236 type  3   force =    -1.62766904   -1.85946784   -0.71018116
     atom  237 type  3   force =    -1.62768181   -1.85946628   -0.71018094
     atom  238 type  3   force =    -1.62769246   -1.85950153   -0.71020398
     atom  239 type  3   force =    -1.62766851   -1.85946625   -0.71018190
     atom  240 type  3   force =    -1.62766412   -1.85946460   -0.71016975
     atom  241 type  1   force =     2.09130801    0.30099390   -3.09819251
     atom  242 type  1   force =     2.09128244    0.30101734   -3.09818467
     atom  243 type  1   force =     2.09124095    0.30119220   -3.09823378
     atom  244 type  1   force =     2.09130902    0.30106084   -3.09828718
     atom  245 type  1   force =     2.09130343    0.30104803   -3.09822678
     atom  246 type  1   force =     2.09152164    0.30123678   -3.09809804
     atom  247 type  1   force =     2.09126834    0.30102468   -3.09820578
     atom  248 type  1   force =     2.09129844    0.30091988   -3.09816500
     atom  249 type  1   force =    -0.72449086   12.38534338    1.18115702
     atom  250 type  1   force =    -0.72451001   12.38535340    1.18116503
     atom  251 type  1   force =    -0.72453635   12.38544494    1.18110694
     atom  252 type  1   force =    -0.72448997   12.38539193    1.18108432
     atom  253 type  1   force =    -0.72449431   12.38537734    1.18113500
     atom  254 type  1   force =    -0.72409831   12.38549898    1.18143364
     atom  255 type  1   force =    -0.72451634   12.38536045    1.18115353
     atom  256 type  1   force =    -0.72447575   12.38518739    1.18125612
     atom  257 type  2   force =     1.16475600   -2.48467933   -0.87006775
     atom  258 type  2   force =     1.16471262   -2.48461263   -0.87008622
     atom  259 type  2   force =     1.16483544   -2.48418142   -0.86982571
     atom  260 type  2   force =     1.16473625   -2.48460362   -0.87013830
     atom  261 type  2   force =     1.16474285   -2.48459515   -0.87012666
     atom  262 type  2   force =     1.16474764   -2.48449348   -0.87009196
     atom  263 type  2   force =     1.16470265   -2.48461450   -0.87009412
     atom  264 type  2   force =     1.16472645   -2.48465065   -0.87009353
     atom  265 type  2   force =     0.27003612   -5.07235590   -0.95419969
     atom  266 type  2   force =     0.27000345   -5.07231902   -0.95420385
     atom  267 type  2   force =     0.27000256   -5.07209136   -0.95420392
     atom  268 type  2   force =     0.27003004   -5.07230112   -0.95426082
     atom  269 type  2   force =     0.27003253   -5.07230218   -0.95424235
     atom  270 type  2   force =     0.27011412   -5.07212831   -0.95412750
     atom  271 type  2   force =     0.26999776   -5.07231462   -0.95420898
     atom  272 type  2   force =     0.27002795   -5.07238293   -0.95419577
     atom  273 type  2   force =     5.17667334   -3.24262925    2.48079605
     atom  274 type  2   force =     5.17663076   -3.24252039    2.48075155
     atom  275 type  2   force =     5.17690955   -3.24230200    2.48102334
     atom  276 type  2   force =     5.17665521   -3.24251120    2.48072099
     atom  277 type  2   force =     5.17665384   -3.24249938    2.48070591
     atom  278 type  2   force =     5.17663113   -3.24241948    2.48071870
     atom  279 type  2   force =     5.17663272   -3.24252278    2.48075185
     atom  280 type  2   force =     5.17664946   -3.24254483    2.48075109
     atom  281 type  3   force =     2.07350064   -0.76527219    1.25223233
     atom  282 type  3   force =     2.07349529   -0.76524590    1.25222294
     atom  283 type  3   force =     2.07354419   -0.76520760    1.25225226
     atom  284 type  3   force =     2.07350405   -0.76524087    1.25221801
     atom  285 type  3   force =     2.07350075   -0.76523791    1.25220835
     atom  286 type  3   force =     2.07348764   -0.76521236    1.25221077
     atom  287 type  3   force =     2.07349956   -0.76524589    1.25222561
     atom  288 type  3   force =     2.07350354   -0.76525125    1.25222561
     atom  289 type  2   force =     1.44605611   -5.98005174    0.61197554
     atom  290 type  2   force =     1.44595003   -5.97994244    0.61189880
     atom  291 type  2   force =     1.44619503   -5.98014699    0.61277346
     atom  292 type  2   force =     1.44595646   -5.97994580    0.61186446
     atom  293 type  2   force =     1.44597106   -5.97993894    0.61187480
     atom  294 type  2   force =     1.44595481   -5.97991036    0.61187911
     atom  295 type  2   force =     1.44592521   -5.97994018    0.61187981
     atom  296 type  2   force =     1.44594798   -5.97996006    0.61187660
     atom  297 type  3   force =    -0.02510239   -1.90011587    0.18236945
     atom  298 type  3   force =    -0.02513921   -1.90009022    0.18234297
     atom  299 type  3   force =    -0.02511927   -1.90018694    0.18248676
     atom  300 type  3   force =    -0.02514000   -1.90009371    0.18233714
     atom  301 type  3   force =    -0.02513543   -1.90009109    0.18233984
     atom  302 type  3   force =    -0.02513896   -1.90008813    0.18234077
     atom  303 type  3   force =    -0.02514748   -1.90008999    0.18233690
     atom  304 type  3   force =    -0.02514215   -1.90009403    0.18233591
     atom  305 type  1   force =    -1.47134025   -0.41635659    2.59188558
     atom  306 type  1   force =    -1.47137279   -0.41632243    2.59187172
     atom  307 type  1   force =    -1.47136618   -0.41613421    2.59183368
     atom  308 type  1   force =    -1.47133994   -0.41629789    2.59183565
     atom  309 type  1   force =    -1.47132725   -0.41631300    2.59182712
     atom  310 type  1   force =    -1.47123382   -0.41605099    2.59214146
     atom  311 type  1   force =    -1.47137154   -0.41631692    2.59189106
     atom  312 type  1   force =    -1.47131236   -0.41643343    2.59189511
     atom  313 type  1   force =     4.13259516   12.39095517    0.55449515
     atom  314 type  1   force =     4.13256803   12.39097800    0.55449150
     atom  315 type  1   force =     4.13255711   12.39106663    0.55445022
     atom  316 type  1   force =     4.13259607   12.39099551    0.55445532
     atom  317 type  1   force =     4.13260115   12.39098310    0.55446166
     atom  318 type  1   force =     4.13286986   12.39112148    0.55497645
     atom  319 type  1   force =     4.13257095   12.39097987    0.55450407
     atom  320 type  1   force =     4.13266578   12.39080972    0.55456345
     atom  321 type  2   force =    -2.77025742   -0.33936481   -3.52070962
     atom  322 type  2   force =    -2.77030551   -0.33930572   -3.52072774
     atom  323 type  2   force =    -2.77044305   -0.33865535   -3.52013227
     atom  324 type  2   force =    -2.77029545   -0.33930320   -3.52079674
     atom  325 type  2   force =    -2.77027481   -0.33928952   -3.52076192
     atom  326 type  2   force =    -2.77027918   -0.33923369   -3.52074298
     atom  327 type  2   force =    -2.77033782   -0.33931369   -3.52074497
     atom  328 type  2   force =    -2.77030911   -0.33934209   -3.52074934
     atom  329 type  3   force =    -1.59173273    0.22489975   -1.77777877
     atom  330 type  3   force =    -1.59174070    0.22490885   -1.77778181
     atom  331 type  3   force =    -1.59183012    0.22504982   -1.77777318
     atom  332 type  3   force =    -1.59174341    0.22491421   -1.77780450
     atom  333 type  3   force =    -1.59173372    0.22491497   -1.77778984
     atom  334 type  3   force =    -1.59173272    0.22492716   -1.77778482
     atom  335 type  3   force =    -1.59175150    0.22490632   -1.77778648
     atom  336 type  3   force =    -1.59174554    0.22489824   -1.77778756
     atom  337 type  1   force =    -5.13710612   -4.59021603   -1.62595015
     atom  338 type  1   force =    -5.13719088   -4.59012720   -1.62599005
     atom  339 type  1   force =    -5.13748239   -4.58986695   -1.62445640
     atom  340 type  1   force =    -5.13718953   -4.59013298   -1.62606181
     atom  341 type  1   force =    -5.13715443   -4.59011881   -1.62602433
     atom  342 type  1   force =    -5.13717964   -4.59007235   -1.62601572
     atom  343 type  1   force =    -5.13723990   -4.59013522   -1.62601537
     atom  344 type  1   force =    -5.13719684   -4.59016155   -1.62602413
     atom  345 type  2   force =    -4.89919711    5.09698521    1.83882998
     atom  346 type  2   force =    -4.89894885    5.09711159    1.83858938
     atom  347 type  2   force =    -4.89884915    5.09710099    1.83865200
     atom  348 type  2   force =    -4.89893999    5.09714311    1.83863123
     atom  349 type  2   force =    -4.89908114    5.09713370    1.83860056
     atom  350 type  2   force =    -4.89896070    5.09711820    1.83858695
     atom  351 type  2   force =    -4.89890553    5.09711845    1.83862980
     atom  352 type  2   force =    -4.89893594    5.09714295    1.83862676
     atom  353 type  3   force =     1.85948512   -1.62773379    0.71023195
     atom  354 type  3   force =     1.85946598   -1.62767631    0.71018315
     atom  355 type  3   force =     1.85953682   -1.62769184    0.71024498
     atom  356 type  3   force =     1.85946852   -1.62767319    0.71018235
     atom  357 type  3   force =     1.85946471   -1.62767051    0.71017623
     atom  358 type  3   force =     1.85946292   -1.62766956    0.71017678
     atom  359 type  3   force =     1.85946730   -1.62767547    0.71018377
     atom  360 type  3   force =     1.85946795   -1.62767639    0.71018372
     atom  361 type  1   force =    -2.09126012   -0.30106622   -3.09817992
     atom  362 type  1   force =    -2.09125945   -0.30107083   -3.09817099
     atom  363 type  1   force =    -2.09135766   -0.30095629   -3.09832401
     atom  364 type  1   force =    -2.09136764   -0.30093075   -3.09846352
     atom  365 type  1   force =    -2.09124649   -0.30100175   -3.09820911
     atom  366 type  1   force =    -2.09122058   -0.30099986   -3.09821166
     atom  367 type  1   force =    -2.09131378   -0.30108074   -3.09821248
     atom  368 type  1   force =    -2.09132613   -0.30109651   -3.09819880
     atom  369 type  1   force =     0.72438478  -12.38525029    1.18102809
     atom  370 type  1   force =     0.72445320  -12.38535003    1.18094567
     atom  371 type  1   force =     0.72453578  -12.38540181    1.18117853
     atom  372 type  1   force =     0.72453153  -12.38539042    1.18119001
     atom  373 type  1   force =     0.72445275  -12.38542916    1.18114924
     atom  374 type  1   force =     0.72447654  -12.38540922    1.18115029
     atom  375 type  1   force =     0.72456915  -12.38533295    1.18115901
     atom  376 type  1   force =     0.72454952  -12.38533568    1.18114632
     atom  377 type  2   force =    -1.16472398    2.48458780   -0.87017407
     atom  378 type  2   force =    -1.16503216    2.48470175   -0.87001498
     atom  379 type  2   force =    -1.16470983    2.48460435   -0.87007484
     atom  380 type  2   force =    -1.16466752    2.48456967   -0.87007829
     atom  381 type  2   force =    -1.16473049    2.48458330   -0.87011412
     atom  382 type  2   force =    -1.16481070    2.48454705   -0.87009461
     atom  383 type  2   force =    -1.16470244    2.48462959   -0.87010052
     atom  384 type  2   force =    -1.16466232    2.48461020   -0.87009147
     atom  385 type  2   force =    -0.27002257    5.07231235   -0.95432727
     atom  386 type  2   force =    -0.27025340    5.07247566   -0.95425840
     atom  387 type  2   force =    -0.26999985    5.07229662   -0.95418877
     atom  388 type  2   force =    -0.26997417    5.07227379   -0.95419324
     atom  389 type  2   force =    -0.27002898    5.07227748   -0.95422325
     atom  390 type  2   force =    -0.27006332    5.07226453   -0.95421458
     atom  391 type  2   force =    -0.26998113    5.07234424   -0.95421858
     atom  392 type  2   force =    -0.26996472    5.07232471   -0.95421664
     atom  393 type  2   force =    -5.17663862    3.24249590    2.48069864
     atom  394 type  2   force =    -5.17698536    3.24247616    2.48115797
     atom  395 type  2   force =    -5.17663512    3.24251903    2.48076363
     atom  396 type  2   force =    -5.17656171    3.24246190    2.48077681
     atom  397 type  2   force =    -5.17664909    3.24249388    2.48072390
     atom  398 type  2   force =    -5.17672876    3.24249137    2.48073505
     atom  399 type  2   force =    -5.17662916    3.24253739    2.48074484
     atom  400 type  2   force =    -5.17659939    3.24251158    2.48074717
     atom  401 type  3   force =    -2.07349741    0.76523993    1.25221223
     atom  402 type  3   force =    -2.07356798    0.76523183    1.25242720
     atom  403 type  3   force =    -2.07349900    0.76524331    1.25222671
     atom  404 type  3   force =    -2.07347622    0.76522446    1.25223379
     atom  405 type  3   force =    -2.07350140    0.76523648    1.25221858
     atom  406 type  3   force =    -2.07351246    0.76524101    1.25221955
     atom  407 type  3   force =    -2.07349684    0.76525118    1.25222113
     atom  408 type  3   force =    -2.07349194    0.76524306    1.25222079
     atom  409 type  2   force =    -1.44611016    5.97989817    0.61193988
     atom  410 type  2   force =    -1.44595815    5.97992133    0.61185984
     atom  411 type  2   force =    -1.44588401    5.97992656    0.61190366
     atom  412 type  2   force =    -1.44594025    5.97995703    0.61189882
     atom  413 type  2   force =    -1.44625120    5.97989201    0.61196029
     atom  414 type  2   force =    -1.44595912    5.97992779    0.61185152
     atom  415 type  2   force =    -1.44588925    5.97991799    0.61191208
     atom  416 type  2   force =    -1.44594062    5.97995100    0.61190165
     atom  417 type  3   force =     0.02511149    1.90007752    0.18234767
     atom  418 type  3   force =     0.02513772    1.90008468    0.18233675
     atom  419 type  3   force =     0.02515639    1.90009108    0.18234394
     atom  420 type  3   force =     0.02514352    1.90009767    0.18234270
     atom  421 type  3   force =     0.02503740    1.90010825    0.18236958
     atom  422 type  3   force =     0.02513791    1.90008850    0.18232860
     atom  423 type  3   force =     0.02515419    1.90008334    0.18234839
     atom  424 type  3   force =     0.02514247    1.90009124    0.18234618
     atom  425 type  1   force =     1.47138305    0.41630927    2.59171188
     atom  426 type  1   force =     1.47116204    0.41654024    2.59189535
     atom  427 type  1   force =     1.47136671    0.41629124    2.59191292
     atom  428 type  1   force =     1.47139356    0.41626392    2.59188559
     atom  429 type  1   force =     1.47133675    0.41625704    2.59187389
     atom  430 type  1   force =     1.47131682    0.41627683    2.59186404
     atom  431 type  1   force =     1.47141781    0.41638272    2.59186585
     atom  432 type  1   force =     1.47139266    0.41632692    2.59186233
     atom  433 type  1   force =    -4.13260615  -12.39091622    0.55431152
     atom  434 type  1   force =    -4.13270368  -12.39086381    0.55436767
     atom  435 type  1   force =    -4.13256186  -12.39101062    0.55452812
     atom  436 type  1   force =    -4.13255080  -12.39101694    0.55451884
     atom  437 type  1   force =    -4.13261805  -12.39105819    0.55450899
     atom  438 type  1   force =    -4.13261013  -12.39101776    0.55448671
     atom  439 type  1   force =    -4.13249403  -12.39092464    0.55450022
     atom  440 type  1   force =    -4.13255034  -12.39096099    0.55448479
     atom  441 type  2   force =     2.77028723    0.33928220   -3.52081590
     atom  442 type  2   force =     2.77015768    0.33934752   -3.52076907
     atom  443 type  2   force =     2.77031997    0.33930308   -3.52072456
     atom  444 type  2   force =     2.77034412    0.33927779   -3.52073148
     atom  445 type  2   force =     2.77029532    0.33928478   -3.52076167
     atom  446 type  2   force =     2.77016831    0.33915277   -3.52069408
     atom  447 type  2   force =     2.77031887    0.33931677   -3.52074523
     atom  448 type  2   force =     2.77039179    0.33930450   -3.52071632
     atom  449 type  3   force =     1.59174751   -0.22491349   -1.77778152
     atom  450 type  3   force =     1.59174907   -0.22491602   -1.77778389
     atom  451 type  3   force =     1.59173313   -0.22491225   -1.77781028
     atom  452 type  3   force =     1.59172141   -0.22489917   -1.77780021
     atom  453 type  3   force =     1.59174662   -0.22490812   -1.77778790
     atom  454 type  3   force =     1.59177017   -0.22490710   -1.77777526
     atom  455 type  3   force =     1.59173952   -0.22491572   -1.77778940
     atom  456 type  3   force =     1.59171940   -0.22495385   -1.77777448
     atom  457 type  1   force =     5.13720951    4.59013874   -1.62599461
     atom  458 type  1   force =     5.13724587    4.59010479   -1.62599986
     atom  459 type  1   force =     5.13717907    4.59009748   -1.62606401
     atom  460 type  1   force =     5.13704716    4.59013856   -1.62601310
     atom  461 type  1   force =     5.13720422    4.59013874   -1.62600153
     atom  462 type  1   force =     5.13730698    4.59009502   -1.62596455
     atom  463 type  1   force =     5.13718635    4.59010572   -1.62604280
     atom  464 type  1   force =     5.13686584    4.58986935   -1.62579453
     atom  465 type  2   force =     4.89901301   -5.09728451    1.83872294
     atom  466 type  2   force =     4.89894002   -5.09713504    1.83862341
     atom  467 type  2   force =     4.89931032   -5.09712621    1.83906189
     atom  468 type  2   force =     4.89895639   -5.09712933    1.83860254
     atom  469 type  2   force =     4.89895425   -5.09711841    1.83859053
     atom  470 type  2   force =     4.89894004   -5.09709283    1.83859534
     atom  471 type  2   force =     4.89893990   -5.09713624    1.83861839
     atom  472 type  2   force =     4.89894794   -5.09714772    1.83861657
     atom  473 type  3   force =    -1.85950380    1.62761440    0.71023747
     atom  474 type  3   force =    -1.85946813    1.62767057    0.71017941
     atom  475 type  3   force =    -1.85943221    1.62766809    0.71019834
     atom  476 type  3   force =    -1.85946467    1.62767713    0.71018544
     atom  477 type  3   force =    -1.85948937    1.62768239    0.71017350
     atom  478 type  3   force =    -1.85947091    1.62767244    0.71017384
     atom  479 type  3   force =    -1.85945940    1.62767091    0.71018635
     atom  480 type  3   force =    -1.85946436    1.62767564    0.71018630
     atom  481 type  4   force =     0.00009659   -0.00015308    0.00008618
     atom  482 type  4   force =     0.00002800   -0.00011786    0.00024490
     atom  483 type  4   force =    -0.00022621    0.00041019   -0.00001492
     atom  484 type  4   force =     0.00045019    0.00004248   -0.00083586
     atom  485 type  4   force =     0.00007970    0.00008259    0.00001507
     atom  486 type  4   force =     0.00051231    0.00039838   -0.00004654
     atom  487 type  4   force =    -0.00008626   -0.00008938    0.00000720
     atom  488 type  4   force =    -0.00006720   -0.00029296    0.00016796
     atom  489 type  4   force =     0.00002332   -0.00017704    0.00011522
     atom  490 type  4   force =    -0.00009590   -0.00004658   -0.00001441
     atom  491 type  4   force =     0.00011493    0.00053710   -0.00018057
     atom  492 type  4   force =     0.00006557    0.00003427   -0.00001030
     atom  493 type  4   force =     0.00032032   -0.00010486   -0.00032088
     atom  494 type  4   force =    -0.00017326    0.00062891    0.00065487
     atom  495 type  4   force =    -0.00006358   -0.00004224    0.00027938
     atom  496 type  4   force =     0.00019403   -0.00029958    0.00001255
     The core correction contribution to forces
     atom    1 type  1   force =    -0.00311520    0.00438518    0.00260960
     atom    2 type  1   force =    -0.00311522    0.00438516    0.00260956
     atom    3 type  1   force =    -0.00311521    0.00438516    0.00260957
     atom    4 type  1   force =    -0.00311489    0.00438492    0.00260946
     atom    5 type  1   force =    -0.00311520    0.00438513    0.00260956
     atom    6 type  1   force =    -0.00311541    0.00438525    0.00260957
     atom    7 type  1   force =    -0.00311526    0.00438526    0.00260964
     atom    8 type  1   force =    -0.00311519    0.00438515    0.00260954
     atom    9 type  1   force =     0.01340069    0.00481507    0.00489606
     atom   10 type  1   force =     0.01340072    0.00481510    0.00489608
     atom   11 type  1   force =     0.01340081    0.00481516    0.00489636
     atom   12 type  1   force =     0.01340071    0.00481509    0.00489606
     atom   13 type  1   force =     0.01340069    0.00481513    0.00489593
     atom   14 type  1   force =     0.01340069    0.00481506    0.00489604
     atom   15 type  1   force =     0.01340073    0.00481508    0.00489607
     atom   16 type  1   force =     0.01340075    0.00481515    0.00489612
     atom   17 type  2   force =    -0.00643123    0.00179769    0.00006800
     atom   18 type  2   force =    -0.00643116    0.00179769    0.00006802
     atom   19 type  2   force =    -0.00643107    0.00179759    0.00006801
     atom   20 type  2   force =    -0.00643120    0.00179764    0.00006802
     atom   21 type  2   force =    -0.00643153    0.00179882    0.00007093
     atom   22 type  2   force =    -0.00643121    0.00179764    0.00006802
     atom   23 type  2   force =    -0.00643122    0.00179769    0.00006797
     atom   24 type  2   force =    -0.00643124    0.00179770    0.00006803
     atom   25 type  2   force =     0.00302126   -0.00019482    0.00027354
     atom   26 type  2   force =     0.00302131   -0.00019477    0.00027353
     atom   27 type  2   force =     0.00302124   -0.00019475    0.00027338
     atom   28 type  2   force =     0.00302129   -0.00019479    0.00027351
     atom   29 type  2   force =     0.00302119   -0.00019440    0.00027249
     atom   30 type  2   force =     0.00302131   -0.00019483    0.00027350
     atom   31 type  2   force =     0.00302131   -0.00019482    0.00027352
     atom   32 type  2   force =     0.00302121   -0.00019474    0.00027356
     atom   33 type  2   force =    -0.00233285    0.00277813    0.00033024
     atom   34 type  2   force =    -0.00233792    0.00277911    0.00032850
     atom   35 type  2   force =    -0.00233801    0.00277924    0.00032842
     atom   36 type  2   force =    -0.00233799    0.00277926    0.00032851
     atom   37 type  2   force =    -0.00233797    0.00277920    0.00032850
     atom   38 type  2   force =    -0.00233789    0.00277921    0.00032853
     atom   39 type  2   force =    -0.00233791    0.00277915    0.00032851
     atom   40 type  2   force =    -0.00233795    0.00277917    0.00032851
     atom   41 type  3   force =     0.00000000    0.00000000    0.00000000
     atom   42 type  3   force =     0.00000000    0.00000000    0.00000000
     atom   43 type  3   force =     0.00000000    0.00000000    0.00000000
     atom   44 type  3   force =     0.00000000    0.00000000    0.00000000
     atom   45 type  3   force =     0.00000000    0.00000000    0.00000000
     atom   46 type  3   force =     0.00000000    0.00000000    0.00000000
     atom   47 type  3   force =     0.00000000    0.00000000    0.00000000
     atom   48 type  3   force =     0.00000000    0.00000000    0.00000000
     atom   49 type  2   force =     0.00119555   -0.00163353    0.00031411
     atom   50 type  2   force =     0.00087748   -0.00157220    0.00038513
     atom   51 type  2   force =     0.00087743   -0.00157217    0.00038514
     atom   52 type  2   force =     0.00087744   -0.00157215    0.00038512
     atom   53 type  2   force =     0.00087750   -0.00157216    0.00038514
     atom   54 type  2   force =     0.00087747   -0.00157209    0.00038512
     atom   55 type  2   force =     0.00087740   -0.00157219    0.00038512
     atom   56 type  2   force =     0.00087745   -0.00157218    0.00038514
     atom   57 type  3   force =     0.00000000    0.00000000    0.00000000
     atom   58 type  3   force =     0.00000000    0.00000000    0.00000000
     atom   59 type  3   force =     0.00000000    0.00000000    0.00000000
     atom   60 type  3   force =     0.00000000    0.00000000    0.00000000
     atom   61 type  3   force =     0.00000000    0.00000000    0.00000000
     atom   62 type  3   force =     0.00000000    0.00000000    0.00000000
     atom   63 type  3   force =     0.00000000    0.00000000    0.00000000
     atom   64 type  3   force =     0.00000000    0.00000000    0.00000000
     atom   65 type  1   force =    -0.00325625   -0.00412430   -0.00297491
     atom   66 type  1   force =    -0.00325623   -0.00412430   -0.00297490
     atom   67 type  1   force =    -0.00325600   -0.00412422   -0.00297492
     atom   68 type  1   force =    -0.00325624   -0.00412432   -0.00297491
     atom   69 type  1   force =    -0.00325645   -0.00412381   -0.00297500
     atom   70 type  1   force =    -0.00325627   -0.00412439   -0.00297496
     atom   71 type  1   force =    -0.00325623   -0.00412432   -0.00297491
     atom   72 type  1   force =    -0.00325623   -0.00412419   -0.00297486
     atom   73 type  1   force =     0.01284246   -0.00666364   -0.00256026
     atom   74 type  1   force =     0.01284249   -0.00666365   -0.00256027
     atom   75 type  1   force =     0.01284294   -0.00666399   -0.00256068
     atom   76 type  1   force =     0.01284249   -0.00666365   -0.00256027
     atom   77 type  1   force =     0.01284246   -0.00666361   -0.00256028
     atom   78 type  1   force =     0.01284247   -0.00666365   -0.00256028
     atom   79 type  1   force =     0.01284249   -0.00666366   -0.00256028
     atom   80 type  1   force =     0.01284237   -0.00666354   -0.00256022
     atom   81 type  2   force =    -0.00172107   -0.00232281    0.00022361
     atom   82 type  2   force =    -0.00172110   -0.00232283    0.00022359
     atom   83 type  2   force =    -0.00172119   -0.00232304    0.00022363
     atom   84 type  2   force =    -0.00172112   -0.00232290    0.00022363
     atom   85 type  2   force =    -0.00172469   -0.00232179    0.00022371
     atom   86 type  2   force =    -0.00172111   -0.00232291    0.00022360
     atom   87 type  2   force =    -0.00172112   -0.00232287    0.00022362
     atom   88 type  2   force =    -0.00172111   -0.00232283    0.00022359
     atom   89 type  3   force =     0.00000000    0.00000000    0.00000000
     atom   90 type  3   force =     0.00000000    0.00000000    0.00000000
     atom   91 type  3   force =     0.00000000    0.00000000    0.00000000
     atom   92 type  3   force =     0.00000000    0.00000000    0.00000000
     atom   93 type  3   force =     0.00000000    0.00000000    0.00000000
     atom   94 type  3   force =     0.00000000    0.00000000    0.00000000
     atom   95 type  3   force =     0.00000000    0.00000000    0.00000000
     atom   96 type  3   force =     0.00000000    0.00000000    0.00000000
     atom   97 type  1   force =    -0.00403859    0.01083141   -0.00097751
     atom   98 type  1   force =    -0.00403858    0.01083138   -0.00097753
     atom   99 type  1   force =    -0.00403859    0.01083131   -0.00097751
     atom  100 type  1   force =    -0.00403859    0.01083128   -0.00097750
     atom  101 type  1   force =    -0.00403857    0.01083131   -0.00097750
     atom  102 type  1   force =    -0.00404810    0.01082399   -0.00099982
     atom  103 type  1   force =    -0.00403860    0.01083137   -0.00097751
     atom  104 type  1   force =    -0.00403860    0.01083136   -0.00097752
     atom  105 type  2   force =    -0.00229014   -0.00380024   -0.00000105
     atom  106 type  2   force =    -0.00229024   -0.00380052   -0.00000110
     atom  107 type  2   force =    -0.00229028   -0.00380054   -0.00000105
     atom  108 type  2   force =    -0.00229032   -0.00380055   -0.00000109
     atom  109 type  2   force =    -0.00229027   -0.00380053   -0.00000108
     atom  110 type  2   force =    -0.00229037   -0.00379945   -0.00000092
     atom  111 type  2   force =    -0.00229029   -0.00380051   -0.00000108
     atom  112 type  2   force =    -0.00229035   -0.00380051   -0.00000112
     atom  113 type  3   force =     0.00000000    0.00000000    0.00000000
     atom  114 type  3   force =     0.00000000    0.00000000    0.00000000
     atom  115 type  3   force =     0.00000000    0.00000000    0.00000000
     atom  116 type  3   force =     0.00000000    0.00000000    0.00000000
     atom  117 type  3   force =     0.00000000    0.00000000    0.00000000
     atom  118 type  3   force =     0.00000000    0.00000000    0.00000000
     atom  119 type  3   force =     0.00000000    0.00000000    0.00000000
     atom  120 type  3   force =     0.00000000    0.00000000    0.00000000
     atom  121 type  1   force =     0.00311521   -0.00438515    0.00260958
     atom  122 type  1   force =     0.00311518   -0.00438509    0.00260952
     atom  123 type  1   force =     0.00311523   -0.00438519    0.00260957
     atom  124 type  1   force =     0.00311508   -0.00438544    0.00260973
     atom  125 type  1   force =     0.00311521   -0.00438517    0.00260958
     atom  126 type  1   force =     0.00311530   -0.00438536    0.00260962
     atom  127 type  1   force =     0.00311522   -0.00438512    0.00260957
     atom  128 type  1   force =     0.00311521   -0.00438511    0.00260954
     atom  129 type  1   force =    -0.01340073   -0.00481510    0.00489608
     atom  130 type  1   force =    -0.01340070   -0.00481505    0.00489606
     atom  131 type  1   force =    -0.01340068   -0.00481508    0.00489606
     atom  132 type  1   force =    -0.01340091   -0.00481517    0.00489612
     atom  133 type  1   force =    -0.01340072   -0.00481509    0.00489606
     atom  134 type  1   force =    -0.01340061   -0.00481505    0.00489603
     atom  135 type  1   force =    -0.01340070   -0.00481509    0.00489606
     atom  136 type  1   force =    -0.01340069   -0.00481507    0.00489605
     atom  137 type  2   force =     0.00643124   -0.00179765    0.00006801
     atom  138 type  2   force =     0.00643117   -0.00179765    0.00006802
     atom  139 type  2   force =     0.00643122   -0.00179766    0.00006801
     atom  140 type  2   force =     0.00643051   -0.00179654    0.00006823
     atom  141 type  2   force =     0.00643118   -0.00179765    0.00006800
     atom  142 type  2   force =     0.00643124   -0.00179767    0.00006801
     atom  143 type  2   force =     0.00643133   -0.00179752    0.00006804
     atom  144 type  2   force =     0.00643125   -0.00179765    0.00006802
     atom  145 type  2   force =    -0.00302126    0.00019478    0.00027353
     atom  146 type  2   force =    -0.00302134    0.00019486    0.00027354
     atom  147 type  2   force =    -0.00302126    0.00019481    0.00027351
     atom  148 type  2   force =    -0.00302224    0.00019472    0.00027353
     atom  149 type  2   force =    -0.00302129    0.00019482    0.00027353
     atom  150 type  2   force =    -0.00302128    0.00019474    0.00027357
     atom  151 type  2   force =    -0.00302118    0.00019478    0.00027350
     atom  152 type  2   force =    -0.00302126    0.00019483    0.00027351
     atom  153 type  2   force =     0.00233793   -0.00277916    0.00032851
     atom  154 type  2   force =     0.00233793   -0.00277920    0.00032852
     atom  155 type  2   force =     0.00233797   -0.00277891    0.00032855
     atom  156 type  2   force =     0.00233801   -0.00277916    0.00032852
     atom  157 type  2   force =     0.00233793   -0.00277912    0.00032851
     atom  158 type  2   force =     0.00233790   -0.00277918    0.00032851
     atom  159 type  2   force =     0.00233795   -0.00277916    0.00032850
     atom  160 type  2   force =     0.00233767   -0.00277865    0.00032859
     atom  161 type  3   force =     0.00000000    0.00000000    0.00000000
     atom  162 type  3   force =     0.00000000    0.00000000    0.00000000
     atom  163 type  3   force =     0.00000000    0.00000000    0.00000000
     atom  164 type  3   force =     0.00000000    0.00000000    0.00000000
     atom  165 type  3   force =     0.00000000    0.00000000    0.00000000
     atom  166 type  3   force =     0.00000000    0.00000000    0.00000000
     atom  167 type  3   force =     0.00000000    0.00000000    0.00000000
     atom  168 type  3   force =     0.00000000    0.00000000    0.00000000
     atom  169 type  2   force =    -0.00087755    0.00157229    0.00038512
     atom  170 type  2   force =    -0.00087738    0.00157216    0.00038513
     atom  171 type  2   force =    -0.00087750    0.00157216    0.00038509
     atom  172 type  2   force =    -0.00087756    0.00157215    0.00038514
     atom  173 type  2   force =    -0.00087745    0.00157216    0.00038512
     atom  174 type  2   force =    -0.00087546    0.00157327    0.00038494
     atom  175 type  2   force =    -0.00087747    0.00157220    0.00038513
     atom  176 type  2   force =    -0.00087750    0.00157218    0.00038514
     atom  177 type  3   force =     0.00000000    0.00000000    0.00000000
     atom  178 type  3   force =     0.00000000    0.00000000    0.00000000
     atom  179 type  3   force =     0.00000000    0.00000000    0.00000000
     atom  180 type  3   force =     0.00000000    0.00000000    0.00000000
     atom  181 type  3   force =     0.00000000    0.00000000    0.00000000
     atom  182 type  3   force =     0.00000000    0.00000000    0.00000000
     atom  183 type  3   force =     0.00000000    0.00000000    0.00000000
     atom  184 type  3   force =     0.00000000    0.00000000    0.00000000
     atom  185 type  1   force =     0.00325623    0.00412431   -0.00297492
     atom  186 type  1   force =     0.00325624    0.00412435   -0.00297497
     atom  187 type  1   force =     0.00325625    0.00412432   -0.00297492
     atom  188 type  1   force =     0.00325607    0.00412452   -0.00297505
     atom  189 type  1   force =     0.00325623    0.00412433   -0.00297492
     atom  190 type  1   force =     0.00325628    0.00412429   -0.00297489
     atom  191 type  1   force =     0.00325626    0.00412429   -0.00297488
     atom  192 type  1   force =     0.00325625    0.00412432   -0.00297492
     atom  193 type  1   force =    -0.01284247    0.00666364   -0.00256028
     atom  194 type  1   force =    -0.01284250    0.00666368   -0.00256029
     atom  195 type  1   force =    -0.01284246    0.00666364   -0.00256026
     atom  196 type  1   force =    -0.01284267    0.00666371   -0.00256031
     atom  197 type  1   force =    -0.01284248    0.00666365   -0.00256028
     atom  198 type  1   force =    -0.01284240    0.00666358   -0.00256023
     atom  199 type  1   force =    -0.01284247    0.00666365   -0.00256026
     atom  200 type  1   force =    -0.01284248    0.00666366   -0.00256028
     atom  201 type  2   force =     0.00172110    0.00232289    0.00022360
     atom  202 type  2   force =     0.00172110    0.00232287    0.00022363
     atom  203 type  2   force =     0.00172114    0.00232287    0.00022359
     atom  204 type  2   force =     0.00171959    0.00232279    0.00022344
     atom  205 type  2   force =     0.00172107    0.00232289    0.00022361
     atom  206 type  2   force =     0.00172104    0.00232281    0.00022360
     atom  207 type  2   force =     0.00172117    0.00232302    0.00022361
     atom  208 type  2   force =     0.00172116    0.00232291    0.00022362
     atom  209 type  3   force =     0.00000000    0.00000000    0.00000000
     atom  210 type  3   force =     0.00000000    0.00000000    0.00000000
     atom  211 type  3   force =     0.00000000    0.00000000    0.00000000
     atom  212 type  3   force =     0.00000000    0.00000000    0.00000000
     atom  213 type  3   force =     0.00000000    0.00000000    0.00000000
     atom  214 type  3   force =     0.00000000    0.00000000    0.00000000
     atom  215 type  3   force =     0.00000000    0.00000000    0.00000000
     atom  216 type  3   force =     0.00000000    0.00000000    0.00000000
     atom  217 type  1   force =     0.00403858   -0.01083131   -0.00097751
     atom  218 type  1   force =     0.00403856   -0.01083130   -0.00097752
     atom  219 type  1   force =     0.00403859   -0.01083133   -0.00097751
     atom  220 type  1   force =     0.00403684   -0.01082580   -0.00097698
     atom  221 type  1   force =     0.00403857   -0.01083134   -0.00097751
     atom  222 type  1   force =     0.00403856   -0.01083136   -0.00097751
     atom  223 type  1   force =     0.00403857   -0.01083123   -0.00097750
     atom  224 type  1   force =     0.00403861   -0.01083133   -0.00097752
     atom  225 type  2   force =     0.00230190    0.00377907   -0.00002363
     atom  226 type  2   force =     0.00229029    0.00380050   -0.00000109
     atom  227 type  2   force =     0.00229025    0.00380056   -0.00000110
     atom  228 type  2   force =     0.00229024    0.00380051   -0.00000108
     atom  229 type  2   force =     0.00229028    0.00380056   -0.00000108
     atom  230 type  2   force =     0.00229044    0.00380077   -0.00000108
     atom  231 type  2   force =     0.00229028    0.00380049   -0.00000109
     atom  232 type  2   force =     0.00229027    0.00380050   -0.00000108
     atom  233 type  3   force =     0.00000000    0.00000000    0.00000000
     atom  234 type  3   force =     0.00000000    0.00000000    0.00000000
     atom  235 type  3   force =     0.00000000    0.00000000    0.00000000
     atom  236 type  3   force =     0.00000000    0.00000000    0.00000000
     atom  237 type  3   force =     0.00000000    0.00000000    0.00000000
     atom  238 type  3   force =     0.00000000    0.00000000    0.00000000
     atom  239 type  3   force =     0.00000000    0.00000000    0.00000000
     atom  240 type  3   force =     0.00000000    0.00000000    0.00000000
     atom  241 type  1   force =     0.00438515    0.00311522   -0.00260956
     atom  242 type  1   force =     0.00438516    0.00311522   -0.00260960
     atom  243 type  1   force =     0.00438522    0.00311517   -0.00260957
     atom  244 type  1   force =     0.00438513    0.00311517   -0.00260952
     atom  245 type  1   force =     0.00438515    0.00311521   -0.00260957
     atom  246 type  1   force =     0.00438511    0.00311509   -0.00260951
     atom  247 type  1   force =     0.00438516    0.00311523   -0.00260957
     atom  248 type  1   force =     0.00438527    0.00311528   -0.00260965
     atom  249 type  1   force =     0.00481507   -0.01340069   -0.00489605
     atom  250 type  1   force =     0.00481511   -0.01340072   -0.00489607
     atom  251 type  1   force =     0.00481509   -0.01340074   -0.00489608
     atom  252 type  1   force =     0.00481510   -0.01340078   -0.00489608
     atom  253 type  1   force =     0.00481510   -0.01340072   -0.00489606
     atom  254 type  1   force =     0.00481510   -0.01340076   -0.00489600
     atom  255 type  1   force =     0.00481508   -0.01340068   -0.00489605
     atom  256 type  1   force =     0.00481514   -0.01340070   -0.00489605
     atom  257 type  2   force =     0.00179760    0.00643128   -0.00006804
     atom  258 type  2   force =     0.00179766    0.00643122   -0.00006801
     atom  259 type  2   force =     0.00179769    0.00643102   -0.00006805
     atom  260 type  2   force =     0.00179765    0.00643117   -0.00006802
     atom  261 type  2   force =     0.00179764    0.00643121   -0.00006801
     atom  262 type  2   force =     0.00179766    0.00643100   -0.00006801
     atom  263 type  2   force =     0.00179769    0.00643124   -0.00006799
     atom  264 type  2   force =     0.00179766    0.00643133   -0.00006801
     atom  265 type  2   force =    -0.00019482   -0.00302121   -0.00027354
     atom  266 type  2   force =    -0.00019474   -0.00302126   -0.00027352
     atom  267 type  2   force =    -0.00019481   -0.00302150   -0.00027359
     atom  268 type  2   force =    -0.00019482   -0.00302135   -0.00027353
     atom  269 type  2   force =    -0.00019477   -0.00302127   -0.00027353
     atom  270 type  2   force =    -0.00019482   -0.00302150   -0.00027350
     atom  271 type  2   force =    -0.00019478   -0.00302120   -0.00027354
     atom  272 type  2   force =    -0.00019473   -0.00302118   -0.00027353
     atom  273 type  2   force =     0.00277916    0.00233802   -0.00032850
     atom  274 type  2   force =     0.00277919    0.00233796   -0.00032850
     atom  275 type  2   force =     0.00277910    0.00233773   -0.00032863
     atom  276 type  2   force =     0.00277914    0.00233796   -0.00032852
     atom  277 type  2   force =     0.00277914    0.00233794   -0.00032854
     atom  278 type  2   force =     0.00277928    0.00233789   -0.00032850
     atom  279 type  2   force =     0.00277919    0.00233797   -0.00032851
     atom  280 type  2   force =     0.00277915    0.00233797   -0.00032848
     atom  281 type  3   force =     0.00000000    0.00000000    0.00000000
     atom  282 type  3   force =     0.00000000    0.00000000    0.00000000
     atom  283 type  3   force =     0.00000000    0.00000000    0.00000000
     atom  284 type  3   force =     0.00000000    0.00000000    0.00000000
     atom  285 type  3   force =     0.00000000    0.00000000    0.00000000
     atom  286 type  3   force =     0.00000000    0.00000000    0.00000000
     atom  287 type  3   force =     0.00000000    0.00000000    0.00000000
     atom  288 type  3   force =     0.00000000    0.00000000    0.00000000
     atom  289 type  2   force =    -0.00157223   -0.00087741   -0.00038512
     atom  290 type  2   force =    -0.00157217   -0.00087747   -0.00038512
     atom  291 type  2   force =    -0.00157209   -0.00087770   -0.00038518
     atom  292 type  2   force =    -0.00157217   -0.00087745   -0.00038515
     atom  293 type  2   force =    -0.00157221   -0.00087750   -0.00038512
     atom  294 type  2   force =    -0.00157217   -0.00087748   -0.00038512
     atom  295 type  2   force =    -0.00157215   -0.00087737   -0.00038515
     atom  296 type  2   force =    -0.00157215   -0.00087739   -0.00038513
     atom  297 type  3   force =     0.00000000    0.00000000    0.00000000
     atom  298 type  3   force =     0.00000000    0.00000000    0.00000000
     atom  299 type  3   force =     0.00000000    0.00000000    0.00000000
     atom  300 type  3   force =     0.00000000    0.00000000    0.00000000
     atom  301 type  3   force =     0.00000000    0.00000000    0.00000000
     atom  302 type  3   force =     0.00000000    0.00000000    0.00000000
     atom  303 type  3   force =     0.00000000    0.00000000    0.00000000
     atom  304 type  3   force =     0.00000000    0.00000000    0.00000000
     atom  305 type  1   force =    -0.00412431    0.00325626    0.00297490
     atom  306 type  1   force =    -0.00412428    0.00325623    0.00297489
     atom  307 type  1   force =    -0.00412436    0.00325621    0.00297495
     atom  308 type  1   force =    -0.00412432    0.00325622    0.00297491
     atom  309 type  1   force =    -0.00412431    0.00325625    0.00297492
     atom  310 type  1   force =    -0.00412429    0.00325613    0.00297488
     atom  311 type  1   force =    -0.00412429    0.00325625    0.00297490
     atom  312 type  1   force =    -0.00412429    0.00325629    0.00297486
     atom  313 type  1   force =    -0.00666364   -0.01284245    0.00256026
     atom  314 type  1   force =    -0.00666364   -0.01284248    0.00256027
     atom  315 type  1   force =    -0.00666366   -0.01284251    0.00256028
     atom  316 type  1   force =    -0.00666366   -0.01284249    0.00256027
     atom  317 type  1   force =    -0.00666365   -0.01284248    0.00256026
     atom  318 type  1   force =    -0.00666381   -0.01284272    0.00256032
     atom  319 type  1   force =    -0.00666364   -0.01284246    0.00256027
     atom  320 type  1   force =    -0.00666356   -0.01284237    0.00256022
     atom  321 type  2   force =    -0.00232288    0.00172112   -0.00022357
     atom  322 type  2   force =    -0.00232290    0.00172114   -0.00022363
     atom  323 type  2   force =    -0.00232250    0.00172059   -0.00022348
     atom  324 type  2   force =    -0.00232284    0.00172104   -0.00022360
     atom  325 type  2   force =    -0.00232289    0.00172111   -0.00022361
     atom  326 type  2   force =    -0.00232290    0.00172104   -0.00022360
     atom  327 type  2   force =    -0.00232291    0.00172114   -0.00022358
     atom  328 type  2   force =    -0.00232287    0.00172116   -0.00022361
     atom  329 type  3   force =     0.00000000    0.00000000    0.00000000
     atom  330 type  3   force =     0.00000000    0.00000000    0.00000000
     atom  331 type  3   force =     0.00000000    0.00000000    0.00000000
     atom  332 type  3   force =     0.00000000    0.00000000    0.00000000
     atom  333 type  3   force =     0.00000000    0.00000000    0.00000000
     atom  334 type  3   force =     0.00000000    0.00000000    0.00000000
     atom  335 type  3   force =     0.00000000    0.00000000    0.00000000
     atom  336 type  3   force =     0.00000000    0.00000000    0.00000000
     atom  337 type  1   force =     0.01083128    0.00403860    0.00097751
     atom  338 type  1   force =     0.01083133    0.00403858    0.00097751
     atom  339 type  1   force =     0.01083157    0.00403832    0.00097765
     atom  340 type  1   force =     0.01083131    0.00403857    0.00097753
     atom  341 type  1   force =     0.01083131    0.00403856    0.00097751
     atom  342 type  1   force =     0.01083132    0.00403855    0.00097751
     atom  343 type  1   force =     0.01083142    0.00403862    0.00097751
     atom  344 type  1   force =     0.01083136    0.00403862    0.00097751
     atom  345 type  2   force =    -0.00380041    0.00229060    0.00000094
     atom  346 type  2   force =    -0.00380051    0.00229028    0.00000107
     atom  347 type  2   force =    -0.00380062    0.00229029    0.00000106
     atom  348 type  2   force =    -0.00380050    0.00229028    0.00000109
     atom  349 type  2   force =    -0.00380046    0.00229022    0.00000111
     atom  350 type  2   force =    -0.00380054    0.00229034    0.00000110
     atom  351 type  2   force =    -0.00380052    0.00229029    0.00000107
     atom  352 type  2   force =    -0.00380052    0.00229031    0.00000109
     atom  353 type  3   force =     0.00000000    0.00000000    0.00000000
     atom  354 type  3   force =     0.00000000    0.00000000    0.00000000
     atom  355 type  3   force =     0.00000000    0.00000000    0.00000000
     atom  356 type  3   force =     0.00000000    0.00000000    0.00000000
     atom  357 type  3   force =     0.00000000    0.00000000    0.00000000
     atom  358 type  3   force =     0.00000000    0.00000000    0.00000000
     atom  359 type  3   force =     0.00000000    0.00000000    0.00000000
     atom  360 type  3   force =     0.00000000    0.00000000    0.00000000
     atom  361 type  1   force =    -0.00438517   -0.00311520   -0.00260958
     atom  362 type  1   force =    -0.00438523   -0.00311522   -0.00260963
     atom  363 type  1   force =    -0.00438510   -0.00311518   -0.00260954
     atom  364 type  1   force =    -0.00438493   -0.00311531   -0.00260941
     atom  365 type  1   force =    -0.00438518   -0.00311522   -0.00260959
     atom  366 type  1   force =    -0.00438523   -0.00311524   -0.00260961
     atom  367 type  1   force =    -0.00438514   -0.00311517   -0.00260956
     atom  368 type  1   force =    -0.00438512   -0.00311519   -0.00260959
     atom  369 type  1   force =    -0.00481506    0.01340070   -0.00489607
     atom  370 type  1   force =    -0.00481493    0.01340044   -0.00489593
     atom  371 type  1   force =    -0.00481509    0.01340073   -0.00489607
     atom  372 type  1   force =    -0.00481514    0.01340076   -0.00489610
     atom  373 type  1   force =    -0.00481512    0.01340077   -0.00489609
     atom  374 type  1   force =    -0.00481510    0.01340074   -0.00489607
     atom  375 type  1   force =    -0.00481509    0.01340071   -0.00489607
     atom  376 type  1   force =    -0.00481510    0.01340068   -0.00489607
     atom  377 type  2   force =    -0.00179766   -0.00643118   -0.00006802
     atom  378 type  2   force =    -0.00179741   -0.00643156   -0.00006813
     atom  379 type  2   force =    -0.00179767   -0.00643119   -0.00006803
     atom  380 type  2   force =    -0.00179773   -0.00643118   -0.00006801
     atom  381 type  2   force =    -0.00179765   -0.00643114   -0.00006801
     atom  382 type  2   force =    -0.00179758   -0.00643122   -0.00006803
     atom  383 type  2   force =    -0.00179768   -0.00643122   -0.00006800
     atom  384 type  2   force =    -0.00179772   -0.00643122   -0.00006802
     atom  385 type  2   force =     0.00019482    0.00302128   -0.00027353
     atom  386 type  2   force =     0.00019479    0.00302081   -0.00027336
     atom  387 type  2   force =     0.00019480    0.00302128   -0.00027351
     atom  388 type  2   force =     0.00019475    0.00302128   -0.00027356
     atom  389 type  2   force =     0.00019480    0.00302134   -0.00027352
     atom  390 type  2   force =     0.00019478    0.00302130   -0.00027352
     atom  391 type  2   force =     0.00019476    0.00302125   -0.00027354
     atom  392 type  2   force =     0.00019481    0.00302129   -0.00027354
     atom  393 type  2   force =    -0.00277917   -0.00233793   -0.00032851
     atom  394 type  2   force =    -0.00277833   -0.00233777   -0.00032858
     atom  395 type  2   force =    -0.00277918   -0.00233795   -0.00032854
     atom  396 type  2   force =    -0.00277931   -0.00233793   -0.00032854
     atom  397 type  2   force =    -0.00277916   -0.00233789   -0.00032849
     atom  398 type  2   force =    -0.00277914   -0.00233799   -0.00032853
     atom  399 type  2   force =    -0.00277918   -0.00233794   -0.00032852
     atom  400 type  2   force =    -0.00277919   -0.00233795   -0.00032851
     atom  401 type  3   force =     0.00000000    0.00000000    0.00000000
     atom  402 type  3   force =     0.00000000    0.00000000    0.00000000
     atom  403 type  3   force =     0.00000000    0.00000000    0.00000000
     atom  404 type  3   force =     0.00000000    0.00000000    0.00000000
     atom  405 type  3   force =     0.00000000    0.00000000    0.00000000
     atom  406 type  3   force =     0.00000000    0.00000000    0.00000000
     atom  407 type  3   force =     0.00000000    0.00000000    0.00000000
     atom  408 type  3   force =     0.00000000    0.00000000    0.00000000
     atom  409 type  2   force =     0.00157245    0.00087770   -0.00038513
     atom  410 type  2   force =     0.00157215    0.00087753   -0.00038513
     atom  411 type  2   force =     0.00157208    0.00087743   -0.00038515
     atom  412 type  2   force =     0.00157216    0.00087745   -0.00038511
     atom  413 type  2   force =     0.00157220    0.00087722   -0.00038513
     atom  414 type  2   force =     0.00157217    0.00087749   -0.00038511
     atom  415 type  2   force =     0.00157215    0.00087750   -0.00038514
     atom  416 type  2   force =     0.00157218    0.00087748   -0.00038509
     atom  417 type  3   force =     0.00000000    0.00000000    0.00000000
     atom  418 type  3   force =     0.00000000    0.00000000    0.00000000
     atom  419 type  3   force =     0.00000000    0.00000000    0.00000000
     atom  420 type  3   force =     0.00000000    0.00000000    0.00000000
     atom  421 type  3   force =     0.00000000    0.00000000    0.00000000
     atom  422 type  3   force =     0.00000000    0.00000000    0.00000000
     atom  423 type  3   force =     0.00000000    0.00000000    0.00000000
     atom  424 type  3   force =     0.00000000    0.00000000    0.00000000
     atom  425 type  1   force =     0.00412431   -0.00325621    0.00297489
     atom  426 type  1   force =     0.00412439   -0.00325645    0.00297484
     atom  427 type  1   force =     0.00412430   -0.00325622    0.00297489
     atom  428 type  1   force =     0.00412419   -0.00325618    0.00297482
     atom  429 type  1   force =     0.00412431   -0.00325619    0.00297490
     atom  430 type  1   force =     0.00412432   -0.00325623    0.00297492
     atom  431 type  1   force =     0.00412430   -0.00325625    0.00297492
     atom  432 type  1   force =     0.00412428   -0.00325624    0.00297489
     atom  433 type  1   force =     0.00666372    0.01284255    0.00256027
     atom  434 type  1   force =     0.00666365    0.01284232    0.00256024
     atom  435 type  1   force =     0.00666364    0.01284248    0.00256027
     atom  436 type  1   force =     0.00666362    0.01284251    0.00256026
     atom  437 type  1   force =     0.00666368    0.01284255    0.00256028
     atom  438 type  1   force =     0.00666366    0.01284251    0.00256028
     atom  439 type  1   force =     0.00666362    0.01284245    0.00256026
     atom  440 type  1   force =     0.00666362    0.01284245    0.00256026
     atom  441 type  2   force =     0.00232286   -0.00172107   -0.00022360
     atom  442 type  2   force =     0.00232324   -0.00172121   -0.00022368
     atom  443 type  2   force =     0.00232290   -0.00172108   -0.00022361
     atom  444 type  2   force =     0.00232285   -0.00172110   -0.00022359
     atom  445 type  2   force =     0.00232287   -0.00172103   -0.00022361
     atom  446 type  2   force =     0.00232307   -0.00172115   -0.00022367
     atom  447 type  2   force =     0.00232286   -0.00172112   -0.00022361
     atom  448 type  2   force =     0.00232278   -0.00172105   -0.00022362
     atom  449 type  3   force =     0.00000000    0.00000000    0.00000000
     atom  450 type  3   force =     0.00000000    0.00000000    0.00000000
     atom  451 type  3   force =     0.00000000    0.00000000    0.00000000
     atom  452 type  3   force =     0.00000000    0.00000000    0.00000000
     atom  453 type  3   force =     0.00000000    0.00000000    0.00000000
     atom  454 type  3   force =     0.00000000    0.00000000    0.00000000
     atom  455 type  3   force =     0.00000000    0.00000000    0.00000000
     atom  456 type  3   force =     0.00000000    0.00000000    0.00000000
     atom  457 type  1   force =    -0.01083133   -0.00403858    0.00097751
     atom  458 type  1   force =    -0.01083139   -0.00403859    0.00097751
     atom  459 type  1   force =    -0.01083133   -0.00403856    0.00097751
     atom  460 type  1   force =    -0.01083108   -0.00403852    0.00097749
     atom  461 type  1   force =    -0.01083134   -0.00403858    0.00097751
     atom  462 type  1   force =    -0.01083135   -0.00403858    0.00097751
     atom  463 type  1   force =    -0.01083134   -0.00403856    0.00097751
     atom  464 type  1   force =    -0.01083102   -0.00403856    0.00097748
     atom  465 type  2   force =     0.00380032   -0.00229010    0.00000106
     atom  466 type  2   force =     0.00380050   -0.00229027    0.00000105
     atom  467 type  2   force =     0.00380043   -0.00229039    0.00000082
     atom  468 type  2   force =     0.00380050   -0.00229029    0.00000109
     atom  469 type  2   force =     0.00380052   -0.00229029    0.00000107
     atom  470 type  2   force =     0.00380057   -0.00229037    0.00000109
     atom  471 type  2   force =     0.00380055   -0.00229026    0.00000108
     atom  472 type  2   force =     0.00380050   -0.00229021    0.00000104
     atom  473 type  3   force =     0.00000000    0.00000000    0.00000000
     atom  474 type  3   force =     0.00000000    0.00000000    0.00000000
     atom  475 type  3   force =     0.00000000    0.00000000    0.00000000
     atom  476 type  3   force =     0.00000000    0.00000000    0.00000000
     atom  477 type  3   force =     0.00000000    0.00000000    0.00000000
     atom  478 type  3   force =     0.00000000    0.00000000    0.00000000
     atom  479 type  3   force =     0.00000000    0.00000000    0.00000000
     atom  480 type  3   force =     0.00000000    0.00000000    0.00000000
     atom  481 type  4   force =     0.00000000    0.00000000    0.00000000
     atom  482 type  4   force =     0.00000000    0.00000000    0.00000000
     atom  483 type  4   force =     0.00000000    0.00000000    0.00000000
     atom  484 type  4   force =     0.00000000    0.00000000    0.00000000
     atom  485 type  4   force =     0.00000000    0.00000000    0.00000000
     atom  486 type  4   force =     0.00000000    0.00000000    0.00000000
     atom  487 type  4   force =     0.00000000    0.00000000    0.00000000
     atom  488 type  4   force =     0.00000000    0.00000000    0.00000000
     atom  489 type  4   force =     0.00000000    0.00000000    0.00000000
     atom  490 type  4   force =     0.00000000    0.00000000    0.00000000
     atom  491 type  4   force =     0.00000000    0.00000000    0.00000000
     atom  492 type  4   force =     0.00000000    0.00000000    0.00000000
     atom  493 type  4   force =     0.00000000    0.00000000    0.00000000
     atom  494 type  4   force =     0.00000000    0.00000000    0.00000000
     atom  495 type  4   force =     0.00000000    0.00000000    0.00000000
     atom  496 type  4   force =     0.00000000    0.00000000    0.00000000
     The Hubbard contrib.    to forces
     atom    1 type  1   force =     0.00000000    0.00000000    0.00000000
     atom    2 type  1   force =     0.00000000    0.00000000    0.00000000
     atom    3 type  1   force =     0.00000000    0.00000000    0.00000000
     atom    4 type  1   force =     0.00000000    0.00000000    0.00000000
     atom    5 type  1   force =     0.00000000    0.00000000    0.00000000
     atom    6 type  1   force =     0.00000000    0.00000000    0.00000000
     atom    7 type  1   force =     0.00000000    0.00000000    0.00000000
     atom    8 type  1   force =     0.00000000    0.00000000    0.00000000
     atom    9 type  1   force =     0.00000000    0.00000000    0.00000000
     atom   10 type  1   force =     0.00000000    0.00000000    0.00000000
     atom   11 type  1   force =     0.00000000    0.00000000    0.00000000
     atom   12 type  1   force =     0.00000000    0.00000000    0.00000000
     atom   13 type  1   force =     0.00000000    0.00000000    0.00000000
     atom   14 type  1   force =     0.00000000    0.00000000    0.00000000
     atom   15 type  1   force =     0.00000000    0.00000000    0.00000000
     atom   16 type  1   force =     0.00000000    0.00000000    0.00000000
     atom   17 type  2   force =     0.00000000    0.00000000    0.00000000
     atom   18 type  2   force =     0.00000000    0.00000000    0.00000000
     atom   19 type  2   force =     0.00000000    0.00000000    0.00000000
     atom   20 type  2   force =     0.00000000    0.00000000    0.00000000
     atom   21 type  2   force =     0.00000000    0.00000000    0.00000000
     atom   22 type  2   force =     0.00000000    0.00000000    0.00000000
     atom   23 type  2   force =     0.00000000    0.00000000    0.00000000
     atom   24 type  2   force =     0.00000000    0.00000000    0.00000000
     atom   25 type  2   force =     0.00000000    0.00000000    0.00000000
     atom   26 type  2   force =     0.00000000    0.00000000    0.00000000
     atom   27 type  2   force =     0.00000000    0.00000000    0.00000000
     atom   28 type  2   force =     0.00000000    0.00000000    0.00000000
     atom   29 type  2   force =     0.00000000    0.00000000    0.00000000
     atom   30 type  2   force =     0.00000000    0.00000000    0.00000000
     atom   31 type  2   force =     0.00000000    0.00000000    0.00000000
     atom   32 type  2   force =     0.00000000    0.00000000    0.00000000
     atom   33 type  2   force =     0.00000000    0.00000000    0.00000000
     atom   34 type  2   force =     0.00000000    0.00000000    0.00000000
     atom   35 type  2   force =     0.00000000    0.00000000    0.00000000
     atom   36 type  2   force =     0.00000000    0.00000000    0.00000000
     atom   37 type  2   force =     0.00000000    0.00000000    0.00000000
     atom   38 type  2   force =     0.00000000    0.00000000    0.00000000
     atom   39 type  2   force =     0.00000000    0.00000000    0.00000000
     atom   40 type  2   force =     0.00000000    0.00000000    0.00000000
     atom   41 type  3   force =     0.00000000    0.00000000    0.00000000
     atom   42 type  3   force =     0.00000000    0.00000000    0.00000000
     atom   43 type  3   force =     0.00000000    0.00000000    0.00000000
     atom   44 type  3   force =     0.00000000    0.00000000    0.00000000
     atom   45 type  3   force =     0.00000000    0.00000000    0.00000000
     atom   46 type  3   force =     0.00000000    0.00000000    0.00000000
     atom   47 type  3   force =     0.00000000    0.00000000    0.00000000
     atom   48 type  3   force =     0.00000000    0.00000000    0.00000000
     atom   49 type  2   force =     0.00000000    0.00000000    0.00000000
     atom   50 type  2   force =     0.00000000    0.00000000    0.00000000
     atom   51 type  2   force =     0.00000000    0.00000000    0.00000000
     atom   52 type  2   force =     0.00000000    0.00000000    0.00000000
     atom   53 type  2   force =     0.00000000    0.00000000    0.00000000
     atom   54 type  2   force =     0.00000000    0.00000000    0.00000000
     atom   55 type  2   force =     0.00000000    0.00000000    0.00000000
     atom   56 type  2   force =     0.00000000    0.00000000    0.00000000
     atom   57 type  3   force =     0.00000000    0.00000000    0.00000000
     atom   58 type  3   force =     0.00000000    0.00000000    0.00000000
     atom   59 type  3   force =     0.00000000    0.00000000    0.00000000
     atom   60 type  3   force =     0.00000000    0.00000000    0.00000000
     atom   61 type  3   force =     0.00000000    0.00000000    0.00000000
     atom   62 type  3   force =     0.00000000    0.00000000    0.00000000
     atom   63 type  3   force =     0.00000000    0.00000000    0.00000000
     atom   64 type  3   force =     0.00000000    0.00000000    0.00000000
     atom   65 type  1   force =     0.00000000    0.00000000    0.00000000
     atom   66 type  1   force =     0.00000000    0.00000000    0.00000000
     atom   67 type  1   force =     0.00000000    0.00000000    0.00000000
     atom   68 type  1   force =     0.00000000    0.00000000    0.00000000
     atom   69 type  1   force =     0.00000000    0.00000000    0.00000000
     atom   70 type  1   force =     0.00000000    0.00000000    0.00000000
     atom   71 type  1   force =     0.00000000    0.00000000    0.00000000
     atom   72 type  1   force =     0.00000000    0.00000000    0.00000000
     atom   73 type  1   force =     0.00000000    0.00000000    0.00000000
     atom   74 type  1   force =     0.00000000    0.00000000    0.00000000
     atom   75 type  1   force =     0.00000000    0.00000000    0.00000000
     atom   76 type  1   force =     0.00000000    0.00000000    0.00000000
     atom   77 type  1   force =     0.00000000    0.00000000    0.00000000
     atom   78 type  1   force =     0.00000000    0.00000000    0.00000000
     atom   79 type  1   force =     0.00000000    0.00000000    0.00000000
     atom   80 type  1   force =     0.00000000    0.00000000    0.00000000
     atom   81 type  2   force =     0.00000000    0.00000000    0.00000000
     atom   82 type  2   force =     0.00000000    0.00000000    0.00000000
     atom   83 type  2   force =     0.00000000    0.00000000    0.00000000
     atom   84 type  2   force =     0.00000000    0.00000000    0.00000000
     atom   85 type  2   force =     0.00000000    0.00000000    0.00000000
     atom   86 type  2   force =     0.00000000    0.00000000    0.00000000
     atom   87 type  2   force =     0.00000000    0.00000000    0.00000000
     atom   88 type  2   force =     0.00000000    0.00000000    0.00000000
     atom   89 type  3   force =     0.00000000    0.00000000    0.00000000
     atom   90 type  3   force =     0.00000000    0.00000000    0.00000000
     atom   91 type  3   force =     0.00000000    0.00000000    0.00000000
     atom   92 type  3   force =     0.00000000    0.00000000    0.00000000
     atom   93 type  3   force =     0.00000000    0.00000000    0.00000000
     atom   94 type  3   force =     0.00000000    0.00000000    0.00000000
     atom   95 type  3   force =     0.00000000    0.00000000    0.00000000
     atom   96 type  3   force =     0.00000000    0.00000000    0.00000000
     atom   97 type  1   force =     0.00000000    0.00000000    0.00000000
     atom   98 type  1   force =     0.00000000    0.00000000    0.00000000
     atom   99 type  1   force =     0.00000000    0.00000000    0.00000000
     atom  100 type  1   force =     0.00000000    0.00000000    0.00000000
     atom  101 type  1   force =     0.00000000    0.00000000    0.00000000
     atom  102 type  1   force =     0.00000000    0.00000000    0.00000000
     atom  103 type  1   force =     0.00000000    0.00000000    0.00000000
     atom  104 type  1   force =     0.00000000    0.00000000    0.00000000
     atom  105 type  2   force =     0.00000000    0.00000000    0.00000000
     atom  106 type  2   force =     0.00000000    0.00000000    0.00000000
     atom  107 type  2   force =     0.00000000    0.00000000    0.00000000
     atom  108 type  2   force =     0.00000000    0.00000000    0.00000000
     atom  109 type  2   force =     0.00000000    0.00000000    0.00000000
     atom  110 type  2   force =     0.00000000    0.00000000    0.00000000
     atom  111 type  2   force =     0.00000000    0.00000000    0.00000000
     atom  112 type  2   force =     0.00000000    0.00000000    0.00000000
     atom  113 type  3   force =     0.00000000    0.00000000    0.00000000
     atom  114 type  3   force =     0.00000000    0.00000000    0.00000000
     atom  115 type  3   force =     0.00000000    0.00000000    0.00000000
     atom  116 type  3   force =     0.00000000    0.00000000    0.00000000
     atom  117 type  3   force =     0.00000000    0.00000000    0.00000000
     atom  118 type  3   force =     0.00000000    0.00000000    0.00000000
     atom  119 type  3   force =     0.00000000    0.00000000    0.00000000
     atom  120 type  3   force =     0.00000000    0.00000000    0.00000000
     atom  121 type  1   force =     0.00000000    0.00000000    0.00000000
     atom  122 type  1   force =     0.00000000    0.00000000    0.00000000
     atom  123 type  1   force =     0.00000000    0.00000000    0.00000000
     atom  124 type  1   force =     0.00000000    0.00000000    0.00000000
     atom  125 type  1   force =     0.00000000    0.00000000    0.00000000
     atom  126 type  1   force =     0.00000000    0.00000000    0.00000000
     atom  127 type  1   force =     0.00000000    0.00000000    0.00000000
     atom  128 type  1   force =     0.00000000    0.00000000    0.00000000
     atom  129 type  1   force =     0.00000000    0.00000000    0.00000000
     atom  130 type  1   force =     0.00000000    0.00000000    0.00000000
     atom  131 type  1   force =     0.00000000    0.00000000    0.00000000
     atom  132 type  1   force =     0.00000000    0.00000000    0.00000000
     atom  133 type  1   force =     0.00000000    0.00000000    0.00000000
     atom  134 type  1   force =     0.00000000    0.00000000    0.00000000
     atom  135 type  1   force =     0.00000000    0.00000000    0.00000000
     atom  136 type  1   force =     0.00000000    0.00000000    0.00000000
     atom  137 type  2   force =     0.00000000    0.00000000    0.00000000
     atom  138 type  2   force =     0.00000000    0.00000000    0.00000000
     atom  139 type  2   force =     0.00000000    0.00000000    0.00000000
     atom  140 type  2   force =     0.00000000    0.00000000    0.00000000
     atom  141 type  2   force =     0.00000000    0.00000000    0.00000000
     atom  142 type  2   force =     0.00000000    0.00000000    0.00000000
     atom  143 type  2   force =     0.00000000    0.00000000    0.00000000
     atom  144 type  2   force =     0.00000000    0.00000000    0.00000000
     atom  145 type  2   force =     0.00000000    0.00000000    0.00000000
     atom  146 type  2   force =     0.00000000    0.00000000    0.00000000
     atom  147 type  2   force =     0.00000000    0.00000000    0.00000000
     atom  148 type  2   force =     0.00000000    0.00000000    0.00000000
     atom  149 type  2   force =     0.00000000    0.00000000    0.00000000
     atom  150 type  2   force =     0.00000000    0.00000000    0.00000000
     atom  151 type  2   force =     0.00000000    0.00000000    0.00000000
     atom  152 type  2   force =     0.00000000    0.00000000    0.00000000
     atom  153 type  2   force =     0.00000000    0.00000000    0.00000000
     atom  154 type  2   force =     0.00000000    0.00000000    0.00000000
     atom  155 type  2   force =     0.00000000    0.00000000    0.00000000
     atom  156 type  2   force =     0.00000000    0.00000000    0.00000000
     atom  157 type  2   force =     0.00000000    0.00000000    0.00000000
     atom  158 type  2   force =     0.00000000    0.00000000    0.00000000
     atom  159 type  2   force =     0.00000000    0.00000000    0.00000000
     atom  160 type  2   force =     0.00000000    0.00000000    0.00000000
     atom  161 type  3   force =     0.00000000    0.00000000    0.00000000
     atom  162 type  3   force =     0.00000000    0.00000000    0.00000000
     atom  163 type  3   force =     0.00000000    0.00000000    0.00000000
     atom  164 type  3   force =     0.00000000    0.00000000    0.00000000
     atom  165 type  3   force =     0.00000000    0.00000000    0.00000000
     atom  166 type  3   force =     0.00000000    0.00000000    0.00000000
     atom  167 type  3   force =     0.00000000    0.00000000    0.00000000
     atom  168 type  3   force =     0.00000000    0.00000000    0.00000000
     atom  169 type  2   force =     0.00000000    0.00000000    0.00000000
     atom  170 type  2   force =     0.00000000    0.00000000    0.00000000
     atom  171 type  2   force =     0.00000000    0.00000000    0.00000000
     atom  172 type  2   force =     0.00000000    0.00000000    0.00000000
     atom  173 type  2   force =     0.00000000    0.00000000    0.00000000
     atom  174 type  2   force =     0.00000000    0.00000000    0.00000000
     atom  175 type  2   force =     0.00000000    0.00000000    0.00000000
     atom  176 type  2   force =     0.00000000    0.00000000    0.00000000
     atom  177 type  3   force =     0.00000000    0.00000000    0.00000000
     atom  178 type  3   force =     0.00000000    0.00000000    0.00000000
     atom  179 type  3   force =     0.00000000    0.00000000    0.00000000
     atom  180 type  3   force =     0.00000000    0.00000000    0.00000000
     atom  181 type  3   force =     0.00000000    0.00000000    0.00000000
     atom  182 type  3   force =     0.00000000    0.00000000    0.00000000
     atom  183 type  3   force =     0.00000000    0.00000000    0.00000000
     atom  184 type  3   force =     0.00000000    0.00000000    0.00000000
     atom  185 type  1   force =     0.00000000    0.00000000    0.00000000
     atom  186 type  1   force =     0.00000000    0.00000000    0.00000000
     atom  187 type  1   force =     0.00000000    0.00000000    0.00000000
     atom  188 type  1   force =     0.00000000    0.00000000    0.00000000
     atom  189 type  1   force =     0.00000000    0.00000000    0.00000000
     atom  190 type  1   force =     0.00000000    0.00000000    0.00000000
     atom  191 type  1   force =     0.00000000    0.00000000    0.00000000
     atom  192 type  1   force =     0.00000000    0.00000000    0.00000000
     atom  193 type  1   force =     0.00000000    0.00000000    0.00000000
     atom  194 type  1   force =     0.00000000    0.00000000    0.00000000
     atom  195 type  1   force =     0.00000000    0.00000000    0.00000000
     atom  196 type  1   force =     0.00000000    0.00000000    0.00000000
     atom  197 type  1   force =     0.00000000    0.00000000    0.00000000
     atom  198 type  1   force =     0.00000000    0.00000000    0.00000000
     atom  199 type  1   force =     0.00000000    0.00000000    0.00000000
     atom  200 type  1   force =     0.00000000    0.00000000    0.00000000
     atom  201 type  2   force =     0.00000000    0.00000000    0.00000000
     atom  202 type  2   force =     0.00000000    0.00000000    0.00000000
     atom  203 type  2   force =     0.00000000    0.00000000    0.00000000
     atom  204 type  2   force =     0.00000000    0.00000000    0.00000000
     atom  205 type  2   force =     0.00000000    0.00000000    0.00000000
     atom  206 type  2   force =     0.00000000    0.00000000    0.00000000
     atom  207 type  2   force =     0.00000000    0.00000000    0.00000000
     atom  208 type  2   force =     0.00000000    0.00000000    0.00000000
     atom  209 type  3   force =     0.00000000    0.00000000    0.00000000
     atom  210 type  3   force =     0.00000000    0.00000000    0.00000000
     atom  211 type  3   force =     0.00000000    0.00000000    0.00000000
     atom  212 type  3   force =     0.00000000    0.00000000    0.00000000
     atom  213 type  3   force =     0.00000000    0.00000000    0.00000000
     atom  214 type  3   force =     0.00000000    0.00000000    0.00000000
     atom  215 type  3   force =     0.00000000    0.00000000    0.00000000
     atom  216 type  3   force =     0.00000000    0.00000000    0.00000000
     atom  217 type  1   force =     0.00000000    0.00000000    0.00000000
     atom  218 type  1   force =     0.00000000    0.00000000    0.00000000
     atom  219 type  1   force =     0.00000000    0.00000000    0.00000000
     atom  220 type  1   force =     0.00000000    0.00000000    0.00000000
     atom  221 type  1   force =     0.00000000    0.00000000    0.00000000
     atom  222 type  1   force =     0.00000000    0.00000000    0.00000000
     atom  223 type  1   force =     0.00000000    0.00000000    0.00000000
     atom  224 type  1   force =     0.00000000    0.00000000    0.00000000
     atom  225 type  2   force =     0.00000000    0.00000000    0.00000000
     atom  226 type  2   force =     0.00000000    0.00000000    0.00000000
     atom  227 type  2   force =     0.00000000    0.00000000    0.00000000
     atom  228 type  2   force =     0.00000000    0.00000000    0.00000000
     atom  229 type  2   force =     0.00000000    0.00000000    0.00000000
     atom  230 type  2   force =     0.00000000    0.00000000    0.00000000
     atom  231 type  2   force =     0.00000000    0.00000000    0.00000000
     atom  232 type  2   force =     0.00000000    0.00000000    0.00000000
     atom  233 type  3   force =     0.00000000    0.00000000    0.00000000
     atom  234 type  3   force =     0.00000000    0.00000000    0.00000000
     atom  235 type  3   force =     0.00000000    0.00000000    0.00000000
     atom  236 type  3   force =     0.00000000    0.00000000    0.00000000
     atom  237 type  3   force =     0.00000000    0.00000000    0.00000000
     atom  238 type  3   force =     0.00000000    0.00000000    0.00000000
     atom  239 type  3   force =     0.00000000    0.00000000    0.00000000
     atom  240 type  3   force =     0.00000000    0.00000000    0.00000000
     atom  241 type  1   force =     0.00000000    0.00000000    0.00000000
     atom  242 type  1   force =     0.00000000    0.00000000    0.00000000
     atom  243 type  1   force =     0.00000000    0.00000000    0.00000000
     atom  244 type  1   force =     0.00000000    0.00000000    0.00000000
     atom  245 type  1   force =     0.00000000    0.00000000    0.00000000
     atom  246 type  1   force =     0.00000000    0.00000000    0.00000000
     atom  247 type  1   force =     0.00000000    0.00000000    0.00000000
     atom  248 type  1   force =     0.00000000    0.00000000    0.00000000
     atom  249 type  1   force =     0.00000000    0.00000000    0.00000000
     atom  250 type  1   force =     0.00000000    0.00000000    0.00000000
     atom  251 type  1   force =     0.00000000    0.00000000    0.00000000
     atom  252 type  1   force =     0.00000000    0.00000000    0.00000000
     atom  253 type  1   force =     0.00000000    0.00000000    0.00000000
     atom  254 type  1   force =     0.00000000    0.00000000    0.00000000
     atom  255 type  1   force =     0.00000000    0.00000000    0.00000000
     atom  256 type  1   force =     0.00000000    0.00000000    0.00000000
     atom  257 type  2   force =     0.00000000    0.00000000    0.00000000
     atom  258 type  2   force =     0.00000000    0.00000000    0.00000000
     atom  259 type  2   force =     0.00000000    0.00000000    0.00000000
     atom  260 type  2   force =     0.00000000    0.00000000    0.00000000
     atom  261 type  2   force =     0.00000000    0.00000000    0.00000000
     atom  262 type  2   force =     0.00000000    0.00000000    0.00000000
     atom  263 type  2   force =     0.00000000    0.00000000    0.00000000
     atom  264 type  2   force =     0.00000000    0.00000000    0.00000000
     atom  265 type  2   force =     0.00000000    0.00000000    0.00000000
     atom  266 type  2   force =     0.00000000    0.00000000    0.00000000
     atom  267 type  2   force =     0.00000000    0.00000000    0.00000000
     atom  268 type  2   force =     0.00000000    0.00000000    0.00000000
     atom  269 type  2   force =     0.00000000    0.00000000    0.00000000
     atom  270 type  2   force =     0.00000000    0.00000000    0.00000000
     atom  271 type  2   force =     0.00000000    0.00000000    0.00000000
     atom  272 type  2   force =     0.00000000    0.00000000    0.00000000
     atom  273 type  2   force =     0.00000000    0.00000000    0.00000000
     atom  274 type  2   force =     0.00000000    0.00000000    0.00000000
     atom  275 type  2   force =     0.00000000    0.00000000    0.00000000
     atom  276 type  2   force =     0.00000000    0.00000000    0.00000000
     atom  277 type  2   force =     0.00000000    0.00000000    0.00000000
     atom  278 type  2   force =     0.00000000    0.00000000    0.00000000
     atom  279 type  2   force =     0.00000000    0.00000000    0.00000000
     atom  280 type  2   force =     0.00000000    0.00000000    0.00000000
     atom  281 type  3   force =     0.00000000    0.00000000    0.00000000
     atom  282 type  3   force =     0.00000000    0.00000000    0.00000000
     atom  283 type  3   force =     0.00000000    0.00000000    0.00000000
     atom  284 type  3   force =     0.00000000    0.00000000    0.00000000
     atom  285 type  3   force =     0.00000000    0.00000000    0.00000000
     atom  286 type  3   force =     0.00000000    0.00000000    0.00000000
     atom  287 type  3   force =     0.00000000    0.00000000    0.00000000
     atom  288 type  3   force =     0.00000000    0.00000000    0.00000000
     atom  289 type  2   force =     0.00000000    0.00000000    0.00000000
     atom  290 type  2   force =     0.00000000    0.00000000    0.00000000
     atom  291 type  2   force =     0.00000000    0.00000000    0.00000000
     atom  292 type  2   force =     0.00000000    0.00000000    0.00000000
     atom  293 type  2   force =     0.00000000    0.00000000    0.00000000
     atom  294 type  2   force =     0.00000000    0.00000000    0.00000000
     atom  295 type  2   force =     0.00000000    0.00000000    0.00000000
     atom  296 type  2   force =     0.00000000    0.00000000    0.00000000
     atom  297 type  3   force =     0.00000000    0.00000000    0.00000000
     atom  298 type  3   force =     0.00000000    0.00000000    0.00000000
     atom  299 type  3   force =     0.00000000    0.00000000    0.00000000
     atom  300 type  3   force =     0.00000000    0.00000000    0.00000000
     atom  301 type  3   force =     0.00000000    0.00000000    0.00000000
     atom  302 type  3   force =     0.00000000    0.00000000    0.00000000
     atom  303 type  3   force =     0.00000000    0.00000000    0.00000000
     atom  304 type  3   force =     0.00000000    0.00000000    0.00000000
     atom  305 type  1   force =     0.00000000    0.00000000    0.00000000
     atom  306 type  1   force =     0.00000000    0.00000000    0.00000000
     atom  307 type  1   force =     0.00000000    0.00000000    0.00000000
     atom  308 type  1   force =     0.00000000    0.00000000    0.00000000
     atom  309 type  1   force =     0.00000000    0.00000000    0.00000000
     atom  310 type  1   force =     0.00000000    0.00000000    0.00000000
     atom  311 type  1   force =     0.00000000    0.00000000    0.00000000
     atom  312 type  1   force =     0.00000000    0.00000000    0.00000000
     atom  313 type  1   force =     0.00000000    0.00000000    0.00000000
     atom  314 type  1   force =     0.00000000    0.00000000    0.00000000
     atom  315 type  1   force =     0.00000000    0.00000000    0.00000000
     atom  316 type  1   force =     0.00000000    0.00000000    0.00000000
     atom  317 type  1   force =     0.00000000    0.00000000    0.00000000
     atom  318 type  1   force =     0.00000000    0.00000000    0.00000000
     atom  319 type  1   force =     0.00000000    0.00000000    0.00000000
     atom  320 type  1   force =     0.00000000    0.00000000    0.00000000
     atom  321 type  2   force =     0.00000000    0.00000000    0.00000000
     atom  322 type  2   force =     0.00000000    0.00000000    0.00000000
     atom  323 type  2   force =     0.00000000    0.00000000    0.00000000
     atom  324 type  2   force =     0.00000000    0.00000000    0.00000000
     atom  325 type  2   force =     0.00000000    0.00000000    0.00000000
     atom  326 type  2   force =     0.00000000    0.00000000    0.00000000
     atom  327 type  2   force =     0.00000000    0.00000000    0.00000000
     atom  328 type  2   force =     0.00000000    0.00000000    0.00000000
     atom  329 type  3   force =     0.00000000    0.00000000    0.00000000
     atom  330 type  3   force =     0.00000000    0.00000000    0.00000000
     atom  331 type  3   force =     0.00000000    0.00000000    0.00000000
     atom  332 type  3   force =     0.00000000    0.00000000    0.00000000
     atom  333 type  3   force =     0.00000000    0.00000000    0.00000000
     atom  334 type  3   force =     0.00000000    0.00000000    0.00000000
     atom  335 type  3   force =     0.00000000    0.00000000    0.00000000
     atom  336 type  3   force =     0.00000000    0.00000000    0.00000000
     atom  337 type  1   force =     0.00000000    0.00000000    0.00000000
     atom  338 type  1   force =     0.00000000    0.00000000    0.00000000
     atom  339 type  1   force =     0.00000000    0.00000000    0.00000000
     atom  340 type  1   force =     0.00000000    0.00000000    0.00000000
     atom  341 type  1   force =     0.00000000    0.00000000    0.00000000
     atom  342 type  1   force =     0.00000000    0.00000000    0.00000000
     atom  343 type  1   force =     0.00000000    0.00000000    0.00000000
     atom  344 type  1   force =     0.00000000    0.00000000    0.00000000
     atom  345 type  2   force =     0.00000000    0.00000000    0.00000000
     atom  346 type  2   force =     0.00000000    0.00000000    0.00000000
     atom  347 type  2   force =     0.00000000    0.00000000    0.00000000
     atom  348 type  2   force =     0.00000000    0.00000000    0.00000000
     atom  349 type  2   force =     0.00000000    0.00000000    0.00000000
     atom  350 type  2   force =     0.00000000    0.00000000    0.00000000
     atom  351 type  2   force =     0.00000000    0.00000000    0.00000000
     atom  352 type  2   force =     0.00000000    0.00000000    0.00000000
     atom  353 type  3   force =     0.00000000    0.00000000    0.00000000
     atom  354 type  3   force =     0.00000000    0.00000000    0.00000000
     atom  355 type  3   force =     0.00000000    0.00000000    0.00000000
     atom  356 type  3   force =     0.00000000    0.00000000    0.00000000
     atom  357 type  3   force =     0.00000000    0.00000000    0.00000000
     atom  358 type  3   force =     0.00000000    0.00000000    0.00000000
     atom  359 type  3   force =     0.00000000    0.00000000    0.00000000
     atom  360 type  3   force =     0.00000000    0.00000000    0.00000000
     atom  361 type  1   force =     0.00000000    0.00000000    0.00000000
     atom  362 type  1   force =     0.00000000    0.00000000    0.00000000
     atom  363 type  1   force =     0.00000000    0.00000000    0.00000000
     atom  364 type  1   force =     0.00000000    0.00000000    0.00000000
     atom  365 type  1   force =     0.00000000    0.00000000    0.00000000
     atom  366 type  1   force =     0.00000000    0.00000000    0.00000000
     atom  367 type  1   force =     0.00000000    0.00000000    0.00000000
     atom  368 type  1   force =     0.00000000    0.00000000    0.00000000
     atom  369 type  1   force =     0.00000000    0.00000000    0.00000000
     atom  370 type  1   force =     0.00000000    0.00000000    0.00000000
     atom  371 type  1   force =     0.00000000    0.00000000    0.00000000
     atom  372 type  1   force =     0.00000000    0.00000000    0.00000000
     atom  373 type  1   force =     0.00000000    0.00000000    0.00000000
     atom  374 type  1   force =     0.00000000    0.00000000    0.00000000
     atom  375 type  1   force =     0.00000000    0.00000000    0.00000000
     atom  376 type  1   force =     0.00000000    0.00000000    0.00000000
     atom  377 type  2   force =     0.00000000    0.00000000    0.00000000
     atom  378 type  2   force =     0.00000000    0.00000000    0.00000000
     atom  379 type  2   force =     0.00000000    0.00000000    0.00000000
     atom  380 type  2   force =     0.00000000    0.00000000    0.00000000
     atom  381 type  2   force =     0.00000000    0.00000000    0.00000000
     atom  382 type  2   force =     0.00000000    0.00000000    0.00000000
     atom  383 type  2   force =     0.00000000    0.00000000    0.00000000
     atom  384 type  2   force =     0.00000000    0.00000000    0.00000000
     atom  385 type  2   force =     0.00000000    0.00000000    0.00000000
     atom  386 type  2   force =     0.00000000    0.00000000    0.00000000
     atom  387 type  2   force =     0.00000000    0.00000000    0.00000000
     atom  388 type  2   force =     0.00000000    0.00000000    0.00000000
     atom  389 type  2   force =     0.00000000    0.00000000    0.00000000
     atom  390 type  2   force =     0.00000000    0.00000000    0.00000000
     atom  391 type  2   force =     0.00000000    0.00000000    0.00000000
     atom  392 type  2   force =     0.00000000    0.00000000    0.00000000
     atom  393 type  2   force =     0.00000000    0.00000000    0.00000000
     atom  394 type  2   force =     0.00000000    0.00000000    0.00000000
     atom  395 type  2   force =     0.00000000    0.00000000    0.00000000
     atom  396 type  2   force =     0.00000000    0.00000000    0.00000000
     atom  397 type  2   force =     0.00000000    0.00000000    0.00000000
     atom  398 type  2   force =     0.00000000    0.00000000    0.00000000
     atom  399 type  2   force =     0.00000000    0.00000000    0.00000000
     atom  400 type  2   force =     0.00000000    0.00000000    0.00000000
     atom  401 type  3   force =     0.00000000    0.00000000    0.00000000
     atom  402 type  3   force =     0.00000000    0.00000000    0.00000000
     atom  403 type  3   force =     0.00000000    0.00000000    0.00000000
     atom  404 type  3   force =     0.00000000    0.00000000    0.00000000
     atom  405 type  3   force =     0.00000000    0.00000000    0.00000000
     atom  406 type  3   force =     0.00000000    0.00000000    0.00000000
     atom  407 type  3   force =     0.00000000    0.00000000    0.00000000
     atom  408 type  3   force =     0.00000000    0.00000000    0.00000000
     atom  409 type  2   force =     0.00000000    0.00000000    0.00000000
     atom  410 type  2   force =     0.00000000    0.00000000    0.00000000
     atom  411 type  2   force =     0.00000000    0.00000000    0.00000000
     atom  412 type  2   force =     0.00000000    0.00000000    0.00000000
     atom  413 type  2   force =     0.00000000    0.00000000    0.00000000
     atom  414 type  2   force =     0.00000000    0.00000000    0.00000000
     atom  415 type  2   force =     0.00000000    0.00000000    0.00000000
     atom  416 type  2   force =     0.00000000    0.00000000    0.00000000
     atom  417 type  3   force =     0.00000000    0.00000000    0.00000000
     atom  418 type  3   force =     0.00000000    0.00000000    0.00000000
     atom  419 type  3   force =     0.00000000    0.00000000    0.00000000
     atom  420 type  3   force =     0.00000000    0.00000000    0.00000000
     atom  421 type  3   force =     0.00000000    0.00000000    0.00000000
     atom  422 type  3   force =     0.00000000    0.00000000    0.00000000
     atom  423 type  3   force =     0.00000000    0.00000000    0.00000000
     atom  424 type  3   force =     0.00000000    0.00000000    0.00000000
     atom  425 type  1   force =     0.00000000    0.00000000    0.00000000
     atom  426 type  1   force =     0.00000000    0.00000000    0.00000000
     atom  427 type  1   force =     0.00000000    0.00000000    0.00000000
     atom  428 type  1   force =     0.00000000    0.00000000    0.00000000
     atom  429 type  1   force =     0.00000000    0.00000000    0.00000000
     atom  430 type  1   force =     0.00000000    0.00000000    0.00000000
     atom  431 type  1   force =     0.00000000    0.00000000    0.00000000
     atom  432 type  1   force =     0.00000000    0.00000000    0.00000000
     atom  433 type  1   force =     0.00000000    0.00000000    0.00000000
     atom  434 type  1   force =     0.00000000    0.00000000    0.00000000
     atom  435 type  1   force =     0.00000000    0.00000000    0.00000000
     atom  436 type  1   force =     0.00000000    0.00000000    0.00000000
     atom  437 type  1   force =     0.00000000    0.00000000    0.00000000
     atom  438 type  1   force =     0.00000000    0.00000000    0.00000000
     atom  439 type  1   force =     0.00000000    0.00000000    0.00000000
     atom  440 type  1   force =     0.00000000    0.00000000    0.00000000
     atom  441 type  2   force =     0.00000000    0.00000000    0.00000000
     atom  442 type  2   force =     0.00000000    0.00000000    0.00000000
     atom  443 type  2   force =     0.00000000    0.00000000    0.00000000
     atom  444 type  2   force =     0.00000000    0.00000000    0.00000000
     atom  445 type  2   force =     0.00000000    0.00000000    0.00000000
     atom  446 type  2   force =     0.00000000    0.00000000    0.00000000
     atom  447 type  2   force =     0.00000000    0.00000000    0.00000000
     atom  448 type  2   force =     0.00000000    0.00000000    0.00000000
     atom  449 type  3   force =     0.00000000    0.00000000    0.00000000
     atom  450 type  3   force =     0.00000000    0.00000000    0.00000000
     atom  451 type  3   force =     0.00000000    0.00000000    0.00000000
     atom  452 type  3   force =     0.00000000    0.00000000    0.00000000
     atom  453 type  3   force =     0.00000000    0.00000000    0.00000000
     atom  454 type  3   force =     0.00000000    0.00000000    0.00000000
     atom  455 type  3   force =     0.00000000    0.00000000    0.00000000
     atom  456 type  3   force =     0.00000000    0.00000000    0.00000000
     atom  457 type  1   force =     0.00000000    0.00000000    0.00000000
     atom  458 type  1   force =     0.00000000    0.00000000    0.00000000
     atom  459 type  1   force =     0.00000000    0.00000000    0.00000000
     atom  460 type  1   force =     0.00000000    0.00000000    0.00000000
     atom  461 type  1   force =     0.00000000    0.00000000    0.00000000
     atom  462 type  1   force =     0.00000000    0.00000000    0.00000000
     atom  463 type  1   force =     0.00000000    0.00000000    0.00000000
     atom  464 type  1   force =     0.00000000    0.00000000    0.00000000
     atom  465 type  2   force =     0.00000000    0.00000000    0.00000000
     atom  466 type  2   force =     0.00000000    0.00000000    0.00000000
     atom  467 type  2   force =     0.00000000    0.00000000    0.00000000
     atom  468 type  2   force =     0.00000000    0.00000000    0.00000000
     atom  469 type  2   force =     0.00000000    0.00000000    0.00000000
     atom  470 type  2   force =     0.00000000    0.00000000    0.00000000
     atom  471 type  2   force =     0.00000000    0.00000000    0.00000000
     atom  472 type  2   force =     0.00000000    0.00000000    0.00000000
     atom  473 type  3   force =     0.00000000    0.00000000    0.00000000
     atom  474 type  3   force =     0.00000000    0.00000000    0.00000000
     atom  475 type  3   force =     0.00000000    0.00000000    0.00000000
     atom  476 type  3   force =     0.00000000    0.00000000    0.00000000
     atom  477 type  3   force =     0.00000000    0.00000000    0.00000000
     atom  478 type  3   force =     0.00000000    0.00000000    0.00000000
     atom  479 type  3   force =     0.00000000    0.00000000    0.00000000
     atom  480 type  3   force =     0.00000000    0.00000000    0.00000000
     atom  481 type  4   force =     0.00000000    0.00000000    0.00000000
     atom  482 type  4   force =     0.00000000    0.00000000    0.00000000
     atom  483 type  4   force =     0.00000000    0.00000000    0.00000000
     atom  484 type  4   force =     0.00000000    0.00000000    0.00000000
     atom  485 type  4   force =     0.00000000    0.00000000    0.00000000
     atom  486 type  4   force =     0.00000000    0.00000000    0.00000000
     atom  487 type  4   force =     0.00000000    0.00000000    0.00000000
     atom  488 type  4   force =     0.00000000    0.00000000    0.00000000
     atom  489 type  4   force =     0.00000000    0.00000000    0.00000000
     atom  490 type  4   force =     0.00000000    0.00000000    0.00000000
     atom  491 type  4   force =     0.00000000    0.00000000    0.00000000
     atom  492 type  4   force =     0.00000000    0.00000000    0.00000000
     atom  493 type  4   force =     0.00000000    0.00000000    0.00000000
     atom  494 type  4   force =     0.00000000    0.00000000    0.00000000
     atom  495 type  4   force =     0.00000000    0.00000000    0.00000000
     atom  496 type  4   force =     0.00000000    0.00000000    0.00000000
     The SCF correction term to forces
     atom    1 type  1   force =     0.00000908   -0.00001010   -0.00000403
     atom    2 type  1   force =     0.00001182   -0.00001014   -0.00000235
     atom    3 type  1   force =     0.00001151   -0.00000874   -0.00000187
     atom    4 type  1   force =     0.00000788   -0.00001036   -0.00000395
     atom    5 type  1   force =     0.00001226   -0.00001081   -0.00000262
     atom    6 type  1   force =     0.00000669   -0.00000853   -0.00000330
     atom    7 type  1   force =     0.00000902   -0.00000859   -0.00000285
     atom    8 type  1   force =     0.00001233   -0.00001048   -0.00000259
     atom    9 type  1   force =     0.00001654   -0.00000456    0.00000014
     atom   10 type  1   force =     0.00001609   -0.00000177    0.00000051
     atom   11 type  1   force =     0.00001611   -0.00000351   -0.00000023
     atom   12 type  1   force =     0.00001352   -0.00000036    0.00000227
     atom   13 type  1   force =     0.00001363   -0.00000029    0.00000106
     atom   14 type  1   force =     0.00001771   -0.00000655   -0.00000066
     atom   15 type  1   force =     0.00001713   -0.00000515    0.00000003
     atom   16 type  1   force =     0.00001382    0.00000046    0.00000185
     atom   17 type  2   force =    -0.00000069    0.00000571    0.00000070
     atom   18 type  2   force =    -0.00000012    0.00000732    0.00000148
     atom   19 type  2   force =     0.00000006    0.00000732    0.00000157
     atom   20 type  2   force =    -0.00000044    0.00000595    0.00000074
     atom   21 type  2   force =     0.00000028    0.00000777    0.00000158
     atom   22 type  2   force =    -0.00000080    0.00000560    0.00000051
     atom   23 type  2   force =    -0.00000070    0.00000571    0.00000045
     atom   24 type  2   force =     0.00000005    0.00000766    0.00000159
     atom   25 type  2   force =    -0.00000189    0.00000070    0.00000151
     atom   26 type  2   force =    -0.00000347    0.00000337    0.00000269
     atom   27 type  2   force =    -0.00000337    0.00000325    0.00000282
     atom   28 type  2   force =    -0.00000074    0.00000153    0.00000198
     atom   29 type  2   force =    -0.00000340    0.00000395    0.00000303
     atom   30 type  2   force =    -0.00000205    0.00000020    0.00000118
     atom   31 type  2   force =    -0.00000177    0.00000042    0.00000121
     atom   32 type  2   force =    -0.00000214    0.00000377    0.00000320
     atom   33 type  2   force =    -0.00000620    0.00000294    0.00000283
     atom   34 type  2   force =    -0.00000669    0.00000113    0.00000217
     atom   35 type  2   force =    -0.00000692    0.00000142    0.00000208
     atom   36 type  2   force =    -0.00000763    0.00000246    0.00000291
     atom   37 type  2   force =    -0.00000748    0.00000124    0.00000221
     atom   38 type  2   force =    -0.00000656    0.00000252    0.00000308
     atom   39 type  2   force =    -0.00000739    0.00000262    0.00000312
     atom   40 type  2   force =    -0.00000768    0.00000143    0.00000216
     atom   41 type  3   force =    -0.00000057   -0.00000116    0.00000137
     atom   42 type  3   force =    -0.00000041   -0.00000156    0.00000122
     atom   43 type  3   force =    -0.00000043   -0.00000149    0.00000123
     atom   44 type  3   force =    -0.00000064   -0.00000149    0.00000140
     atom   45 type  3   force =    -0.00000051   -0.00000163    0.00000123
     atom   46 type  3   force =    -0.00000069   -0.00000123    0.00000144
     atom   47 type  3   force =    -0.00000069   -0.00000141    0.00000147
     atom   48 type  3   force =    -0.00000046   -0.00000168    0.00000123
     atom   49 type  2   force =    -0.00000033    0.00000744   -0.00000302
     atom   50 type  2   force =     0.00000042    0.00000812   -0.00000325
     atom   51 type  2   force =     0.00000013    0.00000815   -0.00000348
     atom   52 type  2   force =     0.00000014    0.00000847   -0.00000328
     atom   53 type  2   force =    -0.00000013    0.00000692   -0.00000333
     atom   54 type  2   force =    -0.00000065    0.00000780   -0.00000274
     atom   55 type  2   force =    -0.00000056    0.00000887   -0.00000291
     atom   56 type  2   force =     0.00000024    0.00000742   -0.00000347
     atom   57 type  3   force =     0.00000184    0.00000087   -0.00000088
     atom   58 type  3   force =     0.00000136    0.00000110   -0.00000084
     atom   59 type  3   force =     0.00000137    0.00000105   -0.00000092
     atom   60 type  3   force =     0.00000177    0.00000103   -0.00000093
     atom   61 type  3   force =     0.00000137    0.00000083   -0.00000089
     atom   62 type  3   force =     0.00000172    0.00000093   -0.00000081
     atom   63 type  3   force =     0.00000193    0.00000106   -0.00000086
     atom   64 type  3   force =     0.00000141    0.00000087   -0.00000093
     atom   65 type  1   force =     0.00000389    0.00000818    0.00000811
     atom   66 type  1   force =     0.00000103    0.00001195    0.00000987
     atom   67 type  1   force =     0.00000245    0.00001173    0.00001017
     atom   68 type  1   force =     0.00000064    0.00000771    0.00000721
     atom   69 type  1   force =    -0.00000026    0.00001136    0.00000918
     atom   70 type  1   force =     0.00000546    0.00000811    0.00000837
     atom   71 type  1   force =     0.00000435    0.00000822    0.00000816
     atom   72 type  1   force =    -0.00000002    0.00001110    0.00000935
     atom   73 type  1   force =     0.00001418    0.00001345    0.00001275
     atom   74 type  1   force =     0.00001581    0.00001559    0.00001338
     atom   75 type  1   force =     0.00001638    0.00001383    0.00001263
     atom   76 type  1   force =     0.00001163    0.00001417    0.00001289
     atom   77 type  1   force =     0.00001385    0.00001418    0.00001212
     atom   78 type  1   force =     0.00001509    0.00001298    0.00001278
     atom   79 type  1   force =     0.00001444    0.00001345    0.00001301
     atom   80 type  1   force =     0.00001380    0.00001541    0.00001328
     atom   81 type  2   force =    -0.00001235    0.00000667   -0.00000266
     atom   82 type  2   force =    -0.00001124    0.00000632   -0.00000243
     atom   83 type  2   force =    -0.00001319    0.00000694   -0.00000242
     atom   84 type  2   force =    -0.00001296    0.00000696   -0.00000263
     atom   85 type  2   force =    -0.00001038    0.00000599   -0.00000216
     atom   86 type  2   force =    -0.00001256    0.00000713   -0.00000262
     atom   87 type  2   force =    -0.00001273    0.00000719   -0.00000276
     atom   88 type  2   force =    -0.00001287    0.00000734   -0.00000236
     atom   89 type  3   force =    -0.00000223    0.00000040   -0.00000077
     atom   90 type  3   force =    -0.00000216    0.00000079   -0.00000080
     atom   91 type  3   force =    -0.00000204    0.00000081   -0.00000079
     atom   92 type  3   force =    -0.00000236    0.00000057   -0.00000080
     atom   93 type  3   force =    -0.00000225    0.00000083   -0.00000077
     atom   94 type  3   force =    -0.00000211    0.00000027   -0.00000064
     atom   95 type  3   force =    -0.00000219    0.00000056   -0.00000071
     atom   96 type  3   force =    -0.00000221    0.00000084   -0.00000080
     atom   97 type  1   force =    -0.00000995    0.00000066   -0.00000351
     atom   98 type  1   force =    -0.00001052    0.00000196   -0.00000419
     atom   99 type  1   force =    -0.00001095    0.00000220   -0.00000444
     atom  100 type  1   force =    -0.00001230    0.00000093   -0.00000373
     atom  101 type  1   force =    -0.00000978    0.00000298   -0.00000415
     atom  102 type  1   force =    -0.00000947    0.00000028   -0.00000369
     atom  103 type  1   force =    -0.00001087    0.00000160   -0.00000421
     atom  104 type  1   force =    -0.00001044    0.00000281   -0.00000440
     atom  105 type  2   force =     0.00000825   -0.00000985   -0.00000065
     atom  106 type  2   force =     0.00000811   -0.00000753   -0.00000073
     atom  107 type  2   force =     0.00000765   -0.00000723   -0.00000082
     atom  108 type  2   force =     0.00000937   -0.00001025   -0.00000050
     atom  109 type  2   force =     0.00000835   -0.00000783   -0.00000076
     atom  110 type  2   force =     0.00000955   -0.00000949   -0.00000048
     atom  111 type  2   force =     0.00000932   -0.00000941   -0.00000052
     atom  112 type  2   force =     0.00000856   -0.00000756   -0.00000078
     atom  113 type  3   force =    -0.00000041    0.00000124    0.00000001
     atom  114 type  3   force =    -0.00000020    0.00000114    0.00000003
     atom  115 type  3   force =    -0.00000031    0.00000121   -0.00000002
     atom  116 type  3   force =    -0.00000037    0.00000135    0.00000000
     atom  117 type  3   force =    -0.00000028    0.00000124   -0.00000003
     atom  118 type  3   force =    -0.00000046    0.00000114    0.00000006
     atom  119 type  3   force =    -0.00000053    0.00000129    0.00000004
     atom  120 type  3   force =    -0.00000029    0.00000131   -0.00000004
     atom  121 type  1   force =    -0.00000890    0.00000980   -0.00000370
     atom  122 type  1   force =    -0.00001240    0.00001031   -0.00000210
     atom  123 type  1   force =    -0.00001085    0.00000926   -0.00000233
     atom  124 type  1   force =    -0.00000927    0.00001014   -0.00000390
     atom  125 type  1   force =    -0.00001335    0.00000959   -0.00000209
     atom  126 type  1   force =    -0.00000851    0.00000834   -0.00000293
     atom  127 type  1   force =    -0.00000700    0.00000854   -0.00000332
     atom  128 type  1   force =    -0.00001269    0.00000961   -0.00000231
     atom  129 type  1   force =    -0.00001479    0.00000100    0.00000107
     atom  130 type  1   force =    -0.00001677    0.00000509    0.00000022
     atom  131 type  1   force =    -0.00001512    0.00000277    0.00000095
     atom  132 type  1   force =    -0.00001602    0.00000223    0.00000033
     atom  133 type  1   force =    -0.00001615    0.00000312    0.00000106
     atom  134 type  1   force =    -0.00001446   -0.00000021    0.00000161
     atom  135 type  1   force =    -0.00001403   -0.00000075    0.00000179
     atom  136 type  1   force =    -0.00001608    0.00000307    0.00000097
     atom  137 type  2   force =     0.00000001   -0.00000735    0.00000149
     atom  138 type  2   force =     0.00000111   -0.00000529    0.00000083
     atom  139 type  2   force =     0.00000085   -0.00000583    0.00000079
     atom  140 type  2   force =     0.00000018   -0.00000678    0.00000134
     atom  141 type  2   force =     0.00000119   -0.00000509    0.00000032
     atom  142 type  2   force =     0.00000023   -0.00000796    0.00000190
     atom  143 type  2   force =    -0.00000007   -0.00000743    0.00000160
     atom  144 type  2   force =     0.00000098   -0.00000565    0.00000035
     atom  145 type  2   force =     0.00000267   -0.00000318    0.00000285
     atom  146 type  2   force =     0.00000160   -0.00000030    0.00000160
     atom  147 type  2   force =     0.00000186   -0.00000121    0.00000180
     atom  148 type  2   force =     0.00000283   -0.00000252    0.00000246
     atom  149 type  2   force =     0.00000121   -0.00000094    0.00000156
     atom  150 type  2   force =     0.00000295   -0.00000483    0.00000376
     atom  151 type  2   force =     0.00000393   -0.00000444    0.00000325
     atom  152 type  2   force =     0.00000143   -0.00000059    0.00000121
     atom  153 type  2   force =     0.00000703   -0.00000106    0.00000188
     atom  154 type  2   force =     0.00000741   -0.00000269    0.00000317
     atom  155 type  2   force =     0.00000623   -0.00000290    0.00000282
     atom  156 type  2   force =     0.00000698   -0.00000158    0.00000199
     atom  157 type  2   force =     0.00000738   -0.00000254    0.00000291
     atom  158 type  2   force =     0.00000780   -0.00000090    0.00000229
     atom  159 type  2   force =     0.00000733   -0.00000141    0.00000225
     atom  160 type  2   force =     0.00000753   -0.00000248    0.00000289
     atom  161 type  3   force =     0.00000049    0.00000147    0.00000115
     atom  162 type  3   force =     0.00000072    0.00000137    0.00000146
     atom  163 type  3   force =     0.00000066    0.00000112    0.00000138
     atom  164 type  3   force =     0.00000046    0.00000135    0.00000117
     atom  165 type  3   force =     0.00000060    0.00000145    0.00000139
     atom  166 type  3   force =     0.00000052    0.00000171    0.00000124
     atom  167 type  3   force =     0.00000050    0.00000154    0.00000123
     atom  168 type  3   force =     0.00000065    0.00000138    0.00000140
     atom  169 type  2   force =     0.00000060   -0.00000726   -0.00000296
     atom  170 type  2   force =     0.00000013   -0.00000703   -0.00000327
     atom  171 type  2   force =    -0.00000014   -0.00000778   -0.00000348
     atom  172 type  2   force =     0.00000016   -0.00000863   -0.00000307
     atom  173 type  2   force =     0.00000009   -0.00000701   -0.00000326
     atom  174 type  2   force =     0.00000067   -0.00000750   -0.00000297
     atom  175 type  2   force =     0.00000020   -0.00000827   -0.00000315
     atom  176 type  2   force =    -0.00000002   -0.00000732   -0.00000345
     atom  177 type  3   force =    -0.00000189   -0.00000081   -0.00000086
     atom  178 type  3   force =    -0.00000125   -0.00000093   -0.00000087
     atom  179 type  3   force =    -0.00000128   -0.00000111   -0.00000092
     atom  180 type  3   force =    -0.00000201   -0.00000099   -0.00000089
     atom  181 type  3   force =    -0.00000140   -0.00000089   -0.00000088
     atom  182 type  3   force =    -0.00000174   -0.00000089   -0.00000086
     atom  183 type  3   force =    -0.00000174   -0.00000110   -0.00000091
     atom  184 type  3   force =    -0.00000143   -0.00000095   -0.00000092
     atom  185 type  1   force =    -0.00000037   -0.00001071    0.00000936
     atom  186 type  1   force =    -0.00000436   -0.00000776    0.00000834
     atom  187 type  1   force =    -0.00000194   -0.00000817    0.00000807
     atom  188 type  1   force =    -0.00000145   -0.00001061    0.00000939
     atom  189 type  1   force =    -0.00000345   -0.00000778    0.00000755
     atom  190 type  1   force =    -0.00000051   -0.00001217    0.00000998
     atom  191 type  1   force =     0.00000147   -0.00001235    0.00000964
     atom  192 type  1   force =    -0.00000289   -0.00000744    0.00000735
     atom  193 type  1   force =    -0.00001451   -0.00001491    0.00001313
     atom  194 type  1   force =    -0.00001413   -0.00001344    0.00001309
     atom  195 type  1   force =    -0.00001301   -0.00001373    0.00001294
     atom  196 type  1   force =    -0.00001510   -0.00001442    0.00001282
     atom  197 type  1   force =    -0.00001416   -0.00001428    0.00001332
     atom  198 type  1   force =    -0.00001579   -0.00001591    0.00001365
     atom  199 type  1   force =    -0.00001460   -0.00001560    0.00001304
     atom  200 type  1   force =    -0.00001327   -0.00001376    0.00001295
     atom  201 type  2   force =     0.00001261   -0.00000683   -0.00000244
     atom  202 type  2   force =     0.00001302   -0.00000682   -0.00000261
     atom  203 type  2   force =     0.00001194   -0.00000647   -0.00000246
     atom  204 type  2   force =     0.00001242   -0.00000634   -0.00000265
     atom  205 type  2   force =     0.00001252   -0.00000687   -0.00000289
     atom  206 type  2   force =     0.00001253   -0.00000715   -0.00000214
     atom  207 type  2   force =     0.00001025   -0.00000584   -0.00000216
     atom  208 type  2   force =     0.00001184   -0.00000658   -0.00000277
     atom  209 type  3   force =     0.00000230   -0.00000053   -0.00000077
     atom  210 type  3   force =     0.00000219   -0.00000085   -0.00000082
     atom  211 type  3   force =     0.00000203   -0.00000073   -0.00000071
     atom  212 type  3   force =     0.00000226   -0.00000053   -0.00000087
     atom  213 type  3   force =     0.00000216   -0.00000085   -0.00000087
     atom  214 type  3   force =     0.00000220   -0.00000048   -0.00000068
     atom  215 type  3   force =     0.00000205   -0.00000032   -0.00000065
     atom  216 type  3   force =     0.00000215   -0.00000075   -0.00000083
     atom  217 type  1   force =     0.00001104   -0.00000155   -0.00000414
     atom  218 type  1   force =     0.00001127   -0.00000202   -0.00000433
     atom  219 type  1   force =     0.00001041   -0.00000150   -0.00000393
     atom  220 type  1   force =     0.00001165   -0.00000077   -0.00000401
     atom  221 type  1   force =     0.00001053   -0.00000300   -0.00000453
     atom  222 type  1   force =     0.00001124   -0.00000056   -0.00000374
     atom  223 type  1   force =     0.00000986    0.00000035   -0.00000342
     atom  224 type  1   force =     0.00000976   -0.00000247   -0.00000420
     atom  225 type  2   force =    -0.00000840    0.00000965   -0.00000062
     atom  226 type  2   force =    -0.00000774    0.00000751   -0.00000066
     atom  227 type  2   force =    -0.00000828    0.00000785   -0.00000087
     atom  228 type  2   force =    -0.00000953    0.00000942   -0.00000062
     atom  229 type  2   force =    -0.00000882    0.00000762   -0.00000077
     atom  230 type  2   force =    -0.00000858    0.00000939   -0.00000034
     atom  231 type  2   force =    -0.00000980    0.00001024   -0.00000041
     atom  232 type  2   force =    -0.00000926    0.00000779   -0.00000081
     atom  233 type  3   force =     0.00000043   -0.00000122    0.00000001
     atom  234 type  3   force =     0.00000027   -0.00000127    0.00000001
     atom  235 type  3   force =     0.00000017   -0.00000118   -0.00000001
     atom  236 type  3   force =     0.00000046   -0.00000130    0.00000003
     atom  237 type  3   force =     0.00000022   -0.00000128   -0.00000002
     atom  238 type  3   force =     0.00000038   -0.00000139    0.00000003
     atom  239 type  3   force =     0.00000032   -0.00000136    0.00000002
     atom  240 type  3   force =     0.00000018   -0.00000125   -0.00000003
     atom  241 type  1   force =    -0.00001136   -0.00001217    0.00000320
     atom  242 type  1   force =    -0.00000898   -0.00000751    0.00000380
     atom  243 type  1   force =    -0.00000934   -0.00000887    0.00000367
     atom  244 type  1   force =    -0.00001148   -0.00001256    0.00000318
     atom  245 type  1   force =    -0.00000911   -0.00000771    0.00000325
     atom  246 type  1   force =    -0.00000944   -0.00001218    0.00000228
     atom  247 type  1   force =    -0.00000991   -0.00001177    0.00000285
     atom  248 type  1   force =    -0.00000896   -0.00000791    0.00000320
     atom  249 type  1   force =    -0.00000695   -0.00001832    0.00000121
     atom  250 type  1   force =    -0.00000014   -0.00001502   -0.00000133
     atom  251 type  1   force =    -0.00000119   -0.00001617   -0.00000087
     atom  252 type  1   force =    -0.00000614   -0.00001737    0.00000075
     atom  253 type  1   force =     0.00000072   -0.00001405   -0.00000195
     atom  254 type  1   force =    -0.00000217   -0.00001543   -0.00000118
     atom  255 type  1   force =    -0.00000375   -0.00001624   -0.00000002
     atom  256 type  1   force =     0.00000061   -0.00001398   -0.00000200
     atom  257 type  2   force =     0.00000512    0.00000110   -0.00000045
     atom  258 type  2   force =     0.00000754    0.00000013   -0.00000159
     atom  259 type  2   force =     0.00000723   -0.00000014   -0.00000151
     atom  260 type  2   force =     0.00000467    0.00000105   -0.00000074
     atom  261 type  2   force =     0.00000692    0.00000018   -0.00000175
     atom  262 type  2   force =     0.00000574    0.00000040   -0.00000041
     atom  263 type  2   force =     0.00000559    0.00000024   -0.00000054
     atom  264 type  2   force =     0.00000689    0.00000004   -0.00000194
     atom  265 type  2   force =    -0.00000053    0.00000232   -0.00000062
     atom  266 type  2   force =     0.00000503    0.00000423   -0.00000351
     atom  267 type  2   force =     0.00000471    0.00000413   -0.00000329
     atom  268 type  2   force =    -0.00000091    0.00000145   -0.00000091
     atom  269 type  2   force =     0.00000412    0.00000383   -0.00000343
     atom  270 type  2   force =     0.00000128    0.00000136   -0.00000156
     atom  271 type  2   force =     0.00000107    0.00000182   -0.00000148
     atom  272 type  2   force =     0.00000454    0.00000355   -0.00000376
     atom  273 type  2   force =     0.00000132    0.00000720   -0.00000221
     atom  274 type  2   force =     0.00000288    0.00000608   -0.00000288
     atom  275 type  2   force =     0.00000284    0.00000626   -0.00000285
     atom  276 type  2   force =     0.00000064    0.00000739   -0.00000239
     atom  277 type  2   force =     0.00000265    0.00000635   -0.00000293
     atom  278 type  2   force =     0.00000124    0.00000687   -0.00000196
     atom  279 type  2   force =     0.00000125    0.00000702   -0.00000208
     atom  280 type  2   force =     0.00000241    0.00000679   -0.00000308
     atom  281 type  3   force =    -0.00000148    0.00000050   -0.00000123
     atom  282 type  3   force =    -0.00000100    0.00000071   -0.00000138
     atom  283 type  3   force =    -0.00000106    0.00000069   -0.00000140
     atom  284 type  3   force =    -0.00000163    0.00000049   -0.00000125
     atom  285 type  3   force =    -0.00000108    0.00000067   -0.00000135
     atom  286 type  3   force =    -0.00000159    0.00000043   -0.00000118
     atom  287 type  3   force =    -0.00000162    0.00000046   -0.00000121
     atom  288 type  3   force =    -0.00000114    0.00000073   -0.00000141
     atom  289 type  2   force =     0.00000791    0.00000000    0.00000332
     atom  290 type  2   force =     0.00000904    0.00000035    0.00000296
     atom  291 type  2   force =     0.00000867    0.00000042    0.00000282
     atom  292 type  2   force =     0.00000752    0.00000007    0.00000334
     atom  293 type  2   force =     0.00000724    0.00000074    0.00000302
     atom  294 type  2   force =     0.00000795   -0.00000052    0.00000350
     atom  295 type  2   force =     0.00000741   -0.00000038    0.00000350
     atom  296 type  2   force =     0.00000728    0.00000079    0.00000275
     atom  297 type  3   force =     0.00000107   -0.00000133    0.00000088
     atom  298 type  3   force =     0.00000111   -0.00000192    0.00000086
     atom  299 type  3   force =     0.00000103   -0.00000197    0.00000082
     atom  300 type  3   force =     0.00000102   -0.00000117    0.00000092
     atom  301 type  3   force =     0.00000090   -0.00000185    0.00000091
     atom  302 type  3   force =     0.00000101   -0.00000132    0.00000092
     atom  303 type  3   force =     0.00000092   -0.00000137    0.00000093
     atom  304 type  3   force =     0.00000081   -0.00000179    0.00000082
     atom  305 type  1   force =     0.00000808   -0.00000526   -0.00000805
     atom  306 type  1   force =     0.00001287    0.00000028   -0.00001025
     atom  307 type  1   force =     0.00001304   -0.00000125   -0.00001020
     atom  308 type  1   force =     0.00000728   -0.00000463   -0.00000801
     atom  309 type  1   force =     0.00001143    0.00000150   -0.00000958
     atom  310 type  1   force =     0.00000847   -0.00000216   -0.00000763
     atom  311 type  1   force =     0.00000894   -0.00000328   -0.00000809
     atom  312 type  1   force =     0.00001180    0.00000093   -0.00000986
     atom  313 type  1   force =     0.00001285   -0.00001473   -0.00001228
     atom  314 type  1   force =     0.00001587   -0.00001651   -0.00001386
     atom  315 type  1   force =     0.00001629   -0.00001753   -0.00001392
     atom  316 type  1   force =     0.00001268   -0.00001361   -0.00001236
     atom  317 type  1   force =     0.00001556   -0.00001455   -0.00001351
     atom  318 type  1   force =     0.00001459   -0.00001325   -0.00001319
     atom  319 type  1   force =     0.00001415   -0.00001416   -0.00001283
     atom  320 type  1   force =     0.00001577   -0.00001510   -0.00001384
     atom  321 type  2   force =     0.00000671    0.00001335    0.00000280
     atom  322 type  2   force =     0.00000661    0.00001145    0.00000227
     atom  323 type  2   force =     0.00000664    0.00001145    0.00000222
     atom  324 type  2   force =     0.00000677    0.00001344    0.00000271
     atom  325 type  2   force =     0.00000549    0.00001054    0.00000218
     atom  326 type  2   force =     0.00000720    0.00001260    0.00000277
     atom  327 type  2   force =     0.00000699    0.00001241    0.00000267
     atom  328 type  2   force =     0.00000602    0.00001101    0.00000196
     atom  329 type  3   force =     0.00000081    0.00000234    0.00000089
     atom  330 type  3   force =     0.00000039    0.00000223    0.00000070
     atom  331 type  3   force =     0.00000053    0.00000215    0.00000068
     atom  332 type  3   force =     0.00000084    0.00000228    0.00000092
     atom  333 type  3   force =     0.00000024    0.00000211    0.00000070
     atom  334 type  3   force =     0.00000085    0.00000211    0.00000080
     atom  335 type  3   force =     0.00000086    0.00000206    0.00000078
     atom  336 type  3   force =     0.00000040    0.00000206    0.00000065
     atom  337 type  1   force =     0.00000230    0.00001092    0.00000430
     atom  338 type  1   force =     0.00000064    0.00001042    0.00000356
     atom  339 type  1   force =     0.00000047    0.00001094    0.00000343
     atom  340 type  1   force =     0.00000271    0.00001074    0.00000436
     atom  341 type  1   force =    -0.00000039    0.00001060    0.00000369
     atom  342 type  1   force =     0.00000291    0.00000974    0.00000465
     atom  343 type  1   force =     0.00000248    0.00000985    0.00000444
     atom  344 type  1   force =    -0.00000018    0.00001088    0.00000322
     atom  345 type  2   force =    -0.00000745   -0.00000798    0.00000071
     atom  346 type  2   force =    -0.00000963   -0.00000804    0.00000061
     atom  347 type  2   force =    -0.00000986   -0.00000809    0.00000041
     atom  348 type  2   force =    -0.00000729   -0.00000866    0.00000065
     atom  349 type  2   force =    -0.00001011   -0.00000859    0.00000041
     atom  350 type  2   force =    -0.00000759   -0.00000871    0.00000098
     atom  351 type  2   force =    -0.00000749   -0.00000879    0.00000084
     atom  352 type  2   force =    -0.00001007   -0.00000853    0.00000030
     atom  353 type  3   force =     0.00000123    0.00000027   -0.00000001
     atom  354 type  3   force =     0.00000118    0.00000048   -0.00000007
     atom  355 type  3   force =     0.00000124    0.00000045   -0.00000009
     atom  356 type  3   force =     0.00000115    0.00000024    0.00000002
     atom  357 type  3   force =     0.00000124    0.00000035   -0.00000004
     atom  358 type  3   force =     0.00000118    0.00000024    0.00000003
     atom  359 type  3   force =     0.00000119    0.00000024    0.00000004
     atom  360 type  3   force =     0.00000125    0.00000043   -0.00000005
     atom  361 type  1   force =     0.00001109    0.00001222    0.00000282
     atom  362 type  1   force =     0.00000874    0.00000917    0.00000351
     atom  363 type  1   force =     0.00000912    0.00000877    0.00000319
     atom  364 type  1   force =     0.00001117    0.00001147    0.00000363
     atom  365 type  1   force =     0.00000920    0.00000683    0.00000390
     atom  366 type  1   force =     0.00000950    0.00001298    0.00000230
     atom  367 type  1   force =     0.00000914    0.00001193    0.00000208
     atom  368 type  1   force =     0.00000919    0.00000752    0.00000369
     atom  369 type  1   force =     0.00000035    0.00001501   -0.00000160
     atom  370 type  1   force =     0.00000634    0.00001746    0.00000128
     atom  371 type  1   force =     0.00000585    0.00001743    0.00000065
     atom  372 type  1   force =    -0.00000016    0.00001485   -0.00000152
     atom  373 type  1   force =     0.00000207    0.00001503   -0.00000143
     atom  374 type  1   force =     0.00000054    0.00001508   -0.00000141
     atom  375 type  1   force =     0.00000086    0.00001512   -0.00000106
     atom  376 type  1   force =     0.00000320    0.00001574   -0.00000067
     atom  377 type  2   force =    -0.00000774   -0.00000005   -0.00000158
     atom  378 type  2   force =    -0.00000496   -0.00000109   -0.00000022
     atom  379 type  2   force =    -0.00000518   -0.00000077   -0.00000085
     atom  380 type  2   force =    -0.00000793   -0.00000035   -0.00000137
     atom  381 type  2   force =    -0.00000657   -0.00000045   -0.00000053
     atom  382 type  2   force =    -0.00000742   -0.00000012   -0.00000178
     atom  383 type  2   force =    -0.00000738   -0.00000002   -0.00000187
     atom  384 type  2   force =    -0.00000621   -0.00000073   -0.00000059
     atom  385 type  2   force =    -0.00000425   -0.00000317   -0.00000324
     atom  386 type  2   force =     0.00000025   -0.00000225   -0.00000065
     atom  387 type  2   force =    -0.00000034   -0.00000209   -0.00000156
     atom  388 type  2   force =    -0.00000463   -0.00000305   -0.00000326
     atom  389 type  2   force =    -0.00000128   -0.00000119   -0.00000163
     atom  390 type  2   force =    -0.00000470   -0.00000437   -0.00000349
     atom  391 type  2   force =    -0.00000476   -0.00000457   -0.00000363
     atom  392 type  2   force =    -0.00000101   -0.00000108   -0.00000167
     atom  393 type  2   force =    -0.00000252   -0.00000623   -0.00000276
     atom  394 type  2   force =    -0.00000108   -0.00000706   -0.00000206
     atom  395 type  2   force =    -0.00000110   -0.00000739   -0.00000242
     atom  396 type  2   force =    -0.00000266   -0.00000629   -0.00000283
     atom  397 type  2   force =    -0.00000140   -0.00000671   -0.00000202
     atom  398 type  2   force =    -0.00000277   -0.00000655   -0.00000312
     atom  399 type  2   force =    -0.00000253   -0.00000672   -0.00000320
     atom  400 type  2   force =    -0.00000127   -0.00000714   -0.00000216
     atom  401 type  3   force =     0.00000108   -0.00000062   -0.00000134
     atom  402 type  3   force =     0.00000144   -0.00000052   -0.00000120
     atom  403 type  3   force =     0.00000163   -0.00000052   -0.00000126
     atom  404 type  3   force =     0.00000111   -0.00000063   -0.00000138
     atom  405 type  3   force =     0.00000176   -0.00000035   -0.00000119
     atom  406 type  3   force =     0.00000107   -0.00000077   -0.00000144
     atom  407 type  3   force =     0.00000120   -0.00000076   -0.00000144
     atom  408 type  3   force =     0.00000175   -0.00000038   -0.00000122
     atom  409 type  2   force =    -0.00000749   -0.00000003    0.00000330
     atom  410 type  2   force =    -0.00000799   -0.00000037    0.00000294
     atom  411 type  2   force =    -0.00000881   -0.00000006    0.00000309
     atom  412 type  2   force =    -0.00000775    0.00000008    0.00000340
     atom  413 type  2   force =    -0.00000808   -0.00000079    0.00000279
     atom  414 type  2   force =    -0.00000816    0.00000063    0.00000366
     atom  415 type  2   force =    -0.00000811    0.00000058    0.00000353
     atom  416 type  2   force =    -0.00000878   -0.00000043    0.00000291
     atom  417 type  3   force =    -0.00000098    0.00000130    0.00000086
     atom  418 type  3   force =    -0.00000094    0.00000181    0.00000083
     atom  419 type  3   force =    -0.00000104    0.00000185    0.00000088
     atom  420 type  3   force =    -0.00000102    0.00000124    0.00000093
     atom  421 type  3   force =    -0.00000089    0.00000189    0.00000082
     atom  422 type  3   force =    -0.00000100    0.00000135    0.00000096
     atom  423 type  3   force =    -0.00000103    0.00000131    0.00000093
     atom  424 type  3   force =    -0.00000102    0.00000194    0.00000086
     atom  425 type  1   force =    -0.00001157    0.00000039   -0.00000948
     atom  426 type  1   force =    -0.00000803    0.00000453   -0.00000791
     atom  427 type  1   force =    -0.00000837    0.00000491   -0.00000860
     atom  428 type  1   force =    -0.00001172    0.00000035   -0.00000948
     atom  429 type  1   force =    -0.00000805    0.00000218   -0.00000761
     atom  430 type  1   force =    -0.00001267   -0.00000019   -0.00001028
     atom  431 type  1   force =    -0.00001288   -0.00000017   -0.00001073
     atom  432 type  1   force =    -0.00000775    0.00000365   -0.00000781
     atom  433 type  1   force =    -0.00001563    0.00001565   -0.00001354
     atom  434 type  1   force =    -0.00001240    0.00001449   -0.00001191
     atom  435 type  1   force =    -0.00001341    0.00001517   -0.00001287
     atom  436 type  1   force =    -0.00001606    0.00001572   -0.00001392
     atom  437 type  1   force =    -0.00001411    0.00001274   -0.00001295
     atom  438 type  1   force =    -0.00001562    0.00001635   -0.00001376
     atom  439 type  1   force =    -0.00001525    0.00001658   -0.00001367
     atom  440 type  1   force =    -0.00001413    0.00001357   -0.00001324
     atom  441 type  2   force =    -0.00000679   -0.00001070    0.00000211
     atom  442 type  2   force =    -0.00000651   -0.00001287    0.00000305
     atom  443 type  2   force =    -0.00000682   -0.00001350    0.00000263
     atom  444 type  2   force =    -0.00000696   -0.00001157    0.00000248
     atom  445 type  2   force =    -0.00000735   -0.00001281    0.00000272
     atom  446 type  2   force =    -0.00000621   -0.00001128    0.00000218
     atom  447 type  2   force =    -0.00000660   -0.00001204    0.00000223
     atom  448 type  2   force =    -0.00000759   -0.00001324    0.00000270
     atom  449 type  3   force =    -0.00000082   -0.00000231    0.00000089
     atom  450 type  3   force =    -0.00000033   -0.00000228    0.00000073
     atom  451 type  3   force =    -0.00000034   -0.00000222    0.00000063
     atom  452 type  3   force =    -0.00000073   -0.00000231    0.00000095
     atom  453 type  3   force =    -0.00000041   -0.00000225    0.00000071
     atom  454 type  3   force =    -0.00000088   -0.00000221    0.00000077
     atom  455 type  3   force =    -0.00000072   -0.00000223    0.00000079
     atom  456 type  3   force =    -0.00000035   -0.00000218    0.00000069
     atom  457 type  1   force =    -0.00000255   -0.00001067    0.00000442
     atom  458 type  1   force =    -0.00000102   -0.00000947    0.00000405
     atom  459 type  1   force =    -0.00000073   -0.00000921    0.00000348
     atom  460 type  1   force =    -0.00000214   -0.00001031    0.00000437
     atom  461 type  1   force =    -0.00000026   -0.00001117    0.00000361
     atom  462 type  1   force =    -0.00000331   -0.00000948    0.00000459
     atom  463 type  1   force =    -0.00000298   -0.00000896    0.00000472
     atom  464 type  1   force =     0.00000020   -0.00001077    0.00000335
     atom  465 type  2   force =     0.00000781    0.00000831    0.00000070
     atom  466 type  2   force =     0.00001022    0.00000789    0.00000048
     atom  467 type  2   force =     0.00001030    0.00000822    0.00000042
     atom  468 type  2   force =     0.00000688    0.00000842    0.00000067
     atom  469 type  2   force =     0.00000969    0.00000806    0.00000052
     atom  470 type  2   force =     0.00000739    0.00000818    0.00000084
     atom  471 type  2   force =     0.00000743    0.00000839    0.00000090
     atom  472 type  2   force =     0.00000956    0.00000860    0.00000040
     atom  473 type  3   force =    -0.00000116   -0.00000025   -0.00000002
     atom  474 type  3   force =    -0.00000117   -0.00000044   -0.00000004
     atom  475 type  3   force =    -0.00000118   -0.00000046   -0.00000010
     atom  476 type  3   force =    -0.00000118   -0.00000028    0.00000001
     atom  477 type  3   force =    -0.00000120   -0.00000055   -0.00000005
     atom  478 type  3   force =    -0.00000114   -0.00000034    0.00000005
     atom  479 type  3   force =    -0.00000121   -0.00000028    0.00000003
     atom  480 type  3   force =    -0.00000119   -0.00000048   -0.00000009
     atom  481 type  4   force =     0.00000159    0.00000173   -0.00000682
     atom  482 type  4   force =     0.00000007    0.00000055    0.00000714
     atom  483 type  4   force =     0.00000225   -0.00000217    0.00000132
     atom  484 type  4   force =    -0.00000090   -0.00000020   -0.00000438
     atom  485 type  4   force =    -0.00000326    0.00000204    0.00000589
     atom  486 type  4   force =    -0.00000165   -0.00000031   -0.00000419
     atom  487 type  4   force =     0.00000266    0.00000075   -0.00000424
     atom  488 type  4   force =    -0.00000208    0.00000104    0.00000544
     atom  489 type  4   force =    -0.00000038   -0.00000141   -0.00000072
     atom  490 type  4   force =     0.00000049    0.00000097    0.00000210
     atom  491 type  4   force =     0.00000264   -0.00000233    0.00000328
     atom  492 type  4   force =    -0.00000066   -0.00000049   -0.00000002
     atom  493 type  4   force =    -0.00000004    0.00000229    0.00000216
     atom  494 type  4   force =     0.00000123    0.00000090    0.00000077
     atom  495 type  4   force =     0.00000220    0.00000041    0.00000144
     atom  496 type  4   force =    -0.00000109    0.00000135    0.00000302

     Total force =     0.011907     Total SCF correction =     0.000251


     Computing stress (Cartesian axis) and pressure

          total   stress  (Ry/bohr**3)                   (kbar)     P=       -2.02
  -0.00001470   0.00000015  -0.00000000           -2.16        0.02       -0.00
   0.00000015  -0.00001439  -0.00000000            0.02       -2.12       -0.00
  -0.00000000  -0.00000000  -0.00001207           -0.00       -0.00       -1.78

     kinetic stress (kbar)  10030.33      0.02     -0.01
                                0.02  10030.32     -0.00
                               -0.01     -0.00  10716.53

     local   stress (kbar) -23378.65      0.02     -0.10
                                0.02 -23378.93      0.02
                               -0.10      0.02  -2297.25

     nonloc. stress (kbar)   2420.52     -0.00      0.00
                               -0.00   2420.52     -0.00
                                0.00     -0.00   2341.33

     hartree stress (kbar)  13178.45     -0.00      0.02
                               -0.00  13178.54     -0.00
                                0.02     -0.00   6149.28

     exc-cor stress (kbar)  -1776.01     -0.00      0.00
                               -0.00  -1776.01     -0.00
                                0.00     -0.00  -1797.57

     corecor stress (kbar)  -1052.43     -0.00     -0.00
                               -0.00  -1052.43      0.00
                               -0.00      0.00  -1036.21

     ewald   stress (kbar)    575.63     -0.01      0.09
                               -0.01    575.88     -0.02
                                0.09     -0.02 -14077.88

     hubbard stress (kbar)      0.00      0.00      0.00
                                0.00      0.00      0.00
                                0.00      0.00      0.00

     DFT-D   stress (kbar)      0.00      0.00      0.00
                                0.00      0.00      0.00
                                0.00      0.00      0.00

     XDM     stress (kbar)      0.00      0.00      0.00
                                0.00      0.00      0.00
                                0.00      0.00      0.00

     dft-nl  stress (kbar)      0.00      0.00      0.00
                                0.00      0.00      0.00
                                0.00      0.00      0.00

     TS-vdW  stress (kbar)      0.00      0.00      0.00
                                0.00      0.00      0.00
                                0.00      0.00      0.00

     MDB     stress (kbar)      0.00      0.00      0.00
                                0.00      0.00      0.00
                                0.00      0.00      0.00

     3D-RISM stress (kbar)      0.00      0.00      0.00
                                0.00      0.00      0.00
                                0.00      0.00      0.00


     init_run     :    148.84s CPU    153.49s WALL (       1 calls)
     electrons    :   6115.05s CPU   6258.57s WALL (       1 calls)
     forces       :     78.46s CPU     81.88s WALL (       1 calls)
     stress       :   1672.91s CPU   1688.73s WALL (       1 calls)

     Called by init_run:
     wfcinit      :    138.31s CPU    142.14s WALL (       1 calls)
     wfcinit:atom :      0.13s CPU      0.27s WALL (       1 calls)
     wfcinit:wfcr :    136.75s CPU    140.04s WALL (       1 calls)
     potinit      :      4.08s CPU      4.14s WALL (       1 calls)
     hinit0       :      3.47s CPU      3.50s WALL (       1 calls)

     Called by electrons:
     c_bands      :   5599.10s CPU   5704.66s WALL (      18 calls)
     sum_band     :    472.46s CPU    497.94s WALL (      18 calls)
     v_of_rho     :      5.36s CPU      5.60s WALL (      19 calls)
     v_h          :      0.36s CPU      0.39s WALL (      19 calls)
     v_xc         :      5.53s CPU      5.77s WALL (      21 calls)
     newd         :     25.00s CPU     37.57s WALL (      19 calls)
     PAW_pot      :     12.90s CPU     12.95s WALL (      19 calls)
     mix_rho      :      1.70s CPU      1.90s WALL (      18 calls)

     Called by c_bands:
     init_us_2    :     10.44s CPU     12.23s WALL (      37 calls)
     init_us_2:cp :     10.44s CPU     12.23s WALL (      37 calls)
     cegterg      :   5575.90s CPU   5679.35s WALL (      18 calls)

     Called by sum_band:
     sum_band:wei :      0.00s CPU      0.00s WALL (      18 calls)
     sum_band:loo :    449.03s CPU    460.79s WALL (      18 calls)
     sum_band:buf :      0.00s CPU      0.00s WALL (      18 calls)
     sum_band:ini :      5.03s CPU      5.82s WALL (      18 calls)
     sum_band:cal :    264.33s CPU    267.71s WALL (      18 calls)
     sum_band:bec :      0.85s CPU      0.86s WALL (      18 calls)
     addusdens    :     20.12s CPU     32.65s WALL (      18 calls)
                                        0.00s GPU  (      18 calls)
     addusd:skk   :      5.30s CPU     10.89s WALL (      72 calls)
                                        0.00s GPU  (      72 calls)

     Called by *egterg:
     cdiaghg      :    497.27s CPU    501.32s WALL (      98 calls)
     cegterg:over :    700.03s CPU    705.73s WALL (      80 calls)
     cegterg:upda :    337.81s CPU    342.21s WALL (      80 calls)
     cegterg:last :    820.62s CPU    829.46s WALL (      44 calls)
     cdiaghg:chol :     12.27s CPU     12.31s WALL (      98 calls)
     cdiaghg:inve :      2.06s CPU      2.08s WALL (      98 calls)
     cdiaghg:para :     42.58s CPU     44.38s WALL (     196 calls)
     h_psi        :   2485.05s CPU   2553.02s WALL (      99 calls)
     s_psi        :    631.89s CPU    636.59s WALL (      99 calls)
     g_psi        :      2.52s CPU      2.62s WALL (      80 calls)

     Called by h_psi:
     h_psi:calbec :    798.59s CPU    809.68s WALL (      99 calls)
     vloc_psi     :   1036.95s CPU   1086.71s WALL (      99 calls)
     add_vuspsi   :    646.80s CPU    651.37s WALL (      99 calls)

     General routines
     calbec       :   1137.00s CPU   1152.05s WALL (     122 calls)
     fft          :      7.89s CPU      8.28s WALL (     270 calls)
     ffts         :      0.63s CPU      0.73s WALL (      37 calls)
     fftw         :   1141.41s CPU   1197.13s WALL (  127730 calls)
     interpolate  :      0.70s CPU      0.76s WALL (      19 calls)

     Parallel routines

     PAW routines
     PAW_pot      :     12.90s CPU     12.95s WALL (      19 calls)

     PWSCF        :      2h13m CPU      2h16m WALL


   This run was terminated on:   0:22:49  21May2025            

=------------------------------------------------------------------------------=
   JOB DONE.
=------------------------------------------------------------------------------=
