
     Program PWSCF v.7.2 starts on 19May2025 at  8:11:48 

     This program is part of the open-source Quantum ESPRESSO suite
     for quantum simulation of materials; please cite
         "P. Giannozzi et al., J. Phys.:Condens. Matter 21 395502 (2009);
         "P. Giannozzi et al., J. Phys.:Condens. Matter 29 465901 (2017);
         "P. Giannozzi et al., J. Chem. Phys. 152 154105 (2020);
          URL http://www.quantum-espresso.org", 
     in publications or presentations arising from this work. More details at
     http://www.quantum-espresso.org/quote

     Parallel version (MPI), running on    32 processors

     MPI processes distributed on     1 nodes
     278041 MiB available memory on the printing compute node when the environment starts

     Waiting for input...
     Reading input from standard input

     Current dimensions of program PWSCF are:
     Max number of different atomic species (ntypx) = 10
     Max number of k-points (npk) =  40000
     Max angular momentum in pseudopotentials (lmaxx) =  4
     file C.pbesol-n-kjpaw_psl.1.0.0.UPF: wavefunction(s)  2S 2P renormalized

     R & G space division:  proc/nbgrp/npool/nimage =      32
     Subspace diagonalization in iterative solution of the eigenvalue problem:
     one sub-group per band group will be used
     custom distributed-memory algorithm (size of sub-group:  5*  5 procs)


     Parallelization info
     --------------------
     sticks:   dense  smooth     PW     G-vecs:    dense   smooth      PW
     Min         878     844    211                80117    75361    9423
     Max         882     845    212                80120    75364    9425
     Sum       28159   27021   6771              2563819  2411581  301561

     Using Slab Decomposition



     bravais-lattice index     =            0
     lattice parameter (alat)  =      37.6381  a.u.
     unit-cell volume          =   38409.3354 (a.u.)^3
     number of atoms/cell      =          496
     number of atomic types    =            4
     number of electrons       =      2016.00
     number of Kohn-Sham states=         1008
     kinetic-energy cutoff     =      60.0000  Ry
     charge density cutoff     =     250.0000  Ry
     scf convergence threshold =      1.2E-08
     mixing beta               =       0.4000
     number of iterations used =            8  plain     mixing
     Exchange-correlation= SLA  PW   PSX  PSC
                           (   1   4  10   8   0   0   0)

     celldm(1)=  37.638096  celldm(2)=   0.000000  celldm(3)=   0.000000
     celldm(4)=   0.000000  celldm(5)=   0.000000  celldm(6)=   0.000000

     crystal axes: (cart. coord. in units of alat)
               a(1) = (  -0.509774   0.509774   0.693009 )  
               a(2) = (   0.509774  -0.509774   0.693009 )  
               a(3) = (   0.509774   0.509774  -0.693009 )  

     reciprocal axes: (cart. coord. in units 2 pi/alat)
               b(1) = (  0.000000  0.980827  0.721491 )  
               b(2) = (  0.980827  0.000000  0.721491 )  
               b(3) = (  0.980827  0.980827  0.000000 )  


     PseudoPot. # 1 for N  read from file:
     ./pseudo/N.pbesol-theos.UPF
     MD5 check sum: 1b64827339d390a5a22afef3ff345c9d
     Pseudo is Ultrasoft + core correction, Zval =  5.0
     Generated using "atomic" code by A. Dal Corso  v.5.1
     Using radial grid of 1085 points,  4 beta functions with: 
                l(1) =   0
                l(2) =   0
                l(3) =   1
                l(4) =   1
     Q(r) pseudized with 0 coefficients 


     PseudoPot. # 2 for C  read from file:
     ./pseudo/C.pbesol-n-kjpaw_psl.1.0.0.UPF
     MD5 check sum: 5f3a56537b2bcef3348431d8311bb923
     Pseudo is Projector augmented-wave + core cor, Zval =  4.0
     Generated using "atomic" code by A. Dal Corso  v.6.0 svn rev. 13079
     Shape of augmentation charge: PSQ
     Using radial grid of 1073 points,  4 beta functions with: 
                l(1) =   0
                l(2) =   0
                l(3) =   1
                l(4) =   1
     Q(r) pseudized with 0 coefficients 


     PseudoPot. # 3 for H  read from file:
     ./pseudo/H.pbesol-rrkjus_psl.1.0.0.UPF
     MD5 check sum: 0324ed591cc0147dc3d88cad0d33f665
     Pseudo is Ultrasoft, Zval =  1.0
     Generated using "atomic" code by A. Dal Corso  v.6.0 svn rev. 13079
     Using radial grid of  929 points,  2 beta functions with: 
                l(1) =   0
                l(2) =   0
     Q(r) pseudized with 0 coefficients 


     PseudoPot. # 4 for Zn read from file:
     ./pseudo/zn_pbesol_v1.uspp.F.UPF
     MD5 check sum: 7d8615e52efe7c1e2b1899de8658bae2
     Pseudo is Ultrasoft, Zval = 20.0
     Generated by new atomic code, or converted to UPF format
     Using radial grid of  943 points,  6 beta functions with: 
                l(1) =   0
                l(2) =   0
                l(3) =   1
                l(4) =   1
                l(5) =   2
                l(6) =   2
     Q(r) pseudized with  8 coefficients,  rinner =    1.100   1.100   1.100
                                                       1.100   1.100

     atomic species   valence    mass     pseudopotential
        N              5.00    14.00670     N ( 1.00)
        C              4.00    12.01070     C ( 1.00)
        H              1.00     1.00794     H ( 1.00)
        Zn            20.00    65.38000     Zn( 1.00)

     No symmetry found


                                    s                        frac. trans.

      isym =  1     identity                                     

 cryst.   s( 1) = (     1          0          0      )
                  (     0          1          0      )
                  (     0          0          1      )

 cart.    s( 1) = (  1.0000000  0.0000000  0.0000000 )
                  (  0.0000000  1.0000000  0.0000000 )
                  (  0.0000000  0.0000000  1.0000000 )


   Cartesian axes

     site n.     atom                  positions (alat units)
         1           N   tau(   1) = (   0.2710468  -0.0829864   0.1173636  )
         2           N   tau(   2) = (   0.0161599   0.1719005   0.4638680  )
         3           N   tau(   3) = (   0.5259337  -0.3378733   0.4638680  )
         4           N   tau(   4) = (   0.2710468  -0.0829864   0.8103725  )
         5           N   tau(   5) = (   0.5259337   0.1719005  -0.2291408  )
         6           N   tau(   6) = (   0.2710468   0.4267874   0.1173636  )
         7           N   tau(   7) = (   0.7808206  -0.0829864   0.1173636  )
         8           N   tau(   8) = (   0.5259337   0.1719005   0.4638680  )
         9           N   tau(   9) = (   0.0792892   0.1480962   0.4576515  )
        10           N   tau(  10) = (  -0.1755977   0.4029831   0.8041559  )
        11           N   tau(  11) = (   0.3341761  -0.1067907   0.8041559  )
        12           N   tau(  12) = (   0.0792892   0.1480962   1.1506604  )
        13           N   tau(  13) = (   0.3341761   0.4029831   0.1111471  )
        14           N   tau(  14) = (   0.0792892   0.6578701   0.4576515  )
        15           N   tau(  15) = (   0.5890630   0.1480962   0.4576515  )
        16           N   tau(  16) = (   0.3341761   0.4029831   0.8041559  )
        17           C   tau(  17) = (  -0.0968335   0.1355948   0.4273593  )
        18           C   tau(  18) = (  -0.3517204   0.3904817   0.7738637  )
        19           C   tau(  19) = (   0.1580534  -0.1192921   0.7738637  )
        20           C   tau(  20) = (  -0.0968335   0.1355948   1.1203682  )
        21           C   tau(  21) = (   0.1580534   0.3904817   0.0808549  )
        22           C   tau(  22) = (  -0.0968335   0.6453687   0.4273593  )
        23           C   tau(  23) = (   0.4129403   0.1355948   0.4273593  )
        24           C   tau(  24) = (   0.1580534   0.3904817   0.7738637  )
        25           C   tau(  25) = (  -0.0244840   0.1283983   0.4318794  )
        26           C   tau(  26) = (  -0.2793710   0.3832852   0.7783839  )
        27           C   tau(  27) = (   0.2304029  -0.1264886   0.7783839  )
        28           C   tau(  28) = (  -0.0244840   0.1283983   1.1248883  )
        29           C   tau(  29) = (   0.2304029   0.3832852   0.0853750  )
        30           C   tau(  30) = (  -0.0244840   0.6381721   0.4318794  )
        31           C   tau(  31) = (   0.4852898   0.1283983   0.4318794  )
        32           C   tau(  32) = (   0.2304029   0.3832852   0.7783839  )
        33           C   tau(  33) = (   0.1132988   0.3361500   0.0862582  )
        34           C   tau(  34) = (  -0.1413172   0.5913078   0.4323944  )
        35           C   tau(  35) = (   0.3684566   0.0815340   0.4323944  )
        36           C   tau(  36) = (   0.1135697   0.3364209   0.7788988  )
        37           C   tau(  37) = (   0.3684566   0.5913078  -0.2606145  )
        38           C   tau(  38) = (   0.1135697   0.8461947   0.0858899  )
        39           C   tau(  39) = (   0.6233435   0.3364209   0.0858899  )
        40           C   tau(  40) = (   0.3684566   0.5913078   0.4323944  )
        41           H   tau(  41) = (   0.1320089   0.2848859   0.0919123  )
        42           H   tau(  42) = (  -0.1228780   0.5397728   0.4384168  )
        43           H   tau(  43) = (   0.3868958   0.0299990   0.4384168  )
        44           H   tau(  44) = (   0.1320089   0.2848859   0.7849212  )
        45           H   tau(  45) = (   0.3868958   0.5397728  -0.2545921  )
        46           H   tau(  46) = (   0.1320089   0.7946597   0.0919123  )
        47           H   tau(  47) = (   0.6417827   0.2848859   0.0919123  )
        48           H   tau(  48) = (   0.3868958   0.5397728   0.4384168  )
        49           C   tau(  49) = (   0.0234072   0.4166034   0.0803957  )
        50           C   tau(  50) = (  -0.2314797   0.6714904   0.4269002  )
        51           C   tau(  51) = (   0.2782941   0.1617165   0.4269002  )
        52           C   tau(  52) = (   0.0234072   0.4166034   0.7734046  )
        53           C   tau(  53) = (   0.2782941   0.6714904  -0.2661087  )
        54           C   tau(  54) = (   0.0234072   0.9263773   0.0803957  )
        55           C   tau(  55) = (   0.5331811   0.4166034   0.0803957  )
        56           C   tau(  56) = (   0.2782941   0.6714904   0.4269002  )
        57           H   tau(  57) = (  -0.0300067   0.4299903   0.0814174  )
        58           H   tau(  58) = (  -0.2848936   0.6848772   0.4279218  )
        59           H   tau(  59) = (   0.2248802   0.1751034   0.4279218  )
        60           H   tau(  60) = (  -0.0300067   0.4299903   0.7744263  )
        61           H   tau(  61) = (   0.2248802   0.6848772  -0.2650870  )
        62           H   tau(  62) = (  -0.0300067   0.9397641   0.0814174  )
        63           H   tau(  63) = (   0.4797671   0.4299903   0.0814174  )
        64           H   tau(  64) = (   0.2248802   0.6848772   0.4279218  )
        65           N   tau(  65) = (   0.0137429   0.0791523   0.4063605  )
        66           N   tau(  66) = (  -0.2411440   0.3340392   0.7528650  )
        67           N   tau(  67) = (   0.2686298  -0.1757347   0.7528650  )
        68           N   tau(  68) = (   0.0137429   0.0791523   1.0993694  )
        69           N   tau(  69) = (   0.2686298   0.3340392   0.0598561  )
        70           N   tau(  70) = (   0.0137429   0.5889261   0.4063605  )
        71           N   tau(  71) = (   0.5235167   0.0791523   0.4063605  )
        72           N   tau(  72) = (   0.2686298   0.3340392   0.7528650  )
        73           N   tau(  73) = (   0.0778636   0.0929680   0.4236992  )
        74           N   tau(  74) = (  -0.1770233   0.3478549   0.7702037  )
        75           N   tau(  75) = (   0.3327505  -0.1619189   0.7702037  )
        76           N   tau(  76) = (   0.0778636   0.0929680   1.1167081  )
        77           N   tau(  77) = (   0.3327505   0.3478549   0.0771948  )
        78           N   tau(  78) = (   0.0778636   0.6027418   0.4236992  )
        79           N   tau(  79) = (   0.5876374   0.0929680   0.4236992  )
        80           N   tau(  80) = (   0.3327505   0.3478549   0.7702037  )
        81           C   tau(  81) = (  -0.1238286   0.2001118   0.4205514  )
        82           C   tau(  82) = (  -0.3787155   0.4549987   0.7670558  )
        83           C   tau(  83) = (   0.1310583  -0.0547751   0.7670558  )
        84           C   tau(  84) = (  -0.1238286   0.2001118   1.1135603  )
        85           C   tau(  85) = (   0.1310583   0.4549987   0.0740469  )
        86           C   tau(  86) = (  -0.1238286   0.7098857   0.4205514  )
        87           C   tau(  87) = (   0.3859452   0.2001118   0.4205514  )
        88           C   tau(  88) = (   0.1310583   0.4549987   0.7670558  )
        89           H   tau(  89) = (   0.1645114  -0.0114933   0.0672613  )
        90           H   tau(  90) = (  -0.0903755   0.2433936   0.4137658  )
        91           H   tau(  91) = (   0.4193983  -0.2663802   0.4137658  )
        92           H   tau(  92) = (   0.1645114  -0.0114933   0.7602702  )
        93           H   tau(  93) = (   0.4193983   0.2433936  -0.2792431  )
        94           H   tau(  94) = (   0.1645114   0.4982805   0.0672613  )
        95           H   tau(  95) = (   0.6742852  -0.0114933   0.0672613  )
        96           H   tau(  96) = (   0.4193983   0.2433936   0.4137658  )
        97           N   tau(  97) = (   0.0658052  -0.0414701   0.0746064  )
        98           N   tau(  98) = (  -0.1890817   0.2134168   0.4211109  )
        99           N   tau(  99) = (   0.3206921  -0.2963571   0.4211109  )
       100           N   tau( 100) = (   0.0658052  -0.0414701   0.7676153  )
       101           N   tau( 101) = (   0.3206921   0.2134168  -0.2718980  )
       102           N   tau( 102) = (   0.0658052   0.4683037   0.0746064  )
       103           N   tau( 103) = (   0.5755790  -0.0414701   0.0746064  )
       104           N   tau( 104) = (   0.3206921   0.2134168   0.4211109  )
       105           C   tau( 105) = (  -0.0451994   0.1596322   0.0850839  )
       106           C   tau( 106) = (  -0.3000863   0.4145191   0.4315883  )
       107           C   tau( 107) = (   0.2096875  -0.0952547   0.4315883  )
       108           C   tau( 108) = (  -0.0451994   0.1596322   0.7780928  )
       109           C   tau( 109) = (   0.2096875   0.4145191  -0.2614205  )
       110           C   tau( 110) = (  -0.0451994   0.6694060   0.0850839  )
       111           C   tau( 111) = (   0.4645744   0.1596322   0.0850839  )
       112           C   tau( 112) = (   0.2096875   0.4145191   0.4315883  )
       113           H   tau( 113) = (   0.0082067   0.3098036   0.0895138  )
       114           H   tau( 114) = (  -0.2466802   0.5646905   0.4360182  )
       115           H   tau( 115) = (   0.2630936   0.0549167   0.4360182  )
       116           H   tau( 116) = (   0.0082067   0.3098036   0.7825226  )
       117           H   tau( 117) = (   0.2630936   0.5646905  -0.2569907  )
       118           H   tau( 118) = (   0.0082067   0.8195774   0.0895138  )
       119           H   tau( 119) = (   0.5179805   0.3098036   0.0895138  )
       120           H   tau( 120) = (   0.2630936   0.5646905   0.4360182  )
       121           N   tau( 121) = (   0.2387270   0.0829864   0.1173636  )
       122           N   tau( 122) = (  -0.0161599   0.3378733   0.4638680  )
       123           N   tau( 123) = (   0.4936139  -0.1719005   0.4638680  )
       124           N   tau( 124) = (   0.2387270   0.0829864   0.8103725  )
       125           N   tau( 125) = (   0.4936139   0.3378733  -0.2291408  )
       126           N   tau( 126) = (   0.2387270   0.5927603   0.1173636  )
       127           N   tau( 127) = (   0.7485008   0.0829864   0.1173636  )
       128           N   tau( 128) = (   0.4936139   0.3378733   0.4638680  )
       129           N   tau( 129) = (   0.1755977   0.1067907   0.1111471  )
       130           N   tau( 130) = (  -0.0792892   0.3616776   0.4576515  )
       131           N   tau( 131) = (   0.4304846  -0.1480962   0.4576515  )
       132           N   tau( 132) = (   0.1755977   0.1067907   0.8041559  )
       133           N   tau( 133) = (   0.4304846   0.3616776  -0.2353574  )
       134           N   tau( 134) = (   0.1755977   0.6165645   0.1111471  )
       135           N   tau( 135) = (   0.6853715   0.1067907   0.1111471  )
       136           N   tau( 136) = (   0.4304846   0.3616776   0.4576515  )
       137           C   tau( 137) = (   0.3517204   0.1192921   0.0808549  )
       138           C   tau( 138) = (   0.0968335   0.3741790   0.4273593  )
       139           C   tau( 139) = (   0.6066073  -0.1355948   0.4273593  )
       140           C   tau( 140) = (   0.3517204   0.1192921   0.7738637  )
       141           C   tau( 141) = (   0.6066073   0.3741790  -0.2656496  )
       142           C   tau( 142) = (   0.3517204   0.6290659   0.0808549  )
       143           C   tau( 143) = (   0.8614942   0.1192921   0.0808549  )
       144           C   tau( 144) = (   0.6066073   0.3741790   0.4273593  )
       145           C   tau( 145) = (   0.2793710   0.1264886   0.0853750  )
       146           C   tau( 146) = (   0.0244840   0.3813755   0.4318794  )
       147           C   tau( 147) = (   0.5342579  -0.1283983   0.4318794  )
       148           C   tau( 148) = (   0.2793710   0.1264886   0.7783839  )
       149           C   tau( 149) = (   0.5342579   0.3813755  -0.2611294  )
       150           C   tau( 150) = (   0.2793710   0.6362624   0.0853750  )
       151           C   tau( 151) = (   0.7891448   0.1264886   0.0853750  )
       152           C   tau( 152) = (   0.5342579   0.3813755   0.4318794  )
       153           C   tau( 153) = (   0.1413172  -0.0815340   0.4323944  )
       154           C   tau( 154) = (  -0.1135697   0.1733530   0.7788988  )
       155           C   tau( 155) = (   0.3962041  -0.3364209   0.7788988  )
       156           C   tau( 156) = (   0.1413172  -0.0815340   1.1254033  )
       157           C   tau( 157) = (   0.3962041   0.1733530   0.0858899  )
       158           C   tau( 158) = (   0.1413172   0.4282399   0.4323944  )
       159           C   tau( 159) = (   0.6510910  -0.0815340   0.4323944  )
       160           C   tau( 160) = (   0.3962041   0.1733530   0.7788988  )
       161           H   tau( 161) = (   0.1228780  -0.0299990   0.4384168  )
       162           H   tau( 162) = (  -0.1320089   0.2248879   0.7849212  )
       163           H   tau( 163) = (   0.3777649  -0.2848859   0.7849212  )
       164           H   tau( 164) = (   0.1228780  -0.0299990   1.1314256  )
       165           H   tau( 165) = (   0.3777649   0.2248879   0.0919123  )
       166           H   tau( 166) = (   0.1228780   0.4797748   0.4384168  )
       167           H   tau( 167) = (   0.6326518  -0.0299990   0.4384168  )
       168           H   tau( 168) = (   0.3777649   0.2248879   0.7849212  )
       169           C   tau( 169) = (  -0.0234072   0.0931704   0.0803957  )
       170           C   tau( 170) = (  -0.2782942   0.3480573   0.4269002  )
       171           C   tau( 171) = (   0.2314797  -0.1617165   0.4269002  )
       172           C   tau( 172) = (  -0.0234072   0.0931704   0.7734046  )
       173           C   tau( 173) = (   0.2314797   0.3480573  -0.2661087  )
       174           C   tau( 174) = (  -0.0234072   0.6029442   0.0803957  )
       175           C   tau( 175) = (   0.4863666   0.0931704   0.0803957  )
       176           C   tau( 176) = (   0.2314797   0.3480573   0.4269002  )
       177           H   tau( 177) = (   0.0300067   0.0797836   0.0814174  )
       178           H   tau( 178) = (  -0.2248802   0.3346705   0.4279218  )
       179           H   tau( 179) = (   0.2848936  -0.1751034   0.4279218  )
       180           H   tau( 180) = (   0.0300067   0.0797836   0.7744263  )
       181           H   tau( 181) = (   0.2848936   0.3346705  -0.2650870  )
       182           H   tau( 182) = (   0.0300067   0.5895574   0.0814174  )
       183           H   tau( 183) = (   0.5397805   0.0797836   0.0814174  )
       184           H   tau( 184) = (   0.2848936   0.3346705   0.4279218  )
       185           N   tau( 185) = (   0.2411440   0.1757347   0.0598561  )
       186           N   tau( 186) = (  -0.0137429   0.4306216   0.4063605  )
       187           N   tau( 187) = (   0.4960309  -0.0791523   0.4063605  )
       188           N   tau( 188) = (   0.2411440   0.1757347   0.7528650  )
       189           N   tau( 189) = (   0.4960309   0.4306216  -0.2866484  )
       190           N   tau( 190) = (   0.2411440   0.6855085   0.0598561  )
       191           N   tau( 191) = (   0.7509178   0.1757347   0.0598561  )
       192           N   tau( 192) = (   0.4960309   0.4306216   0.4063605  )
       193           N   tau( 193) = (   0.1770233   0.1619189   0.0771948  )
       194           N   tau( 194) = (  -0.0778636   0.4168059   0.4236992  )
       195           N   tau( 195) = (   0.4319102  -0.0929680   0.4236992  )
       196           N   tau( 196) = (   0.1770233   0.1619189   0.7702037  )
       197           N   tau( 197) = (   0.4319102   0.4168059  -0.2693096  )
       198           N   tau( 198) = (   0.1770233   0.6716928   0.0771948  )
       199           N   tau( 199) = (   0.6867971   0.1619189   0.0771948  )
       200           N   tau( 200) = (   0.4319102   0.4168059   0.4236992  )
       201           C   tau( 201) = (   0.3787155   0.0547751   0.0740469  )
       202           C   tau( 202) = (   0.1238286   0.3096620   0.4205514  )
       203           C   tau( 203) = (   0.6336024  -0.2001118   0.4205514  )
       204           C   tau( 204) = (   0.3787155   0.0547751   0.7670558  )
       205           C   tau( 205) = (   0.6336024   0.3096620  -0.2724575  )
       206           C   tau( 206) = (   0.3787155   0.5645489   0.0740469  )
       207           C   tau( 207) = (   0.8884893   0.0547751   0.0740469  )
       208           C   tau( 208) = (   0.6336024   0.3096620   0.4205514  )
       209           H   tau( 209) = (   0.3452624   0.0114933   0.0672613  )
       210           H   tau( 210) = (   0.0903755   0.2663802   0.4137658  )
       211           H   tau( 211) = (   0.6001493  -0.2433936   0.4137658  )
       212           H   tau( 212) = (   0.3452624   0.0114933   0.7602702  )
       213           H   tau( 213) = (   0.6001493   0.2663802  -0.2792431  )
       214           H   tau( 214) = (   0.3452624   0.5212672   0.0672613  )
       215           H   tau( 215) = (   0.8550362   0.0114933   0.0672613  )
       216           H   tau( 216) = (   0.6001493   0.2663802   0.4137658  )
       217           N   tau( 217) = (   0.4439686   0.0414701   0.0746064  )
       218           N   tau( 218) = (   0.1890817   0.2963571   0.4211109  )
       219           N   tau( 219) = (   0.6988555  -0.2134168   0.4211109  )
       220           N   tau( 220) = (   0.4439686   0.0414701   0.7676153  )
       221           N   tau( 221) = (   0.6988555   0.2963571  -0.2718980  )
       222           N   tau( 222) = (   0.4439686   0.5512440   0.0746064  )
       223           N   tau( 223) = (   0.9537424   0.0414701   0.0746064  )
       224           N   tau( 224) = (   0.6988555   0.2963571   0.4211109  )
       225           C   tau( 225) = (   0.0451994   0.3501416   0.0850839  )
       226           C   tau( 226) = (  -0.2096875   0.6050285   0.4315883  )
       227           C   tau( 227) = (   0.3000863   0.0952547   0.4315883  )
       228           C   tau( 228) = (   0.0451994   0.3501416   0.7780928  )
       229           C   tau( 229) = (   0.3000863   0.6050285  -0.2614205  )
       230           C   tau( 230) = (   0.0451994   0.8599154   0.0850839  )
       231           C   tau( 231) = (   0.5549732   0.3501416   0.0850839  )
       232           C   tau( 232) = (   0.3000863   0.6050285   0.4315883  )
       233           H   tau( 233) = (  -0.0082067   0.1999702   0.0895138  )
       234           H   tau( 234) = (  -0.2630936   0.4548571   0.4360182  )
       235           H   tau( 235) = (   0.2466802  -0.0549167   0.4360182  )
       236           H   tau( 236) = (  -0.0082067   0.1999702   0.7825226  )
       237           H   tau( 237) = (   0.2466802   0.4548571  -0.2569907  )
       238           H   tau( 238) = (  -0.0082067   0.7097440   0.0895138  )
       239           H   tau( 239) = (   0.5015671   0.1999702   0.0895138  )
       240           H   tau( 240) = (   0.2466802   0.4548571   0.4360182  )
       241           N   tau( 241) = (   0.1719005  -0.0161599   0.2291408  )
       242           N   tau( 242) = (  -0.0829864   0.2387270   0.5756453  )
       243           N   tau( 243) = (   0.4267874  -0.2710468   0.5756453  )
       244           N   tau( 244) = (   0.1719005  -0.0161599   0.9221497  )
       245           N   tau( 245) = (   0.4267874   0.2387270  -0.1173636  )
       246           N   tau( 246) = (   0.1719005   0.4936139   0.2291408  )
       247           N   tau( 247) = (   0.6816743  -0.0161599   0.2291408  )
       248           N   tau( 248) = (   0.4267874   0.2387270   0.5756453  )
       249           N   tau( 249) = (   0.1480962  -0.0792892   0.2353574  )
       250           N   tau( 250) = (  -0.1067907   0.1755977   0.5818618  )
       251           N   tau( 251) = (   0.4029831  -0.3341761   0.5818618  )
       252           N   tau( 252) = (   0.1480962  -0.0792892   0.9283662  )
       253           N   tau( 253) = (   0.4029831   0.1755977  -0.1111471  )
       254           N   tau( 254) = (   0.1480962   0.4304846   0.2353574  )
       255           N   tau( 255) = (   0.6578701  -0.0792892   0.2353574  )
       256           N   tau( 256) = (   0.4029831   0.1755977   0.5818618  )
       257           C   tau( 257) = (   0.1355948   0.0968335   0.2656496  )
       258           C   tau( 258) = (  -0.1192921   0.3517204   0.6121540  )
       259           C   tau( 259) = (   0.3904817  -0.1580534   0.6121540  )
       260           C   tau( 260) = (   0.1355948   0.0968335   0.9586584  )
       261           C   tau( 261) = (   0.3904817   0.3517204  -0.0808549  )
       262           C   tau( 262) = (   0.1355948   0.6066073   0.2656496  )
       263           C   tau( 263) = (   0.6453687   0.0968335   0.2656496  )
       264           C   tau( 264) = (   0.3904817   0.3517204   0.6121540  )
       265           C   tau( 265) = (   0.1283983   0.0244840   0.2611294  )
       266           C   tau( 266) = (  -0.1264886   0.2793710   0.6076339  )
       267           C   tau( 267) = (   0.3832852  -0.2304029   0.6076339  )
       268           C   tau( 268) = (   0.1283983   0.0244840   0.9541383  )
       269           C   tau( 269) = (   0.3832852   0.2793710  -0.0853750  )
       270           C   tau( 270) = (   0.1283983   0.5342579   0.2611294  )
       271           C   tau( 271) = (   0.6381721   0.0244840   0.2611294  )
       272           C   tau( 272) = (   0.3832852   0.2793710   0.6076339  )
       273           C   tau( 273) = (   0.0815340   0.1413172   0.2606145  )
       274           C   tau( 274) = (  -0.1733530   0.3962041   0.6071189  )
       275           C   tau( 275) = (   0.3364209  -0.1135697   0.6071189  )
       276           C   tau( 276) = (   0.0815340   0.1413172   0.9536234  )
       277           C   tau( 277) = (   0.3364209   0.3962041  -0.0858899  )
       278           C   tau( 278) = (   0.0815340   0.6510910   0.2606145  )
       279           C   tau( 279) = (   0.5913078   0.1413172   0.2606145  )
       280           C   tau( 280) = (   0.3364209   0.3962041   0.6071189  )
       281           H   tau( 281) = (   0.0299990   0.1228780   0.2545921  )
       282           H   tau( 282) = (  -0.2248879   0.3777649   0.6010965  )
       283           H   tau( 283) = (   0.2848859  -0.1320089   0.6010965  )
       284           H   tau( 284) = (   0.0299990   0.1228780   0.9476010  )
       285           H   tau( 285) = (   0.2848859   0.3777649  -0.0919123  )
       286           H   tau( 286) = (   0.0299990   0.6326518   0.2545921  )
       287           H   tau( 287) = (   0.5397728   0.1228780   0.2545921  )
       288           H   tau( 288) = (   0.2848859   0.3777649   0.6010965  )
       289           C   tau( 289) = (   0.1617165   0.2314797   0.2661087  )
       290           C   tau( 290) = (  -0.0931704   0.4863666   0.6126131  )
       291           C   tau( 291) = (   0.4166034  -0.0234072   0.6126131  )
       292           C   tau( 292) = (   0.1617165   0.2314797   0.9591176  )
       293           C   tau( 293) = (   0.4166034   0.4863666  -0.0803957  )
       294           C   tau( 294) = (   0.1617165   0.7412535   0.2661087  )
       295           C   tau( 295) = (   0.6714904   0.2314797   0.2661087  )
       296           C   tau( 296) = (   0.4166034   0.4863666   0.6126131  )
       297           H   tau( 297) = (   0.1751034   0.2848936   0.2650870  )
       298           H   tau( 298) = (  -0.0797836   0.5397805   0.6115915  )
       299           H   tau( 299) = (   0.4299903   0.0300067   0.6115915  )
       300           H   tau( 300) = (   0.1751034   0.2848936   0.9580959  )
       301           H   tau( 301) = (   0.4299903   0.5397805  -0.0814174  )
       302           H   tau( 302) = (   0.1751034   0.7946674   0.2650870  )
       303           H   tau( 303) = (   0.6848772   0.2848936   0.2650870  )
       304           H   tau( 304) = (   0.4299903   0.5397805   0.6115915  )
       305           N   tau( 305) = (   0.0791523  -0.0137429   0.2866484  )
       306           N   tau( 306) = (  -0.1757347   0.2411440   0.6331528  )
       307           N   tau( 307) = (   0.3340392  -0.2686298   0.6331528  )
       308           N   tau( 308) = (   0.0791523  -0.0137429   0.9796572  )
       309           N   tau( 309) = (   0.3340392   0.2411440  -0.0598561  )
       310           N   tau( 310) = (   0.0791523   0.4960309   0.2866484  )
       311           N   tau( 311) = (   0.5889261  -0.0137429   0.2866484  )
       312           N   tau( 312) = (   0.3340392   0.2411440   0.6331528  )
       313           N   tau( 313) = (   0.0929680  -0.0778636   0.2693096  )
       314           N   tau( 314) = (  -0.1619189   0.1770233   0.6158141  )
       315           N   tau( 315) = (   0.3478549  -0.3327505   0.6158141  )
       316           N   tau( 316) = (   0.0929680  -0.0778636   0.9623185  )
       317           N   tau( 317) = (   0.3478549   0.1770233  -0.0771948  )
       318           N   tau( 318) = (   0.0929680   0.4319102   0.2693096  )
       319           N   tau( 319) = (   0.6027418  -0.0778636   0.2693096  )
       320           N   tau( 320) = (   0.3478549   0.1770233   0.6158141  )
       321           C   tau( 321) = (   0.2001118   0.1238286   0.2724575  )
       322           C   tau( 322) = (  -0.0547751   0.3787155   0.6189619  )
       323           C   tau( 323) = (   0.4549987  -0.1310583   0.6189619  )
       324           C   tau( 324) = (   0.2001118   0.1238286   0.9654664  )
       325           C   tau( 325) = (   0.4549987   0.3787155  -0.0740469  )
       326           C   tau( 326) = (   0.2001118   0.6336024   0.2724575  )
       327           C   tau( 327) = (   0.7098857   0.1238286   0.2724575  )
       328           C   tau( 328) = (   0.4549987   0.3787155   0.6189619  )
       329           H   tau( 329) = (   0.2433936   0.0903755   0.2792431  )
       330           H   tau( 330) = (  -0.0114933   0.3452624   0.6257475  )
       331           H   tau( 331) = (   0.4982805  -0.1645114   0.6257475  )
       332           H   tau( 332) = (   0.2433936   0.0903755   0.9722520  )
       333           H   tau( 333) = (   0.4982805   0.3452624  -0.0672613  )
       334           H   tau( 334) = (   0.2433936   0.6001493   0.2792431  )
       335           H   tau( 335) = (   0.7531674   0.0903755   0.2792431  )
       336           H   tau( 336) = (   0.4982805   0.3452624   0.6257475  )
       337           N   tau( 337) = (   0.2134168   0.1890817   0.2718980  )
       338           N   tau( 338) = (  -0.0414701   0.4439686   0.6184024  )
       339           N   tau( 339) = (   0.4683037  -0.0658052   0.6184024  )
       340           N   tau( 340) = (   0.2134168   0.1890817   0.9649069  )
       341           N   tau( 341) = (   0.4683037   0.4439686  -0.0746064  )
       342           N   tau( 342) = (   0.2134168   0.6988555   0.2718980  )
       343           N   tau( 343) = (   0.7231906   0.1890817   0.2718980  )
       344           N   tau( 344) = (   0.4683037   0.4439686   0.6184024  )
       345           C   tau( 345) = (  -0.0952547   0.3000863   0.2614205  )
       346           C   tau( 346) = (  -0.3501416   0.5549732   0.6079250  )
       347           C   tau( 347) = (   0.1596322   0.0451994   0.6079250  )
       348           C   tau( 348) = (  -0.0952547   0.3000863   0.9544294  )
       349           C   tau( 349) = (   0.1596322   0.5549732  -0.0850839  )
       350           C   tau( 350) = (  -0.0952547   0.8098601   0.2614205  )
       351           C   tau( 351) = (   0.4145191   0.3000863   0.2614205  )
       352           C   tau( 352) = (   0.1596322   0.5549732   0.6079250  )
       353           H   tau( 353) = (   0.0549167   0.2466802   0.2569907  )
       354           H   tau( 354) = (  -0.1999702   0.5015671   0.6034951  )
       355           H   tau( 355) = (   0.3098036  -0.0082067   0.6034951  )
       356           H   tau( 356) = (   0.0549167   0.2466802   0.9499995  )
       357           H   tau( 357) = (   0.3098036   0.5015671  -0.0895138  )
       358           H   tau( 358) = (   0.0549167   0.7564540   0.2569907  )
       359           H   tau( 359) = (   0.5646905   0.2466802   0.2569907  )
       360           H   tau( 360) = (   0.3098036   0.5015671   0.6034951  )
       361           N   tau( 361) = (   0.3378733   0.0161599   0.2291408  )
       362           N   tau( 362) = (   0.0829864   0.2710468   0.5756453  )
       363           N   tau( 363) = (   0.5927603  -0.2387270   0.5756453  )
       364           N   tau( 364) = (   0.3378733   0.0161599   0.9221497  )
       365           N   tau( 365) = (   0.5927603   0.2710468  -0.1173636  )
       366           N   tau( 366) = (   0.3378733   0.5259337   0.2291408  )
       367           N   tau( 367) = (   0.8476472   0.0161599   0.2291408  )
       368           N   tau( 368) = (   0.5927603   0.2710468   0.5756453  )
       369           N   tau( 369) = (   0.1067907   0.3341761  -0.1111471  )
       370           N   tau( 370) = (  -0.1480962   0.5890630   0.2353574  )
       371           N   tau( 371) = (   0.3616776   0.0792892   0.2353574  )
       372           N   tau( 372) = (   0.1067907   0.3341761   0.5818618  )
       373           N   tau( 373) = (   0.3616776   0.5890630  -0.4576515  )
       374           N   tau( 374) = (   0.1067907   0.8439499  -0.1111471  )
       375           N   tau( 375) = (   0.6165645   0.3341761  -0.1111471  )
       376           N   tau( 376) = (   0.3616776   0.5890630   0.2353574  )
       377           C   tau( 377) = (   0.1192921   0.1580534  -0.0808549  )
       378           C   tau( 378) = (  -0.1355948   0.4129403   0.2656496  )
       379           C   tau( 379) = (   0.3741790  -0.0968335   0.2656496  )
       380           C   tau( 380) = (   0.1192921   0.1580534   0.6121540  )
       381           C   tau( 381) = (   0.3741790   0.4129403  -0.4273593  )
       382           C   tau( 382) = (   0.1192921   0.6678273  -0.0808549  )
       383           C   tau( 383) = (   0.6290659   0.1580534  -0.0808549  )
       384           C   tau( 384) = (   0.3741790   0.4129403   0.2656496  )
       385           C   tau( 385) = (   0.1264886   0.2304029  -0.0853750  )
       386           C   tau( 386) = (  -0.1283983   0.4852898   0.2611294  )
       387           C   tau( 387) = (   0.3813755  -0.0244840   0.2611294  )
       388           C   tau( 388) = (   0.1264886   0.2304029   0.6076339  )
       389           C   tau( 389) = (   0.3813755   0.4852898  -0.4318794  )
       390           C   tau( 390) = (   0.1264886   0.7401767  -0.0853750  )
       391           C   tau( 391) = (   0.6362624   0.2304029  -0.0853750  )
       392           C   tau( 392) = (   0.3813755   0.4852898   0.2611294  )
       393           C   tau( 393) = (   0.1733530   0.1135697  -0.0858899  )
       394           C   tau( 394) = (  -0.0815340   0.3684566   0.2606145  )
       395           C   tau( 395) = (   0.4282399  -0.1413172   0.2606145  )
       396           C   tau( 396) = (   0.1733530   0.1135697   0.6071189  )
       397           C   tau( 397) = (   0.4282399   0.3684566  -0.4323944  )
       398           C   tau( 398) = (   0.1733530   0.6233435  -0.0858899  )
       399           C   tau( 399) = (   0.6831268   0.1135697  -0.0858899  )
       400           C   tau( 400) = (   0.4282399   0.3684566   0.2606145  )
       401           H   tau( 401) = (   0.2248879   0.1320089  -0.0919123  )
       402           H   tau( 402) = (  -0.0299990   0.3868958   0.2545921  )
       403           H   tau( 403) = (   0.4797748  -0.1228780   0.2545921  )
       404           H   tau( 404) = (   0.2248879   0.1320089   0.6010965  )
       405           H   tau( 405) = (   0.4797748   0.3868958  -0.4384168  )
       406           H   tau( 406) = (   0.2248879   0.6417827  -0.0919123  )
       407           H   tau( 407) = (   0.7346617   0.1320089  -0.0919123  )
       408           H   tau( 408) = (   0.4797748   0.3868958   0.2545921  )
       409           C   tau( 409) = (  -0.1617165   0.2782942   0.2661087  )
       410           C   tau( 410) = (  -0.4166034   0.5331811   0.6126131  )
       411           C   tau( 411) = (   0.0931704   0.0234072   0.6126131  )
       412           C   tau( 412) = (  -0.1617165   0.2782942   0.9591176  )
       413           C   tau( 413) = (   0.0931704   0.5331811  -0.0803957  )
       414           C   tau( 414) = (  -0.1617165   0.7880680   0.2661087  )
       415           C   tau( 415) = (   0.3480573   0.2782942   0.2661087  )
       416           C   tau( 416) = (   0.0931704   0.5331811   0.6126131  )
       417           H   tau( 417) = (  -0.1751034   0.2248802   0.2650870  )
       418           H   tau( 418) = (  -0.4299903   0.4797671   0.6115915  )
       419           H   tau( 419) = (   0.0797836  -0.0300067   0.6115915  )
       420           H   tau( 420) = (  -0.1751034   0.2248802   0.9580959  )
       421           H   tau( 421) = (   0.0797836   0.4797671  -0.0814174  )
       422           H   tau( 422) = (  -0.1751034   0.7346540   0.2650870  )
       423           H   tau( 423) = (   0.3346705   0.2248802   0.2650870  )
       424           H   tau( 424) = (   0.0797836   0.4797671   0.6115915  )
       425           N   tau( 425) = (   0.1757347   0.2686298  -0.0598561  )
       426           N   tau( 426) = (  -0.0791523   0.5235167   0.2866484  )
       427           N   tau( 427) = (   0.4306216   0.0137429   0.2866484  )
       428           N   tau( 428) = (   0.1757347   0.2686298   0.6331528  )
       429           N   tau( 429) = (   0.4306216   0.5235167  -0.4063605  )
       430           N   tau( 430) = (   0.1757347   0.7784037  -0.0598561  )
       431           N   tau( 431) = (   0.6855085   0.2686298  -0.0598561  )
       432           N   tau( 432) = (   0.4306216   0.5235167   0.2866484  )
       433           N   tau( 433) = (   0.1619189   0.3327505  -0.0771948  )
       434           N   tau( 434) = (  -0.0929680   0.5876374   0.2693096  )
       435           N   tau( 435) = (   0.4168059   0.0778636   0.2693096  )
       436           N   tau( 436) = (   0.1619189   0.3327505   0.6158141  )
       437           N   tau( 437) = (   0.4168059   0.5876374  -0.4236992  )
       438           N   tau( 438) = (   0.1619189   0.8425243  -0.0771948  )
       439           N   tau( 439) = (   0.6716928   0.3327505  -0.0771948  )
       440           N   tau( 440) = (   0.4168059   0.5876374   0.2693096  )
       441           C   tau( 441) = (   0.0547751   0.1310583  -0.0740469  )
       442           C   tau( 442) = (  -0.2001118   0.3859452   0.2724575  )
       443           C   tau( 443) = (   0.3096620  -0.1238286   0.2724575  )
       444           C   tau( 444) = (   0.0547751   0.1310583   0.6189619  )
       445           C   tau( 445) = (   0.3096620   0.3859452  -0.4205514  )
       446           C   tau( 446) = (   0.0547751   0.6408321  -0.0740469  )
       447           C   tau( 447) = (   0.5645489   0.1310583  -0.0740469  )
       448           C   tau( 448) = (   0.3096620   0.3859452   0.2724575  )
       449           H   tau( 449) = (   0.2663802  -0.0903755   0.2792431  )
       450           H   tau( 450) = (   0.0114933   0.1645114   0.6257475  )
       451           H   tau( 451) = (   0.5212672  -0.3452624   0.6257475  )
       452           H   tau( 452) = (   0.2663802  -0.0903755   0.9722520  )
       453           H   tau( 453) = (   0.5212672   0.1645114  -0.0672613  )
       454           H   tau( 454) = (   0.2663802   0.4193983   0.2792431  )
       455           H   tau( 455) = (   0.7761541  -0.0903755   0.2792431  )
       456           H   tau( 456) = (   0.5212672   0.1645114   0.6257475  )
       457           N   tau( 457) = (   0.2963571  -0.1890817   0.2718980  )
       458           N   tau( 458) = (   0.0414701   0.0658052   0.6184024  )
       459           N   tau( 459) = (   0.5512440  -0.4439686   0.6184024  )
       460           N   tau( 460) = (   0.2963571  -0.1890817   0.9649069  )
       461           N   tau( 461) = (   0.5512440   0.0658052  -0.0746064  )
       462           N   tau( 462) = (   0.2963571   0.3206921   0.2718980  )
       463           N   tau( 463) = (   0.8061309  -0.1890817   0.2718980  )
       464           N   tau( 464) = (   0.5512440   0.0658052   0.6184024  )
       465           C   tau( 465) = (   0.0952547   0.2096875   0.2614205  )
       466           C   tau( 466) = (  -0.1596322   0.4645744   0.6079250  )
       467           C   tau( 467) = (   0.3501416  -0.0451994   0.6079250  )
       468           C   tau( 468) = (   0.0952547   0.2096875   0.9544294  )
       469           C   tau( 469) = (   0.3501416   0.4645744  -0.0850839  )
       470           C   tau( 470) = (   0.0952547   0.7194613   0.2614205  )
       471           C   tau( 471) = (   0.6050285   0.2096875   0.2614205  )
       472           C   tau( 472) = (   0.3501416   0.4645744   0.6079250  )
       473           H   tau( 473) = (  -0.0549167   0.2630936   0.2569907  )
       474           H   tau( 474) = (  -0.3098036   0.5179805   0.6034951  )
       475           H   tau( 475) = (   0.1999702   0.0082067   0.6034951  )
       476           H   tau( 476) = (  -0.0549167   0.2630936   0.9499995  )
       477           H   tau( 477) = (   0.1999702   0.5179805  -0.0895138  )
       478           H   tau( 478) = (  -0.0549167   0.7728675   0.2569907  )
       479           H   tau( 479) = (   0.4548571   0.2630936   0.2569907  )
       480           H   tau( 480) = (   0.1999702   0.5179805   0.6034951  )
       481           Zn  tau( 481) = (   0.2548869   0.0000000   0.1732522  )
       482           Zn  tau( 482) = (   0.0000000   0.2548869   0.5197567  )
       483           Zn  tau( 483) = (   0.5097738  -0.2548869   0.5197567  )
       484           Zn  tau( 484) = (   0.2548869   0.0000000   0.8662611  )
       485           Zn  tau( 485) = (   0.5097738   0.2548869  -0.1732522  )
       486           Zn  tau( 486) = (   0.2548869   0.5097738   0.1732522  )
       487           Zn  tau( 487) = (   0.7646607   0.0000000   0.1732522  )
       488           Zn  tau( 488) = (   0.5097738   0.2548869   0.5197567  )
       489           Zn  tau( 489) = (   0.0000000   0.0000000   0.3465044  )
       490           Zn  tau( 490) = (  -0.2548869   0.2548869   0.6930089  )
       491           Zn  tau( 491) = (   0.2548869  -0.2548869   0.6930089  )
       492           Zn  tau( 492) = (   0.0000000   0.0000000   1.0395133  )
       493           Zn  tau( 493) = (   0.2548869   0.2548869   0.0000000  )
       494           Zn  tau( 494) = (   0.0000000   0.5097738   0.3465044  )
       495           Zn  tau( 495) = (   0.5097738   0.0000000   0.3465044  )
       496           Zn  tau( 496) = (   0.2548869   0.2548869   0.6930089  )

   Crystallographic axes

     site n.     atom                  positions (cryst. coord.)
         1           N   tau(   1) = (  0.0032815  0.3505269  0.1844547  )
         2           N   tau(   2) = (  0.5032815  0.3505269  0.1844547  )
         3           N   tau(   3) = (  0.0032815  0.8505269  0.1844547  )
         4           N   tau(   4) = (  0.5032815  0.8505269  0.1844547  )
         5           N   tau(   5) = (  0.0032815  0.3505269  0.6844547  )
         6           N   tau(   6) = (  0.5032815  0.3505269  0.6844547  )
         7           N   tau(   7) = (  0.0032815  0.8505269  0.6844547  )
         8           N   tau(   8) = (  0.5032815  0.8505269  0.6844547  )
         9           N   tau(   9) = (  0.4754485  0.4079607  0.2230258  )
        10           N   tau(  10) = (  0.9754485  0.4079607  0.2230258  )
        11           N   tau(  11) = (  0.4754485  0.9079607  0.2230258  )
        12           N   tau(  12) = (  0.9754485  0.9079607  0.2230258  )
        13           N   tau(  13) = (  0.4754485  0.4079607  0.7230258  )
        14           N   tau(  14) = (  0.9754485  0.4079607  0.7230258  )
        15           N   tau(  15) = (  0.4754485  0.9079607  0.7230258  )
        16           N   tau(  16) = (  0.9754485  0.9079607  0.7230258  )
        17           C   tau(  17) = (  0.4413312  0.2133592  0.0380182  )
        18           C   tau(  18) = (  0.9413312  0.2133592  0.0380182  )
        19           C   tau(  19) = (  0.4413312  0.7133592  0.0380182  )
        20           C   tau(  20) = (  0.9413312  0.7133592  0.0380182  )
        21           C   tau(  21) = (  0.4413312  0.2133592  0.5380182  )
        22           C   tau(  22) = (  0.9413312  0.2133592  0.5380182  )
        23           C   tau(  23) = (  0.4413312  0.7133592  0.5380182  )
        24           C   tau(  24) = (  0.9413312  0.7133592  0.5380182  )
        25           C   tau(  25) = (  0.4375339  0.2875827  0.1019219  )
        26           C   tau(  26) = (  0.9375339  0.2875827  0.1019219  )
        27           C   tau(  27) = (  0.4375339  0.7875827  0.1019219  )
        28           C   tau(  28) = (  0.9375339  0.7875827  0.1019219  )
        29           C   tau(  29) = (  0.4375339  0.2875827  0.6019219  )
        30           C   tau(  30) = (  0.9375339  0.2875827  0.6019219  )
        31           C   tau(  31) = (  0.4375339  0.7875827  0.6019219  )
        32           C   tau(  32) = (  0.9375339  0.7875827  0.6019219  )
        33           C   tau(  33) = (  0.3919396  0.1733611  0.4408316  )
        34           C   tau(  34) = (  0.8919396  0.1733611  0.4413630  )
        35           C   tau(  35) = (  0.3919396  0.6733611  0.4413630  )
        36           C   tau(  36) = (  0.8919396  0.6733611  0.4413630  )
        37           C   tau(  37) = (  0.3919396  0.1733611  0.9413630  )
        38           C   tau(  38) = (  0.8919396  0.1733611  0.9413630  )
        39           C   tau(  39) = (  0.3919396  0.6733611  0.9413630  )
        40           C   tau(  40) = (  0.8919396  0.6733611  0.9413630  )
        41           H   tau(  41) = (  0.3457378  0.1957919  0.4089018  )
        42           H   tau(  42) = (  0.8457378  0.1957919  0.4089018  )
        43           H   tau(  43) = (  0.3457378  0.6957919  0.4089018  )
        44           H   tau(  44) = (  0.8457378  0.6957919  0.4089018  )
        45           H   tau(  45) = (  0.3457378  0.1957919  0.9089018  )
        46           H   tau(  46) = (  0.8457378  0.1957919  0.9089018  )
        47           H   tau(  47) = (  0.3457378  0.6957919  0.9089018  )
        48           H   tau(  48) = (  0.8457378  0.6957919  0.9089018  )
        49           C   tau(  49) = (  0.4666208  0.0809633  0.4315744  )
        50           C   tau(  50) = (  0.9666208  0.0809633  0.4315744  )
        51           C   tau(  51) = (  0.4666208  0.5809633  0.4315744  )
        52           C   tau(  52) = (  0.9666208  0.5809633  0.4315744  )
        53           C   tau(  53) = (  0.4666208  0.0809633  0.9315744  )
        54           C   tau(  54) = (  0.9666208  0.0809633  0.9315744  )
        55           C   tau(  55) = (  0.4666208  0.5809633  0.9315744  )
        56           C   tau(  56) = (  0.9666208  0.5809633  0.9315744  )
        57           H   tau(  57) = (  0.4804881  0.0293106  0.3923147  )
        58           H   tau(  58) = (  0.9804881  0.0293106  0.3923147  )
        59           H   tau(  59) = (  0.4804881  0.5293106  0.3923147  )
        60           H   tau(  60) = (  0.9804881  0.5293106  0.3923147  )
        61           H   tau(  61) = (  0.4804881  0.0293106  0.8923147  )
        62           H   tau(  62) = (  0.9804881  0.0293106  0.8923147  )
        63           H   tau(  63) = (  0.4804881  0.5293106  0.8923147  )
        64           H   tau(  64) = (  0.9804881  0.5293106  0.8923147  )
        65           N   tau(  65) = (  0.3708203  0.3066651  0.0911141  )
        66           N   tau(  66) = (  0.8708203  0.3066651  0.0911141  )
        67           N   tau(  67) = (  0.3708203  0.8066651  0.0911141  )
        68           N   tau(  68) = (  0.8708203  0.8066651  0.0911141  )
        69           N   tau(  69) = (  0.3708203  0.3066651  0.5911141  )
        70           N   tau(  70) = (  0.8708203  0.3066651  0.5911141  )
        71           N   tau(  71) = (  0.3708203  0.8066651  0.5911141  )
        72           N   tau(  72) = (  0.8708203  0.8066651  0.5911141  )
        73           N   tau(  73) = (  0.3968809  0.3820661  0.1675562  )
        74           N   tau(  74) = (  0.8968809  0.3820661  0.1675562  )
        75           N   tau(  75) = (  0.3968809  0.8820661  0.1675562  )
        76           N   tau(  76) = (  0.8968809  0.8820661  0.1675562  )
        77           N   tau(  77) = (  0.3968809  0.3820661  0.6675562  )
        78           N   tau(  78) = (  0.8968809  0.3820661  0.6675562  )
        79           N   tau(  79) = (  0.3968809  0.8820661  0.6675562  )
        80           N   tau(  80) = (  0.8968809  0.8820661  0.6675562  )
        81           C   tau(  81) = (  0.4996994  0.1819698  0.0748207  )
        82           C   tau(  82) = (  0.9996994  0.1819698  0.0748207  )
        83           C   tau(  83) = (  0.4996994  0.6819698  0.0748207  )
        84           C   tau(  84) = (  0.9996994  0.6819698  0.0748207  )
        85           C   tau(  85) = (  0.4996994  0.1819698  0.5748207  )
        86           C   tau(  86) = (  0.9996994  0.1819698  0.5748207  )
        87           C   tau(  87) = (  0.4996994  0.6819698  0.5748207  )
        88           C   tau(  88) = (  0.9996994  0.6819698  0.5748207  )
        89           H   tau(  89) = (  0.0372555  0.2098857  0.1500843  )
        90           H   tau(  90) = (  0.5372555  0.2098857  0.1500843  )
        91           H   tau(  91) = (  0.0372555  0.7098857  0.1500843  )
        92           H   tau(  92) = (  0.5372555  0.7098857  0.1500843  )
        93           H   tau(  93) = (  0.0372555  0.2098857  0.6500843  )
        94           H   tau(  94) = (  0.5372555  0.2098857  0.6500843  )
        95           H   tau(  95) = (  0.0372555  0.7098857  0.6500843  )
        96           H   tau(  96) = (  0.5372555  0.7098857  0.6500843  )
        97           N   tau(  97) = (  0.0131529  0.1183715  0.0238685  )
        98           N   tau(  98) = (  0.5131529  0.1183715  0.0238685  )
        99           N   tau(  99) = (  0.0131529  0.6183715  0.0238685  )
       100           N   tau( 100) = (  0.5131529  0.6183715  0.0238685  )
       101           N   tau( 101) = (  0.0131529  0.1183715  0.5238685  )
       102           N   tau( 102) = (  0.5131529  0.1183715  0.5238685  )
       103           N   tau( 103) = (  0.0131529  0.6183715  0.5238685  )
       104           N   tau( 104) = (  0.5131529  0.6183715  0.5238685  )
       105           C   tau( 105) = (  0.2179589  0.0170545  0.1122388  )
       106           C   tau( 106) = (  0.7179589  0.0170545  0.1122388  )
       107           C   tau( 107) = (  0.2179589  0.5170545  0.1122388  )
       108           C   tau( 108) = (  0.7179589  0.5170545  0.1122388  )
       109           C   tau( 109) = (  0.2179589  0.0170545  0.6122388  )
       110           C   tau( 110) = (  0.7179589  0.0170545  0.6122388  )
       111           C   tau( 111) = (  0.2179589  0.5170545  0.6122388  )
       112           C   tau( 112) = (  0.7179589  0.5170545  0.6122388  )
       113           H   tau( 113) = (  0.3684472  0.0726328  0.3119132  )
       114           H   tau( 114) = (  0.8684472  0.0726328  0.3119132  )
       115           H   tau( 115) = (  0.3684472  0.5726328  0.3119132  )
       116           H   tau( 116) = (  0.8684472  0.5726328  0.3119132  )
       117           H   tau( 117) = (  0.3684472  0.0726328  0.8119132  )
       118           H   tau( 118) = (  0.8684472  0.0726328  0.8119132  )
       119           H   tau( 119) = (  0.3684472  0.5726328  0.8119132  )
       120           H   tau( 120) = (  0.8684472  0.5726328  0.8119132  )
       121           N   tau( 121) = (  0.1660722  0.3188268  0.3155453  )
       122           N   tau( 122) = (  0.6660722  0.3188268  0.3155453  )
       123           N   tau( 123) = (  0.1660722  0.8188268  0.3155453  )
       124           N   tau( 124) = (  0.6660722  0.8188268  0.3155453  )
       125           N   tau( 125) = (  0.1660722  0.3188268  0.8155453  )
       126           N   tau( 126) = (  0.6660722  0.3188268  0.8155453  )
       127           N   tau( 127) = (  0.1660722  0.8188268  0.8155453  )
       128           N   tau( 128) = (  0.6660722  0.8188268  0.8155453  )
       129           N   tau( 129) = (  0.1849349  0.2524227  0.2769742  )
       130           N   tau( 130) = (  0.6849349  0.2524227  0.2769742  )
       131           N   tau( 131) = (  0.1849349  0.7524227  0.2769742  )
       132           N   tau( 132) = (  0.6849349  0.7524227  0.2769742  )
       133           N   tau( 133) = (  0.1849349  0.2524227  0.7769742  )
       134           N   tau( 134) = (  0.6849349  0.2524227  0.7769742  )
       135           N   tau( 135) = (  0.1849349  0.7524227  0.7769742  )
       136           N   tau( 136) = (  0.6849349  0.7524227  0.7769742  )
       137           C   tau( 137) = (  0.1753410  0.4033130  0.4619818  )
       138           C   tau( 138) = (  0.6753410  0.4033130  0.4619818  )
       139           C   tau( 139) = (  0.1753410  0.9033130  0.4619818  )
       140           C   tau( 140) = (  0.6753410  0.9033130  0.4619818  )
       141           C   tau( 141) = (  0.1753410  0.4033130  0.9619818  )
       142           C   tau( 142) = (  0.6753410  0.4033130  0.9619818  )
       143           C   tau( 143) = (  0.1753410  0.9033130  0.9619818  )
       144           C   tau( 144) = (  0.6753410  0.9033130  0.9619818  )
       145           C   tau( 145) = (  0.1856608  0.3356120  0.3980781  )
       146           C   tau( 146) = (  0.6856608  0.3356120  0.3980781  )
       147           C   tau( 147) = (  0.1856608  0.8356120  0.3980781  )
       148           C   tau( 148) = (  0.6856608  0.8356120  0.3980781  )
       149           C   tau( 149) = (  0.1856608  0.3356120  0.8980781  )
       150           C   tau( 150) = (  0.6856608  0.3356120  0.8980781  )
       151           C   tau( 151) = (  0.1856608  0.8356120  0.8980781  )
       152           C   tau( 152) = (  0.6856608  0.8356120  0.8980781  )
       153           C   tau( 153) = (  0.2319981  0.4505766  0.0586370  )
       154           C   tau( 154) = (  0.7319981  0.4505766  0.0586370  )
       155           C   tau( 155) = (  0.2319981  0.9505766  0.0586370  )
       156           C   tau( 156) = (  0.7319981  0.9505766  0.0586370  )
       157           C   tau( 157) = (  0.2319981  0.4505766  0.5586370  )
       158           C   tau( 158) = (  0.7319981  0.4505766  0.5586370  )
       159           C   tau( 159) = (  0.2319981  0.9505766  0.5586370  )
       160           C   tau( 160) = (  0.7319981  0.9505766  0.5586370  )
       161           H   tau( 161) = (  0.2868901  0.4368360  0.0910982  )
       162           H   tau( 162) = (  0.7868901  0.4368360  0.0910982  )
       163           H   tau( 163) = (  0.2868901  0.9368360  0.0910982  )
       164           H   tau( 164) = (  0.7868901  0.9368360  0.0910982  )
       165           H   tau( 165) = (  0.2868901  0.4368360  0.5910982  )
       166           H   tau( 166) = (  0.7868901  0.4368360  0.5910982  )
       167           H   tau( 167) = (  0.2868901  0.9368360  0.5910982  )
       168           H   tau( 168) = (  0.7868901  0.9368360  0.5910982  )
       169           C   tau( 169) = (  0.1493889  0.0350464  0.0684256  )
       170           C   tau( 170) = (  0.6493889  0.0350464  0.0684256  )
       171           C   tau( 171) = (  0.1493889  0.5350464  0.0684256  )
       172           C   tau( 172) = (  0.6493889  0.5350464  0.0684256  )
       173           C   tau( 173) = (  0.1493889  0.0350464  0.5684256  )
       174           C   tau( 174) = (  0.6493889  0.0350464  0.5684256  )
       175           C   tau( 175) = (  0.1493889  0.5350464  0.5684256  )
       176           C   tau( 176) = (  0.6493889  0.5350464  0.5684256  )
       177           H   tau( 177) = (  0.1369958  0.0881734  0.1076853  )
       178           H   tau( 178) = (  0.6369958  0.0881734  0.1076853  )
       179           H   tau( 179) = (  0.1369958  0.5881734  0.1076853  )
       180           H   tau( 180) = (  0.6369958  0.5881734  0.1076853  )
       181           H   tau( 181) = (  0.1369958  0.0881734  0.6076853  )
       182           H   tau( 182) = (  0.6369958  0.0881734  0.6076853  )
       183           H   tau( 183) = (  0.1369958  0.5881734  0.6076853  )
       184           H   tau( 184) = (  0.6369958  0.5881734  0.6076853  )
       185           N   tau( 185) = (  0.2155510  0.2797062  0.4088859  )
       186           N   tau( 186) = (  0.7155510  0.2797062  0.4088859  )
       187           N   tau( 187) = (  0.2155510  0.7797062  0.4088859  )
       188           N   tau( 188) = (  0.7155510  0.7797062  0.4088859  )
       189           N   tau( 189) = (  0.2155510  0.2797062  0.9088859  )
       190           N   tau( 190) = (  0.7155510  0.2797062  0.9088859  )
       191           N   tau( 191) = (  0.2155510  0.7797062  0.9088859  )
       192           N   tau( 192) = (  0.7155510  0.7797062  0.9088859  )
       193           N   tau( 193) = (  0.2145099  0.2293247  0.3324438  )
       194           N   tau( 194) = (  0.7145099  0.2293247  0.3324438  )
       195           N   tau( 195) = (  0.2145099  0.7293247  0.3324438  )
       196           N   tau( 196) = (  0.7145099  0.7293247  0.3324438  )
       197           N   tau( 197) = (  0.2145099  0.2293247  0.8324438  )
       198           N   tau( 198) = (  0.7145099  0.2293247  0.8324438  )
       199           N   tau( 199) = (  0.2145099  0.7293247  0.8324438  )
       200           N   tau( 200) = (  0.7145099  0.7293247  0.8324438  )
       201           C   tau( 201) = (  0.1071491  0.4248787  0.4251793  )
       202           C   tau( 202) = (  0.6071491  0.4248787  0.4251793  )
       203           C   tau( 203) = (  0.1071491  0.9248787  0.4251793  )
       204           C   tau( 204) = (  0.6071491  0.9248787  0.4251793  )
       205           C   tau( 205) = (  0.1071491  0.4248787  0.9251793  )
       206           C   tau( 206) = (  0.6071491  0.4248787  0.9251793  )
       207           C   tau( 207) = (  0.1071491  0.9248787  0.9251793  )
       208           C   tau( 208) = (  0.6071491  0.9248787  0.9251793  )
       209           H   tau( 209) = (  0.0598014  0.3871712  0.3499157  )
       210           H   tau( 210) = (  0.5598014  0.3871712  0.3499157  )
       211           H   tau( 211) = (  0.0598014  0.8871712  0.3499157  )
       212           H   tau( 212) = (  0.5598014  0.8871712  0.3499157  )
       213           H   tau( 213) = (  0.0598014  0.3871712  0.8499157  )
       214           H   tau( 214) = (  0.5598014  0.3871712  0.8499157  )
       215           H   tau( 215) = (  0.0598014  0.8871712  0.8499157  )
       216           H   tau( 216) = (  0.5598014  0.8871712  0.8499157  )
       217           N   tau( 217) = (  0.0945030  0.4892844  0.4761315  )
       218           N   tau( 218) = (  0.5945030  0.4892844  0.4761315  )
       219           N   tau( 219) = (  0.0945030  0.9892844  0.4761315  )
       220           N   tau( 220) = (  0.5945030  0.9892844  0.4761315  )
       221           N   tau( 221) = (  0.0945030  0.4892844  0.9761315  )
       222           N   tau( 222) = (  0.5945030  0.4892844  0.9761315  )
       223           N   tau( 223) = (  0.0945030  0.9892844  0.9761315  )
       224           N   tau( 224) = (  0.5945030  0.9892844  0.9761315  )
       225           C   tau( 225) = (  0.4048157  0.1057201  0.3877612  )
       226           C   tau( 226) = (  0.9048157  0.1057201  0.3877612  )
       227           C   tau( 227) = (  0.4048157  0.6057201  0.3877612  )
       228           C   tau( 228) = (  0.9048157  0.6057201  0.3877612  )
       229           C   tau( 229) = (  0.4048157  0.1057201  0.8877612  )
       230           C   tau( 230) = (  0.9048157  0.1057201  0.8877612  )
       231           C   tau( 231) = (  0.4048157  0.6057201  0.8877612  )
       232           C   tau( 232) = (  0.9048157  0.6057201  0.8877612  )
       233           H   tau( 233) = (  0.2607196  0.0565340  0.1880868  )
       234           H   tau( 234) = (  0.7607196  0.0565340  0.1880868  )
       235           H   tau( 235) = (  0.2607196  0.5565340  0.1880868  )
       236           H   tau( 236) = (  0.7607196  0.5565340  0.1880868  )
       237           H   tau( 237) = (  0.2607196  0.0565340  0.6880868  )
       238           H   tau( 238) = (  0.7607196  0.0565340  0.6880868  )
       239           H   tau( 239) = (  0.2607196  0.5565340  0.6880868  )
       240           H   tau( 240) = (  0.7607196  0.5565340  0.6880868  )
       241           N   tau( 241) = (  0.1494731  0.3339278  0.1527546  )
       242           N   tau( 242) = (  0.6494731  0.3339278  0.1527546  )
       243           N   tau( 243) = (  0.1494731  0.8339278  0.1527546  )
       244           N   tau( 244) = (  0.6494731  0.8339278  0.1527546  )
       245           N   tau( 245) = (  0.1494731  0.3339278  0.6527546  )
       246           N   tau( 246) = (  0.6494731  0.3339278  0.6527546  )
       247           N   tau( 247) = (  0.1494731  0.8339278  0.6527546  )
       248           N   tau( 248) = (  0.6494731  0.8339278  0.6527546  )
       249           N   tau( 249) = (  0.0920393  0.3150651  0.0674878  )
       250           N   tau( 250) = (  0.5920393  0.3150651  0.0674878  )
       251           N   tau( 251) = (  0.0920393  0.8150651  0.0674878  )
       252           N   tau( 252) = (  0.5920393  0.8150651  0.0674878  )
       253           N   tau( 253) = (  0.0920393  0.3150651  0.5674878  )
       254           N   tau( 254) = (  0.5920393  0.3150651  0.5674878  )
       255           N   tau( 255) = (  0.0920393  0.8150651  0.5674878  )
       256           N   tau( 256) = (  0.5920393  0.8150651  0.5674878  )
       257           C   tau( 257) = (  0.2866408  0.3246590  0.2279720  )
       258           C   tau( 258) = (  0.7866408  0.3246590  0.2279720  )
       259           C   tau( 259) = (  0.2866408  0.8246590  0.2279720  )
       260           C   tau( 260) = (  0.7866408  0.8246590  0.2279720  )
       261           C   tau( 261) = (  0.2866408  0.3246590  0.7279720  )
       262           C   tau( 262) = (  0.7866408  0.3246590  0.7279720  )
       263           C   tau( 263) = (  0.2866408  0.8246590  0.7279720  )
       264           C   tau( 264) = (  0.7866408  0.8246590  0.7279720  )
       265           C   tau( 265) = (  0.2124173  0.3143392  0.1499511  )
       266           C   tau( 266) = (  0.7124173  0.3143392  0.1499511  )
       267           C   tau( 267) = (  0.2124173  0.8143392  0.1499511  )
       268           C   tau( 268) = (  0.7124173  0.8143392  0.1499511  )
       269           C   tau( 269) = (  0.2124173  0.3143392  0.6499511  )
       270           C   tau( 270) = (  0.7124173  0.3143392  0.6499511  )
       271           C   tau( 271) = (  0.2124173  0.8143392  0.6499511  )
       272           C   tau( 272) = (  0.7124173  0.8143392  0.6499511  )
       273           C   tau( 273) = (  0.3266389  0.2680019  0.2185785  )
       274           C   tau( 274) = (  0.8266389  0.2680019  0.2185785  )
       275           C   tau( 275) = (  0.3266389  0.7680019  0.2185785  )
       276           C   tau( 276) = (  0.8266389  0.7680019  0.2185785  )
       277           C   tau( 277) = (  0.3266389  0.2680019  0.7185785  )
       278           C   tau( 278) = (  0.8266389  0.2680019  0.7185785  )
       279           C   tau( 279) = (  0.3266389  0.7680019  0.7185785  )
       280           C   tau( 280) = (  0.8266389  0.7680019  0.7185785  )
       281           H   tau( 281) = (  0.3042081  0.2131099  0.1499459  )
       282           H   tau( 282) = (  0.8042081  0.2131099  0.1499459  )
       283           H   tau( 283) = (  0.3042081  0.7131099  0.1499459  )
       284           H   tau( 284) = (  0.8042081  0.7131099  0.1499459  )
       285           H   tau( 285) = (  0.3042081  0.2131099  0.6499459  )
       286           H   tau( 286) = (  0.8042081  0.2131099  0.6499459  )
       287           H   tau( 287) = (  0.3042081  0.7131099  0.6499459  )
       288           H   tau( 288) = (  0.8042081  0.7131099  0.6499459  )
       289           C   tau( 289) = (  0.4190367  0.3506111  0.3856575  )
       290           C   tau( 290) = (  0.9190367  0.3506111  0.3856575  )
       291           C   tau( 291) = (  0.4190367  0.8506111  0.3856575  )
       292           C   tau( 292) = (  0.9190367  0.8506111  0.3856575  )
       293           C   tau( 293) = (  0.4190367  0.3506111  0.8856575  )
       294           C   tau( 294) = (  0.9190367  0.3506111  0.8856575  )
       295           C   tau( 295) = (  0.4190367  0.8506111  0.8856575  )
       296           C   tau( 296) = (  0.9190367  0.8506111  0.8856575  )
       297           H   tau( 297) = (  0.4706894  0.3630042  0.4511775  )
       298           H   tau( 298) = (  0.9706894  0.3630042  0.4511775  )
       299           H   tau( 299) = (  0.4706894  0.8630042  0.4511775  )
       300           H   tau( 300) = (  0.9706894  0.8630042  0.4511775  )
       301           H   tau( 301) = (  0.4706894  0.3630042  0.9511775  )
       302           H   tau( 302) = (  0.9706894  0.3630042  0.9511775  )
       303           H   tau( 303) = (  0.4706894  0.8630042  0.9511775  )
       304           H   tau( 304) = (  0.9706894  0.8630042  0.9511775  )
       305           N   tau( 305) = (  0.1933349  0.2844490  0.0641553  )
       306           N   tau( 306) = (  0.6933349  0.2844490  0.0641553  )
       307           N   tau( 307) = (  0.1933349  0.7844490  0.0641553  )
       308           N   tau( 308) = (  0.6933349  0.7844490  0.0641553  )
       309           N   tau( 309) = (  0.1933349  0.2844490  0.5641553  )
       310           N   tau( 310) = (  0.6933349  0.2844490  0.5641553  )
       311           N   tau( 311) = (  0.1933349  0.7844490  0.5641553  )
       312           N   tau( 312) = (  0.6933349  0.7844490  0.5641553  )
       313           N   tau( 313) = (  0.1179339  0.2854901  0.0148148  )
       314           N   tau( 314) = (  0.6179339  0.2854901  0.0148148  )
       315           N   tau( 315) = (  0.1179339  0.7854901  0.0148148  )
       316           N   tau( 316) = (  0.6179339  0.7854901  0.0148148  )
       317           N   tau( 317) = (  0.1179339  0.2854901  0.5148148  )
       318           N   tau( 318) = (  0.6179339  0.2854901  0.5148148  )
       319           N   tau( 319) = (  0.1179339  0.7854901  0.5148148  )
       320           N   tau( 320) = (  0.6179339  0.7854901  0.5148148  )
       321           C   tau( 321) = (  0.3180302  0.3928509  0.3177296  )
       322           C   tau( 322) = (  0.8180302  0.3928509  0.3177296  )
       323           C   tau( 323) = (  0.3180302  0.8928509  0.3177296  )
       324           C   tau( 324) = (  0.8180302  0.8928509  0.3177296  )
       325           C   tau( 325) = (  0.3180302  0.3928509  0.8177296  )
       326           C   tau( 326) = (  0.8180302  0.3928509  0.8177296  )
       327           C   tau( 327) = (  0.3180302  0.8928509  0.8177296  )
       328           C   tau( 328) = (  0.8180302  0.8928509  0.8177296  )
       329           H   tau( 329) = (  0.2901143  0.4401986  0.3273698  )
       330           H   tau( 330) = (  0.7901143  0.4401986  0.3273698  )
       331           H   tau( 331) = (  0.2901143  0.9401986  0.3273698  )
       332           H   tau( 332) = (  0.7901143  0.9401986  0.3273698  )
       333           H   tau( 333) = (  0.2901143  0.4401986  0.8273698  )
       334           H   tau( 334) = (  0.7901143  0.4401986  0.8273698  )
       335           H   tau( 335) = (  0.2901143  0.9401986  0.8273698  )
       336           H   tau( 336) = (  0.7901143  0.9401986  0.8273698  )
       337           N   tau( 337) = (  0.3816285  0.4054970  0.3947814  )
       338           N   tau( 338) = (  0.8816285  0.4054970  0.3947814  )
       339           N   tau( 339) = (  0.3816285  0.9054970  0.3947814  )
       340           N   tau( 340) = (  0.8816285  0.9054970  0.3947814  )
       341           N   tau( 341) = (  0.3816285  0.4054970  0.8947814  )
       342           N   tau( 342) = (  0.8816285  0.4054970  0.8947814  )
       343           N   tau( 343) = (  0.3816285  0.9054970  0.8947814  )
       344           N   tau( 344) = (  0.8816285  0.9054970  0.8947814  )
       345           C   tau( 345) = (  0.4829455  0.0951843  0.2009044  )
       346           C   tau( 346) = (  0.9829455  0.0951843  0.2009044  )
       347           C   tau( 347) = (  0.4829455  0.5951843  0.2009044  )
       348           C   tau( 348) = (  0.9829455  0.5951843  0.2009044  )
       349           C   tau( 349) = (  0.4829455  0.0951843  0.7009044  )
       350           C   tau( 350) = (  0.9829455  0.0951843  0.7009044  )
       351           C   tau( 351) = (  0.4829455  0.5951843  0.7009044  )
       352           C   tau( 352) = (  0.9829455  0.5951843  0.7009044  )
       353           H   tau( 353) = (  0.4273672  0.2392804  0.2958144  )
       354           H   tau( 354) = (  0.9273672  0.2392804  0.2958144  )
       355           H   tau( 355) = (  0.4273672  0.7392804  0.2958144  )
       356           H   tau( 356) = (  0.9273672  0.7392804  0.2958144  )
       357           H   tau( 357) = (  0.4273672  0.2392804  0.7958144  )
       358           H   tau( 358) = (  0.9273672  0.2392804  0.7958144  )
       359           H   tau( 359) = (  0.4273672  0.7392804  0.7958144  )
       360           H   tau( 360) = (  0.9273672  0.7392804  0.7958144  )
       361           N   tau( 361) = (  0.1811732  0.4967185  0.3472454  )
       362           N   tau( 362) = (  0.6811732  0.4967185  0.3472454  )
       363           N   tau( 363) = (  0.1811732  0.9967185  0.3472454  )
       364           N   tau( 364) = (  0.6811732  0.9967185  0.3472454  )
       365           N   tau( 365) = (  0.1811732  0.4967185  0.8472454  )
       366           N   tau( 366) = (  0.6811732  0.4967185  0.8472454  )
       367           N   tau( 367) = (  0.1811732  0.9967185  0.8472454  )
       368           N   tau( 368) = (  0.6811732  0.9967185  0.8472454  )
       369           N   tau( 369) = (  0.2475773  0.0245515  0.4325122  )
       370           N   tau( 370) = (  0.7475773  0.0245515  0.4325122  )
       371           N   tau( 371) = (  0.2475773  0.5245515  0.4325122  )
       372           N   tau( 372) = (  0.7475773  0.5245515  0.4325122  )
       373           N   tau( 373) = (  0.2475773  0.0245515  0.9325122  )
       374           N   tau( 374) = (  0.7475773  0.0245515  0.9325122  )
       375           N   tau( 375) = (  0.2475773  0.5245515  0.9325122  )
       376           N   tau( 376) = (  0.7475773  0.5245515  0.9325122  )
       377           C   tau( 377) = (  0.0966870  0.0586688  0.2720280  )
       378           C   tau( 378) = (  0.5966870  0.0586688  0.2720280  )
       379           C   tau( 379) = (  0.0966870  0.5586688  0.2720280  )
       380           C   tau( 380) = (  0.5966870  0.5586688  0.2720280  )
       381           C   tau( 381) = (  0.0966870  0.0586688  0.7720280  )
       382           C   tau( 382) = (  0.5966870  0.0586688  0.7720280  )
       383           C   tau( 383) = (  0.0966870  0.5586688  0.7720280  )
       384           C   tau( 384) = (  0.5966870  0.5586688  0.7720280  )
       385           C   tau( 385) = (  0.1643880  0.0624661  0.3500489  )
       386           C   tau( 386) = (  0.6643880  0.0624661  0.3500489  )
       387           C   tau( 387) = (  0.1643880  0.5624661  0.3500489  )
       388           C   tau( 388) = (  0.6643880  0.5624661  0.3500489  )
       389           C   tau( 389) = (  0.1643880  0.0624661  0.8500489  )
       390           C   tau( 390) = (  0.6643880  0.0624661  0.8500489  )
       391           C   tau( 391) = (  0.1643880  0.5624661  0.8500489  )
       392           C   tau( 392) = (  0.6643880  0.5624661  0.8500489  )
       393           C   tau( 393) = (  0.0494234  0.1080604  0.2814215  )
       394           C   tau( 394) = (  0.5494234  0.1080604  0.2814215  )
       395           C   tau( 395) = (  0.0494234  0.6080604  0.2814215  )
       396           C   tau( 396) = (  0.5494234  0.6080604  0.2814215  )
       397           C   tau( 397) = (  0.0494234  0.1080604  0.7814215  )
       398           C   tau( 398) = (  0.5494234  0.1080604  0.7814215  )
       399           C   tau( 399) = (  0.0494234  0.6080604  0.7814215  )
       400           C   tau( 400) = (  0.5494234  0.6080604  0.7814215  )
       401           H   tau( 401) = (  0.0631640  0.1542622  0.3500541  )
       402           H   tau( 402) = (  0.5631640  0.1542622  0.3500541  )
       403           H   tau( 403) = (  0.0631640  0.6542622  0.3500541  )
       404           H   tau( 404) = (  0.5631640  0.6542622  0.3500541  )
       405           H   tau( 405) = (  0.0631640  0.1542622  0.8500541  )
       406           H   tau( 406) = (  0.5631640  0.1542622  0.8500541  )
       407           H   tau( 407) = (  0.0631640  0.6542622  0.8500541  )
       408           H   tau( 408) = (  0.5631640  0.6542622  0.8500541  )
       409           C   tau( 409) = (  0.4649536  0.0333792  0.1143425  )
       410           C   tau( 410) = (  0.9649536  0.0333792  0.1143425  )
       411           C   tau( 411) = (  0.4649536  0.5333792  0.1143425  )
       412           C   tau( 412) = (  0.9649536  0.5333792  0.1143425  )
       413           C   tau( 413) = (  0.4649536  0.0333792  0.6143425  )
       414           C   tau( 414) = (  0.9649536  0.0333792  0.6143425  )
       415           C   tau( 415) = (  0.4649536  0.5333792  0.6143425  )
       416           C   tau( 416) = (  0.9649536  0.5333792  0.6143425  )
       417           H   tau( 417) = (  0.4118266  0.0195119  0.0488225  )
       418           H   tau( 418) = (  0.9118266  0.0195119  0.0488225  )
       419           H   tau( 419) = (  0.4118266  0.5195119  0.0488225  )
       420           H   tau( 420) = (  0.9118266  0.5195119  0.0488225  )
       421           H   tau( 421) = (  0.4118266  0.0195119  0.5488225  )
       422           H   tau( 422) = (  0.9118266  0.0195119  0.5488225  )
       423           H   tau( 423) = (  0.4118266  0.5195119  0.5488225  )
       424           H   tau( 424) = (  0.9118266  0.5195119  0.5488225  )
       425           N   tau( 425) = (  0.2202938  0.1291797  0.4358447  )
       426           N   tau( 426) = (  0.7202938  0.1291797  0.4358447  )
       427           N   tau( 427) = (  0.2202938  0.6291797  0.4358447  )
       428           N   tau( 428) = (  0.7202938  0.6291797  0.4358447  )
       429           N   tau( 429) = (  0.2202938  0.1291797  0.9358447  )
       430           N   tau( 430) = (  0.7202938  0.1291797  0.9358447  )
       431           N   tau( 431) = (  0.2202938  0.6291797  0.9358447  )
       432           N   tau( 432) = (  0.7202938  0.6291797  0.9358447  )
       433           N   tau( 433) = (  0.2706753  0.1031191  0.4851852  )
       434           N   tau( 434) = (  0.7706753  0.1031191  0.4851852  )
       435           N   tau( 435) = (  0.2706753  0.6031191  0.4851852  )
       436           N   tau( 436) = (  0.7706753  0.6031191  0.4851852  )
       437           N   tau( 437) = (  0.2706753  0.1031191  0.9851852  )
       438           N   tau( 438) = (  0.7706753  0.1031191  0.9851852  )
       439           N   tau( 439) = (  0.2706753  0.6031191  0.9851852  )
       440           N   tau( 440) = (  0.7706753  0.6031191  0.9851852  )
       441           C   tau( 441) = (  0.0751213  0.0003006  0.1822704  )
       442           C   tau( 442) = (  0.5751213  0.0003006  0.1822704  )
       443           C   tau( 443) = (  0.0751213  0.5003006  0.1822704  )
       444           C   tau( 444) = (  0.5751213  0.5003006  0.1822704  )
       445           C   tau( 445) = (  0.0751213  0.0003006  0.6822704  )
       446           C   tau( 446) = (  0.5751213  0.0003006  0.6822704  )
       447           C   tau( 447) = (  0.0751213  0.5003006  0.6822704  )
       448           C   tau( 448) = (  0.5751213  0.5003006  0.6822704  )
       449           H   tau( 449) = (  0.1128288  0.4627445  0.1726302  )
       450           H   tau( 450) = (  0.6128288  0.4627445  0.1726302  )
       451           H   tau( 451) = (  0.1128288  0.9627445  0.1726302  )
       452           H   tau( 452) = (  0.6128288  0.9627445  0.1726302  )
       453           H   tau( 453) = (  0.1128288  0.4627445  0.6726302  )
       454           H   tau( 454) = (  0.6128288  0.4627445  0.6726302  )
       455           H   tau( 455) = (  0.1128288  0.9627445  0.6726302  )
       456           H   tau( 456) = (  0.6128288  0.9627445  0.6726302  )
       457           N   tau( 457) = (  0.0107156  0.4868471  0.1052186  )
       458           N   tau( 458) = (  0.5107156  0.4868471  0.1052186  )
       459           N   tau( 459) = (  0.0107156  0.9868471  0.1052186  )
       460           N   tau( 460) = (  0.5107156  0.9868471  0.1052186  )
       461           N   tau( 461) = (  0.0107156  0.4868471  0.6052186  )
       462           N   tau( 462) = (  0.5107156  0.4868471  0.6052186  )
       463           N   tau( 463) = (  0.0107156  0.9868471  0.6052186  )
       464           N   tau( 464) = (  0.5107156  0.9868471  0.6052186  )
       465           C   tau( 465) = (  0.3942799  0.2820411  0.2990956  )
       466           C   tau( 466) = (  0.8942799  0.2820411  0.2990956  )
       467           C   tau( 467) = (  0.3942799  0.7820411  0.2990956  )
       468           C   tau( 468) = (  0.8942799  0.7820411  0.2990956  )
       469           C   tau( 469) = (  0.3942799  0.2820411  0.7990956  )
       470           C   tau( 470) = (  0.8942799  0.2820411  0.7990956  )
       471           C   tau( 471) = (  0.3942799  0.7820411  0.7990956  )
       472           C   tau( 472) = (  0.8942799  0.7820411  0.7990956  )
       473           H   tau( 473) = (  0.4434660  0.1315528  0.2041856  )
       474           H   tau( 474) = (  0.9434660  0.1315528  0.2041856  )
       475           H   tau( 475) = (  0.4434660  0.6315528  0.2041856  )
       476           H   tau( 476) = (  0.9434660  0.6315528  0.2041856  )
       477           H   tau( 477) = (  0.4434660  0.1315528  0.7041856  )
       478           H   tau( 478) = (  0.9434660  0.1315528  0.7041856  )
       479           H   tau( 479) = (  0.4434660  0.6315528  0.7041856  )
       480           H   tau( 480) = (  0.9434660  0.6315528  0.7041856  )
       481           Zn  tau( 481) = (  0.1250000  0.3750000  0.2500000  )
       482           Zn  tau( 482) = (  0.6250000  0.3750000  0.2500000  )
       483           Zn  tau( 483) = (  0.1250000  0.8750000  0.2500000  )
       484           Zn  tau( 484) = (  0.6250000  0.8750000  0.2500000  )
       485           Zn  tau( 485) = (  0.1250000  0.3750000  0.7500000  )
       486           Zn  tau( 486) = (  0.6250000  0.3750000  0.7500000  )
       487           Zn  tau( 487) = (  0.1250000  0.8750000  0.7500000  )
       488           Zn  tau( 488) = (  0.6250000  0.8750000  0.7500000  )
       489           Zn  tau( 489) = (  0.2500000  0.2500000  0.0000000  )
       490           Zn  tau( 490) = (  0.7500000  0.2500000  0.0000000  )
       491           Zn  tau( 491) = (  0.2500000  0.7500000  0.0000000  )
       492           Zn  tau( 492) = (  0.7500000  0.7500000  0.0000000  )
       493           Zn  tau( 493) = (  0.2500000  0.2500000  0.5000000  )
       494           Zn  tau( 494) = (  0.7500000  0.2500000  0.5000000  )
       495           Zn  tau( 495) = (  0.2500000  0.7500000  0.5000000  )
       496           Zn  tau( 496) = (  0.7500000  0.7500000  0.5000000  )

     number of k points=     1
                       cart. coord. in units 2pi/alat
        k(    1) = (   0.0000000   0.0000000   0.0000000), wk =   2.0000000

                       cryst. coord.
        k(    1) = (   0.0000000   0.0000000   0.0000000), wk =   2.0000000

     Dense  grid:  2563819 G-vectors     FFT dimensions: ( 192, 192, 192)

     Smooth grid:  2411581 G-vectors     FFT dimensions: ( 192, 192, 192)

     Dynamical RAM for                 wfc:     144.89 MB

     Dynamical RAM for     wfc (w. buffer):     144.89 MB

     Dynamical RAM for           str. fact:       4.89 MB

     Dynamical RAM for           local pot:       0.00 MB

     Dynamical RAM for          nlocal pot:     482.96 MB

     Dynamical RAM for                qrad:       5.08 MB

     Dynamical RAM for          rho,v,vnew:       8.73 MB

     Dynamical RAM for               rhoin:       2.91 MB

     Dynamical RAM for            rho*nmix:      19.56 MB

     Dynamical RAM for           G-vectors:       5.16 MB

     Dynamical RAM for          h,s,v(r/c):       7.43 MB

     Dynamical RAM for          <psi|beta>:      51.68 MB

     Dynamical RAM for                 psi:     289.78 MB

     Dynamical RAM for                hpsi:     289.78 MB

     Dynamical RAM for                spsi:     289.78 MB

     Dynamical RAM for      wfcinit/wfcrot:     570.99 MB

     Dynamical RAM for           addusdens:     462.11 MB

     Dynamical RAM for          addusforce:     930.48 MB

     Dynamical RAM for         addusstress:     245.73 MB

     Estimated static dynamical RAM per process >     669.17 MB

     Estimated max dynamical RAM per process >       1.58 GB

     Estimated total dynamical RAM >      50.60 GB

     Check: negative core charge=   -0.000014

     Initial potential from superposition of free atoms

     starting charge    2015.9874, renormalised to    2016.0000
     Starting wfcs are 1744 randomized atomic wfcs
     Checking if some PAW data can be deallocated... 
       PAW data deallocated on   10 nodes for type:  2

     total cpu time spent up to now is      162.6 secs

     Self-consistent Calculation

     iteration #  1     ecut=    60.00 Ry     beta= 0.40
     Davidson diagonalization with overlap

---- Real-time Memory Report at c_bands before calling an iterative solver
          1345 MiB given to the printing process from OS
             0 MiB allocation reported by mallinfo(arena+hblkhd)
        272020 MiB available memory on the node where the printing process lives
------------------
     ethr =  1.00E-02,  avg # of iterations =  3.0

     total cpu time spent up to now is      513.1 secs

     total energy              =  -14223.11870951 Ry
     estimated scf accuracy    <      42.09210745 Ry

     iteration #  2     ecut=    60.00 Ry     beta= 0.40
     Davidson diagonalization with overlap

---- Real-time Memory Report at c_bands before calling an iterative solver
          1728 MiB given to the printing process from OS
             0 MiB allocation reported by mallinfo(arena+hblkhd)
        257473 MiB available memory on the node where the printing process lives
------------------
     ethr =  2.09E-03,  avg # of iterations =  2.0

     total cpu time spent up to now is      797.1 secs

     total energy              =  -14223.75178815 Ry
     estimated scf accuracy    <       7.72063266 Ry

     iteration #  3     ecut=    60.00 Ry     beta= 0.40
     Davidson diagonalization with overlap

---- Real-time Memory Report at c_bands before calling an iterative solver
          1746 MiB given to the printing process from OS
             0 MiB allocation reported by mallinfo(arena+hblkhd)
        257050 MiB available memory on the node where the printing process lives
------------------
     ethr =  3.83E-04,  avg # of iterations =  4.0

     total cpu time spent up to now is     1160.8 secs

     total energy              =  -14225.17415913 Ry
     estimated scf accuracy    <       0.85053432 Ry

     iteration #  4     ecut=    60.00 Ry     beta= 0.40
     Davidson diagonalization with overlap

---- Real-time Memory Report at c_bands before calling an iterative solver
          1750 MiB given to the printing process from OS
             0 MiB allocation reported by mallinfo(arena+hblkhd)
        244932 MiB available memory on the node where the printing process lives
------------------
     ethr =  4.22E-05,  avg # of iterations =  4.0

     total cpu time spent up to now is     1491.4 secs

     total energy              =  -14225.24903183 Ry
     estimated scf accuracy    <       0.17077762 Ry

     iteration #  5     ecut=    60.00 Ry     beta= 0.40
     Davidson diagonalization with overlap

---- Real-time Memory Report at c_bands before calling an iterative solver
          1754 MiB given to the printing process from OS
             0 MiB allocation reported by mallinfo(arena+hblkhd)
        262393 MiB available memory on the node where the printing process lives
------------------
     ethr =  8.47E-06,  avg # of iterations =  5.0

     total cpu time spent up to now is     1860.2 secs

     total energy              =  -14225.27773687 Ry
     estimated scf accuracy    <       0.03001651 Ry

     iteration #  6     ecut=    60.00 Ry     beta= 0.40
     Davidson diagonalization with overlap

---- Real-time Memory Report at c_bands before calling an iterative solver
          1765 MiB given to the printing process from OS
             0 MiB allocation reported by mallinfo(arena+hblkhd)
        238701 MiB available memory on the node where the printing process lives
------------------
     ethr =  1.49E-06,  avg # of iterations =  5.0

     total cpu time spent up to now is     2258.7 secs

     total energy              =  -14225.28459360 Ry
     estimated scf accuracy    <       0.00788054 Ry

     iteration #  7     ecut=    60.00 Ry     beta= 0.40
     Davidson diagonalization with overlap

---- Real-time Memory Report at c_bands before calling an iterative solver
          1765 MiB given to the printing process from OS
             0 MiB allocation reported by mallinfo(arena+hblkhd)
        247210 MiB available memory on the node where the printing process lives
------------------
     ethr =  3.91E-07,  avg # of iterations =  5.0

     total cpu time spent up to now is     2655.2 secs

     total energy              =  -14225.28686724 Ry
     estimated scf accuracy    <       0.00161850 Ry

     iteration #  8     ecut=    60.00 Ry     beta= 0.40
     Davidson diagonalization with overlap

---- Real-time Memory Report at c_bands before calling an iterative solver
          1765 MiB given to the printing process from OS
             0 MiB allocation reported by mallinfo(arena+hblkhd)
        237985 MiB available memory on the node where the printing process lives
------------------
     ethr =  8.03E-08,  avg # of iterations =  5.0

     total cpu time spent up to now is     3013.1 secs

     total energy              =  -14225.28725949 Ry
     estimated scf accuracy    <       0.00013434 Ry

     iteration #  9     ecut=    60.00 Ry     beta= 0.40
     Davidson diagonalization with overlap

---- Real-time Memory Report at c_bands before calling an iterative solver
          1769 MiB given to the printing process from OS
             0 MiB allocation reported by mallinfo(arena+hblkhd)
        255302 MiB available memory on the node where the printing process lives
------------------
     ethr =  6.66E-09,  avg # of iterations =  6.0

     total cpu time spent up to now is     3474.4 secs

     total energy              =  -14225.28731972 Ry
     estimated scf accuracy    <       0.00005486 Ry

     iteration # 10     ecut=    60.00 Ry     beta= 0.40
     Davidson diagonalization with overlap

---- Real-time Memory Report at c_bands before calling an iterative solver
          1772 MiB given to the printing process from OS
             0 MiB allocation reported by mallinfo(arena+hblkhd)
        243563 MiB available memory on the node where the printing process lives
------------------
     ethr =  2.72E-09,  avg # of iterations =  5.0

     total cpu time spent up to now is     3764.3 secs

     total energy              =  -14225.28731843 Ry
     estimated scf accuracy    <       0.00001369 Ry

     iteration # 11     ecut=    60.00 Ry     beta= 0.40
     Davidson diagonalization with overlap

---- Real-time Memory Report at c_bands before calling an iterative solver
          1776 MiB given to the printing process from OS
             0 MiB allocation reported by mallinfo(arena+hblkhd)
        250539 MiB available memory on the node where the printing process lives
------------------
     ethr =  6.79E-10,  avg # of iterations =  6.0

     total cpu time spent up to now is     4249.5 secs

     total energy              =  -14225.28732523 Ry
     estimated scf accuracy    <       0.00001413 Ry

     iteration # 12     ecut=    60.00 Ry     beta= 0.40
     Davidson diagonalization with overlap

---- Real-time Memory Report at c_bands before calling an iterative solver
          1776 MiB given to the printing process from OS
             0 MiB allocation reported by mallinfo(arena+hblkhd)
        238589 MiB available memory on the node where the printing process lives
------------------
     ethr =  6.79E-10,  avg # of iterations =  2.0

     total cpu time spent up to now is     4508.9 secs

     total energy              =  -14225.28732370 Ry
     estimated scf accuracy    <       0.00000414 Ry

     iteration # 13     ecut=    60.00 Ry     beta= 0.40
     Davidson diagonalization with overlap

---- Real-time Memory Report at c_bands before calling an iterative solver
          1776 MiB given to the printing process from OS
             0 MiB allocation reported by mallinfo(arena+hblkhd)
        251365 MiB available memory on the node where the printing process lives
------------------
     ethr =  2.05E-10,  avg # of iterations =  6.0

     total cpu time spent up to now is     4998.2 secs

     total energy              =  -14225.28732551 Ry
     estimated scf accuracy    <       0.00000531 Ry

     iteration # 14     ecut=    60.00 Ry     beta= 0.40
     Davidson diagonalization with overlap

---- Real-time Memory Report at c_bands before calling an iterative solver
          1776 MiB given to the printing process from OS
             0 MiB allocation reported by mallinfo(arena+hblkhd)
        234690 MiB available memory on the node where the printing process lives
------------------
     ethr =  2.05E-10,  avg # of iterations =  5.0

     total cpu time spent up to now is     5320.1 secs

     total energy              =  -14225.28732619 Ry
     estimated scf accuracy    <       0.00000021 Ry

     iteration # 15     ecut=    60.00 Ry     beta= 0.40
     Davidson diagonalization with overlap

---- Real-time Memory Report at c_bands before calling an iterative solver
          1776 MiB given to the printing process from OS
             0 MiB allocation reported by mallinfo(arena+hblkhd)
        255786 MiB available memory on the node where the printing process lives
------------------
     ethr =  1.04E-11,  avg # of iterations =  5.0

     total cpu time spent up to now is     5827.7 secs

     total energy              =  -14225.28732634 Ry
     estimated scf accuracy    <       0.00000004 Ry

     iteration # 16     ecut=    60.00 Ry     beta= 0.40
     Davidson diagonalization with overlap

---- Real-time Memory Report at c_bands before calling an iterative solver
          1776 MiB given to the printing process from OS
             0 MiB allocation reported by mallinfo(arena+hblkhd)
        239560 MiB available memory on the node where the printing process lives
------------------
     ethr =  1.96E-12,  avg # of iterations =  6.0

     total cpu time spent up to now is     6283.4 secs

     total energy              =  -14225.28732631 Ry
     estimated scf accuracy    <       0.00000016 Ry

     iteration # 17     ecut=    60.00 Ry     beta= 0.40
     Davidson diagonalization with overlap

---- Real-time Memory Report at c_bands before calling an iterative solver
          1776 MiB given to the printing process from OS
             0 MiB allocation reported by mallinfo(arena+hblkhd)
        249974 MiB available memory on the node where the printing process lives
------------------
     ethr =  1.96E-12,  avg # of iterations =  6.0

     total cpu time spent up to now is     6723.8 secs

     End of self-consistent calculation

          k = 0.0000 0.0000 0.0000 (301561 PWs)   bands (ev):

  -122.8788-122.8788-122.8788-122.8787-122.8787-122.8786-122.8786-122.8780
  -122.8415-122.8412-122.8412-122.8412-122.8411-122.8411-122.8411-122.8410
   -77.2237 -77.2237 -77.2237 -77.2236 -77.2236 -77.2236 -77.2235 -77.2229
   -77.2190 -77.2190 -77.2189 -77.2189 -77.2189 -77.2189 -77.2188 -77.2188
   -77.2188 -77.2188 -77.2188 -77.2188 -77.2188 -77.2188 -77.2182 -77.2181
   -77.1926 -77.1926 -77.1923 -77.1923 -77.1923 -77.1923 -77.1923 -77.1923
   -77.1922 -77.1922 -77.1922 -77.1922 -77.1922 -77.1922 -77.1921 -77.1921
   -77.1652 -77.1649 -77.1648 -77.1648 -77.1648 -77.1647 -77.1647 -77.1647
   -21.8270 -21.8201 -21.8200 -21.8200 -21.8198 -21.8142 -21.8141 -21.8135
   -21.8135 -21.8118 -21.8097 -21.8059 -21.8059 -21.8058 -21.8058 -21.8007
   -21.8007 -21.8006 -21.8006 -21.8006 -21.8006 -21.8005 -21.8004 -21.7989
   -21.7989 -21.7964 -21.7963 -21.7963 -21.7963 -21.7962 -21.7959 -21.7944
   -16.7493 -16.7476 -16.7475 -16.7465 -16.7465 -16.7465 -16.7462 -16.7420
   -16.7141 -16.7071 -16.7071 -16.7070 -16.7068 -16.7004 -16.6995 -16.6994
   -16.6923 -16.6921 -16.6852 -16.6852 -16.6852 -16.6848 -16.6821 -16.6819
   -16.6803 -16.6801 -16.6785 -16.6785 -16.6784 -16.6784 -16.6784 -16.6776
   -16.5789 -16.5401 -16.5401 -16.5400 -16.5399 -16.5180 -16.5180 -16.5062
   -16.4943 -16.4941 -16.4920 -16.4682 -16.4682 -16.4681 -16.4680 -16.4373
   -16.4373 -16.4364 -16.4363 -16.4363 -16.4363 -16.4348 -16.4348 -16.4334
   -16.4334 -16.4248 -16.4247 -16.4247 -16.4245 -16.4231 -16.4230 -16.4198
   -15.4995 -15.4987 -15.4969 -15.4937 -15.4937 -15.4937 -15.4933 -15.4916
   -15.4878 -15.4878 -15.4877 -15.4875 -15.4874 -15.4873 -15.4870 -15.4867
   -15.4810 -15.4809 -15.4801 -15.4801 -15.4800 -15.4800 -15.4799 -15.4797
   -15.4788 -15.4787 -15.4787 -15.4783 -15.4763 -15.4761 -15.4748 -15.4746
   -13.2303 -13.2195 -13.2122 -13.2122 -13.2122 -13.2114 -13.2096 -13.2091
   -13.2072 -13.2042 -13.2040 -13.2034 -13.2034 -13.2034 -13.2015 -13.1947
   -13.1917 -13.1914 -13.1908 -13.1907 -13.1907 -13.1887 -13.1795 -13.1794
   -13.1794 -13.1789 -13.1781 -13.1780 -13.1778 -13.1778 -13.1777 -13.1730
   -12.1906 -12.1896 -12.1896 -12.1896 -12.1885 -12.1882 -12.1841 -12.1802
   -12.1800 -12.1722 -12.1696 -12.1690 -12.1689 -12.1689 -12.1532 -12.1524
   -12.1522 -12.1521 -12.1506 -12.1501 -12.1500 -12.1500 -12.1498 -12.1497
   -12.1337 -12.1257 -12.1253 -12.1212 -12.1184 -12.1178 -12.1178 -12.1178
    -9.9200  -9.9014  -9.8903  -9.8863  -9.8862  -9.8862  -9.8861  -9.8771
    -9.8610  -9.8609  -9.8609  -9.8608  -9.8574  -9.8573  -9.8499  -9.8497
    -9.8268  -9.8265  -9.8265  -9.8264  -9.8245  -9.8244  -9.8064  -9.8062
    -9.8055  -9.8054  -9.7975  -9.7973  -9.7973  -9.7972  -9.7958  -9.7956
    -9.6801  -9.6659  -9.6657  -9.6644  -9.6643  -9.6643  -9.6637  -9.6484
    -9.6483  -9.6470  -9.6469  -9.6469  -9.6464  -9.6447  -9.6444  -9.6386
    -9.6383  -9.6152  -9.6152  -9.6152  -9.6147  -9.6021  -9.6019  -9.5859
    -9.5825  -9.5596  -9.5594  -9.5455  -9.5455  -9.5455  -9.5450  -9.5258
    -8.5890  -8.5633  -8.5509  -8.5505  -8.5478  -8.5385  -8.5384  -8.5384
    -8.5374  -8.5298  -8.5296  -8.5295  -8.5286  -8.5118  -8.5117  -8.5109
    -8.4956  -8.4956  -8.4955  -8.4947  -8.4929  -8.4919  -8.4628  -8.4627
    -8.4623  -8.4623  -8.4622  -8.4607  -8.4497  -8.4496  -8.4495  -8.4480
    -8.4238  -8.4178  -8.4174  -8.4130  -8.4121  -8.4120  -8.4118  -8.3752
    -8.3711  -8.3698  -8.3697  -8.3697  -8.3641  -8.3631  -8.3626  -8.3625
    -8.3613  -8.3597  -8.3594  -8.3575  -8.3571  -8.3326  -8.3317  -8.3316
    -8.3315  -8.3233  -8.3226  -8.3222  -8.3221  -8.3220  -8.3129  -8.3124
    -7.0583  -6.9053  -6.8984  -6.8980  -6.8980  -6.8980  -6.8970  -6.7919
    -6.7916  -6.7583  -6.7579  -6.7138  -6.7138  -6.7138  -6.7131  -6.6756
    -6.6018  -6.6015  -6.5983  -6.5982  -6.5982  -6.5975  -6.5708  -6.5705
    -6.5610  -6.5609  -6.5609  -6.5603  -6.4881  -6.4878  -6.4859  -6.4854
    -5.8777  -5.8314  -5.8310  -5.8310  -5.8309  -5.8291  -5.7986  -5.7984
    -5.7836  -5.7835  -5.7760  -5.7759  -5.7759  -5.7758  -5.7635  -5.7634
    -5.7378  -5.7373  -5.7373  -5.7372  -5.7303  -5.7301  -5.7279  -5.7246
    -5.6856  -5.6856  -5.6855  -5.6854  -5.6454  -5.6451  -5.6350  -5.6324
    -5.6322  -5.6094  -5.6046  -5.6045  -5.5958  -5.5958  -5.5957  -5.5957
    -5.5810  -5.5602  -5.5458  -5.5453  -5.5426  -5.5421  -5.5421  -5.5420
    -5.5376  -5.5374  -5.5366  -5.5364  -5.5125  -5.5122  -5.5030  -5.5029
    -5.5014  -5.5011  -5.5011  -5.5010  -5.4829  -5.4825  -5.4825  -5.4824
    -5.0613  -5.0611  -5.0475  -5.0474  -5.0474  -5.0470  -5.0443  -5.0441
    -5.0302  -5.0301  -5.0298  -5.0297  -5.0297  -5.0290  -5.0259  -5.0180
    -5.0177  -5.0033  -4.9988  -4.9948  -4.9948  -4.9947  -4.9940  -4.9786
    -4.9783  -4.9661  -4.9660  -4.9660  -4.9654  -4.9568  -4.9534  -4.9532
    -4.9458  -4.8942  -4.8916  -4.8914  -4.8681  -4.8679  -4.8679  -4.8677
    -4.8623  -4.8520  -4.8518  -4.8441  -4.8441  -4.8440  -4.8439  -4.8340
    -4.8340  -4.8301  -4.8298  -4.8298  -4.8297  -4.8267  -4.8261  -4.8259
    -4.8038  -4.8036  -4.7992  -4.7991  -4.7927  -4.7925  -4.7925  -4.7924
    -4.7804  -4.7802  -4.7582  -4.7580  -4.7580  -4.7579  -4.7434  -4.7433
    -4.7411  -4.7410  -4.7218  -4.7216  -4.7216  -4.7216  -4.7132  -4.7132
    -4.7117  -4.7114  -4.7114  -4.7114  -4.6864  -4.6863  -4.6692  -4.6690
    -4.6478  -4.6134  -4.6132  -4.5883  -4.5880  -4.5880  -4.5879  -4.5016
    -4.3230  -4.2810  -4.2809  -4.2809  -4.2808  -4.2187  -4.2127  -4.2077
    -4.2076  -4.1877  -4.1875  -4.1412  -4.1412  -4.1412  -4.1411  -4.1409
    -4.1407  -4.1363  -4.1137  -4.1078  -4.1077  -4.1077  -4.1076  -4.1034
    -4.0976  -4.0975  -4.0854  -4.0853  -4.0853  -4.0852  -4.0652  -4.0571
    -3.9876  -3.9556  -3.9556  -3.8258  -3.8257  -3.8257  -3.8253  -3.7663
    -3.7662  -3.7662  -3.7659  -3.7308  -3.7103  -3.7101  -3.7100  -3.7100
    -3.6715  -3.6558  -3.6556  -3.6265  -3.5757  -3.5756  -3.5733  -3.5731
    -3.5595  -3.5593  -3.5039  -3.5038  -3.4254  -3.4254  -3.4253  -3.4250
    -3.4238  -3.4236  -3.3752  -3.3748  -3.3650  -3.3647  -3.3645  -3.3645
    -3.3638  -3.2782  -3.2779  -3.2777  -3.2776  -3.2413  -3.2410  -3.2408
    -3.2405  -3.2343  -3.2310  -3.2306  -3.2301  -3.2295  -3.2288  -3.2099
    -3.2098  -3.1861  -3.1770  -3.1761  -3.1761  -3.1757  -3.1716  -3.0961
    -3.0957  -3.0953  -3.0946  -3.0899  -3.0895  -3.0879  -3.0868  -3.0868
    -3.0863  -3.0470  -3.0453  -3.0452  -3.0450  -3.0185  -3.0055  -3.0051
    -2.9783  -2.9746  -2.9740  -2.9739  -2.9735  -2.9695  -2.9381  -2.9376
    -2.9366  -2.9349  -2.9349  -2.9345  -2.9299  -2.9292  -2.8985  -2.8837
    -2.8833  -2.7764  -2.7758  -2.7622  -2.7611  -2.7611  -2.7606  -2.7273
    -2.7262  -2.7183  -2.7175  -2.7043  -2.7027  -2.7017  -2.7008  -2.7008
    -2.7007  -2.6130  -2.6119  -2.6119  -2.6119  -2.5574  -2.4828  -2.4416
    -2.4415  -2.3680  -2.3678  -2.2682  -2.2681  -2.2681  -2.2674  -2.1966
    -2.1961  -2.1599  -2.0957  -2.0764  -2.0612  -2.0609  -2.0608  -2.0601
    -2.0134  -2.0133  -2.0133  -2.0131  -2.0063  -2.0061  -2.0053  -1.9945
    -1.9940  -1.9539  -1.9538  -1.9538  -1.9531  -1.9483  -1.9480  -1.9180
    -1.9179  -1.8920  -1.8914  -1.8711  -1.8709  -1.8708  -1.8701  -1.7602
    -1.7597  -1.6296  -1.6296  -1.6295  -1.6292  -1.5897  -1.5895  -1.5191
    -1.4437  -1.4437  -1.4436  -1.4432  -1.4241  -1.4237  -1.4183  -1.4183
    -1.4154  -1.4090  -1.4088  -1.3810  -1.3746  -1.3745  -1.3744  -1.3741
    -1.3635  -1.3634  -1.3634  -1.3631  -1.3624  -1.3620  -1.3483  -1.3483
    -1.3470  -1.3470  -1.3469  -1.3468  -1.3403  -1.3401  -1.3373  -1.3332
    -1.2995  -1.2994  -1.2967  -1.2813  -1.2813  -1.2812  -1.2808  -1.2535
    -1.2531  -1.2416  -1.2416  -1.2416  -1.2409  -1.2336  -1.2299  -1.2296
    -1.2200  -1.2199  -1.2098  -1.2095  -1.2090  -1.2090  -1.2089  -1.2085
    -1.1525  -1.1525  -1.1525  -1.1521  -1.1477  -1.1476  -1.0927  -1.0680
    -1.0403  -0.9019  -0.9019  -0.9018  -0.9017  -0.9012  -0.9012  -0.8036
    -0.8036  -0.8018  -0.7826  -0.7825  -0.7825  -0.7825  -0.7795  -0.7794
    -0.7694  -0.7625  -0.7625  -0.7285  -0.7285  -0.7284  -0.7284  -0.7178
    -0.7178  -0.7143  -0.7124  -0.7123  -0.7123  -0.7122  -0.6636  -0.6636
    -0.6294  -0.6293  -0.5995  -0.5995  -0.5995  -0.5994  -0.5722  -0.5721
    -0.4878  -0.4241  -0.4241  -0.4240  -0.4239  -0.4158  -0.4157  -0.4007
    -0.3838  -0.3838  -0.3636  -0.3633  -0.3632  -0.3632  -0.3471  -0.3408
    -0.3407  -0.3363  -0.3361  -0.3360  -0.3360  -0.3316  -0.3312  -0.3287
    -0.3286  -0.3268  -0.2970  -0.2969  -0.2851  -0.2845  -0.2845  -0.2845
    -0.2802  -0.2800  -0.2767  -0.2760  -0.2760  -0.2759  -0.2729  -0.2443
    -0.2431  -0.2431  -0.2431  -0.2405  -0.2400  -0.2399  -0.2220  -0.2215
    -0.2212  -0.2209  -0.2209  -0.2209  -0.2186  -0.2086  -0.2081  -0.2077
    -0.2039  -0.2036  -0.1919  -0.1908  -0.1908  -0.1907  -0.1907  -0.1906
     0.3866   0.4185   0.4185   0.4185   0.4195   0.4350   0.4356   0.4859
     0.4862   0.4871   0.4948   0.4948   0.4949   0.4957   0.5126   0.5130
     0.5145   0.5150   0.5241   0.5272   0.5272   0.5272   0.5282   0.5737
     0.5740   0.5762   0.5766   0.6100   0.6101   0.6101   0.6106   0.6264
     1.0982   1.0983   1.1046   1.1046   1.1158   1.1159   1.1159   1.1159
     1.1373   1.1374   1.1374   1.1374   1.1546   1.1617   1.1618   1.1635
     1.1636   1.1644   1.1732   1.1737   1.1737   1.1737   1.1844   1.1846
     1.2167   1.2204   1.2416   1.2421   1.2421   1.2421   1.2425   1.2427

     occupation numbers 
     1.0000   1.0000   1.0000   1.0000   1.0000   1.0000   1.0000   1.0000
     1.0000   1.0000   1.0000   1.0000   1.0000   1.0000   1.0000   1.0000
     1.0000   1.0000   1.0000   1.0000   1.0000   1.0000   1.0000   1.0000
     1.0000   1.0000   1.0000   1.0000   1.0000   1.0000   1.0000   1.0000
     1.0000   1.0000   1.0000   1.0000   1.0000   1.0000   1.0000   1.0000
     1.0000   1.0000   1.0000   1.0000   1.0000   1.0000   1.0000   1.0000
     1.0000   1.0000   1.0000   1.0000   1.0000   1.0000   1.0000   1.0000
     1.0000   1.0000   1.0000   1.0000   1.0000   1.0000   1.0000   1.0000
     1.0000   1.0000   1.0000   1.0000   1.0000   1.0000   1.0000   1.0000
     1.0000   1.0000   1.0000   1.0000   1.0000   1.0000   1.0000   1.0000
     1.0000   1.0000   1.0000   1.0000   1.0000   1.0000   1.0000   1.0000
     1.0000   1.0000   1.0000   1.0000   1.0000   1.0000   1.0000   1.0000
     1.0000   1.0000   1.0000   1.0000   1.0000   1.0000   1.0000   1.0000
     1.0000   1.0000   1.0000   1.0000   1.0000   1.0000   1.0000   1.0000
     1.0000   1.0000   1.0000   1.0000   1.0000   1.0000   1.0000   1.0000
     1.0000   1.0000   1.0000   1.0000   1.0000   1.0000   1.0000   1.0000
     1.0000   1.0000   1.0000   1.0000   1.0000   1.0000   1.0000   1.0000
     1.0000   1.0000   1.0000   1.0000   1.0000   1.0000   1.0000   1.0000
     1.0000   1.0000   1.0000   1.0000   1.0000   1.0000   1.0000   1.0000
     1.0000   1.0000   1.0000   1.0000   1.0000   1.0000   1.0000   1.0000
     1.0000   1.0000   1.0000   1.0000   1.0000   1.0000   1.0000   1.0000
     1.0000   1.0000   1.0000   1.0000   1.0000   1.0000   1.0000   1.0000
     1.0000   1.0000   1.0000   1.0000   1.0000   1.0000   1.0000   1.0000
     1.0000   1.0000   1.0000   1.0000   1.0000   1.0000   1.0000   1.0000
     1.0000   1.0000   1.0000   1.0000   1.0000   1.0000   1.0000   1.0000
     1.0000   1.0000   1.0000   1.0000   1.0000   1.0000   1.0000   1.0000
     1.0000   1.0000   1.0000   1.0000   1.0000   1.0000   1.0000   1.0000
     1.0000   1.0000   1.0000   1.0000   1.0000   1.0000   1.0000   1.0000
     1.0000   1.0000   1.0000   1.0000   1.0000   1.0000   1.0000   1.0000
     1.0000   1.0000   1.0000   1.0000   1.0000   1.0000   1.0000   1.0000
     1.0000   1.0000   1.0000   1.0000   1.0000   1.0000   1.0000   1.0000
     1.0000   1.0000   1.0000   1.0000   1.0000   1.0000   1.0000   1.0000
     1.0000   1.0000   1.0000   1.0000   1.0000   1.0000   1.0000   1.0000
     1.0000   1.0000   1.0000   1.0000   1.0000   1.0000   1.0000   1.0000
     1.0000   1.0000   1.0000   1.0000   1.0000   1.0000   1.0000   1.0000
     1.0000   1.0000   1.0000   1.0000   1.0000   1.0000   1.0000   1.0000
     1.0000   1.0000   1.0000   1.0000   1.0000   1.0000   1.0000   1.0000
     1.0000   1.0000   1.0000   1.0000   1.0000   1.0000   1.0000   1.0000
     1.0000   1.0000   1.0000   1.0000   1.0000   1.0000   1.0000   1.0000
     1.0000   1.0000   1.0000   1.0000   1.0000   1.0000   1.0000   1.0000
     1.0000   1.0000   1.0000   1.0000   1.0000   1.0000   1.0000   1.0000
     1.0000   1.0000   1.0000   1.0000   1.0000   1.0000   1.0000   1.0000
     1.0000   1.0000   1.0000   1.0000   1.0000   1.0000   1.0000   1.0000
     1.0000   1.0000   1.0000   1.0000   1.0000   1.0000   1.0000   1.0000
     1.0000   1.0000   1.0000   1.0000   1.0000   1.0000   1.0000   1.0000
     1.0000   1.0000   1.0000   1.0000   1.0000   1.0000   1.0000   1.0000
     1.0000   1.0000   1.0000   1.0000   1.0000   1.0000   1.0000   1.0000
     1.0000   1.0000   1.0000   1.0000   1.0000   1.0000   1.0000   1.0000
     1.0000   1.0000   1.0000   1.0000   1.0000   1.0000   1.0000   1.0000
     1.0000   1.0000   1.0000   1.0000   1.0000   1.0000   1.0000   1.0000
     1.0000   1.0000   1.0000   1.0000   1.0000   1.0000   1.0000   1.0000
     1.0000   1.0000   1.0000   1.0000   1.0000   1.0000   1.0000   1.0000
     1.0000   1.0000   1.0000   1.0000   1.0000   1.0000   1.0000   1.0000
     1.0000   1.0000   1.0000   1.0000   1.0000   1.0000   1.0000   1.0000
     1.0000   1.0000   1.0000   1.0000   1.0000   1.0000   1.0000   1.0000
     1.0000   1.0000   1.0000   1.0000   1.0000   1.0000   1.0000   1.0000
     1.0000   1.0000   1.0000   1.0000   1.0000   1.0000   1.0000   1.0000
     1.0000   1.0000   1.0000   1.0000   1.0000   1.0000   1.0000   1.0000
     1.0000   1.0000   1.0000   1.0000   1.0000   1.0000   1.0000   1.0000
     1.0000   1.0000   1.0000   1.0000   1.0000   1.0000   1.0000   1.0000
     1.0000   1.0000   1.0000   1.0000   1.0000   1.0000   1.0000   1.0000
     1.0000   1.0000   1.0000   1.0000   1.0000   1.0000   1.0000   1.0000
     1.0000   1.0000   1.0000   1.0000   1.0000   1.0000   1.0000   1.0000
     1.0000   1.0000   1.0000   1.0000   1.0000   1.0000   1.0000   1.0000
     1.0000   1.0000   1.0000   1.0000   1.0000   1.0000   1.0000   1.0000
     1.0000   1.0000   1.0000   1.0000   1.0000   1.0000   1.0000   1.0000
     1.0000   1.0000   1.0000   1.0000   1.0000   1.0000   1.0000   1.0000
     1.0000   1.0000   1.0000   1.0000   1.0000   1.0000   1.0000   1.0000
     1.0000   1.0000   1.0000   1.0000   1.0000   1.0000   1.0000   1.0000
     1.0000   1.0000   1.0000   1.0000   1.0000   1.0000   1.0000   1.0000
     1.0000   1.0000   1.0000   1.0000   1.0000   1.0000   1.0000   1.0000
     1.0000   1.0000   1.0000   1.0000   1.0000   1.0000   1.0000   1.0000
     1.0000   1.0000   1.0000   1.0000   1.0000   1.0000   1.0000   1.0000
     1.0000   1.0000   1.0000   1.0000   1.0000   1.0000   1.0000   1.0000
     1.0000   1.0000   1.0000   1.0000   1.0000   1.0000   1.0000   1.0000
     1.0000   1.0000   1.0000   1.0000   1.0000   1.0000   1.0000   1.0000
     1.0000   1.0000   1.0000   1.0000   1.0000   1.0000   1.0000   1.0000
     1.0000   1.0000   1.0000   1.0000   1.0000   1.0000   1.0000   1.0000
     1.0000   1.0000   1.0000   1.0000   1.0000   1.0000   1.0000   1.0000
     1.0000   1.0000   1.0000   1.0000   1.0000   1.0000   1.0000   1.0000
     1.0000   1.0000   1.0000   1.0000   1.0000   1.0000   1.0000   1.0000
     1.0000   1.0000   1.0000   1.0000   1.0000   1.0000   1.0000   1.0000
     1.0000   1.0000   1.0000   1.0000   1.0000   1.0000   1.0000   1.0000
     1.0000   1.0000   1.0000   1.0000   1.0000   1.0000   1.0000   1.0000
     1.0000   1.0000   1.0000   1.0000   1.0000   1.0000   1.0000   1.0000
     1.0000   1.0000   1.0000   1.0000   1.0000   1.0000   1.0000   1.0000
     1.0000   1.0000   1.0000   1.0000   1.0000   1.0000   1.0000   1.0000
     1.0000   1.0000   1.0000   1.0000   1.0000   1.0000   1.0000   1.0000
     1.0000   1.0000   1.0000   1.0000   1.0000   1.0000   1.0000   1.0000
     1.0000   1.0000   1.0000   1.0000   1.0000   1.0000   1.0000   1.0000
     1.0000   1.0000   1.0000   1.0000   1.0000   1.0000   1.0000   1.0000
     1.0000   1.0000   1.0000   1.0000   1.0000   1.0000   1.0000   1.0000
     1.0000   1.0000   1.0000   1.0000   1.0000   1.0000   1.0000   1.0000
     1.0000   1.0000   1.0000   1.0000   1.0000   1.0000   1.0000   1.0000
     1.0000   1.0000   1.0000   1.0000   1.0000   1.0000   1.0000   1.0000
     1.0000   1.0000   1.0000   1.0000   1.0000   1.0000   1.0000   1.0000
     1.0000   1.0000   1.0000   1.0000   1.0000   1.0000   1.0000   1.0000
     1.0000   1.0000   1.0000   1.0000   1.0000   1.0000   1.0000   1.0000
     1.0000   1.0000   1.0000   1.0000   1.0000   1.0000   1.0000   1.0000
     1.0000   1.0000   1.0000   1.0000   1.0000   1.0000   1.0000   1.0000
     1.0000   1.0000   1.0000   1.0000   1.0000   1.0000   1.0000   1.0000
     1.0000   1.0000   1.0000   1.0000   1.0000   1.0000   1.0000   1.0000
     1.0000   1.0000   1.0000   1.0000   1.0000   1.0000   1.0000   1.0000
     1.0000   1.0000   1.0000   1.0000   1.0000   1.0000   1.0000   1.0000
     1.0000   1.0000   1.0000   1.0000   1.0000   1.0000   1.0000   1.0000
     1.0000   1.0000   1.0000   1.0000   1.0000   1.0000   1.0000   1.0000
     1.0000   1.0000   1.0000   1.0000   1.0000   1.0000   1.0000   1.0000
     1.0000   1.0000   1.0000   1.0000   1.0000   1.0000   1.0000   1.0000
     1.0000   1.0000   1.0000   1.0000   1.0000   1.0000   1.0000   1.0000
     1.0000   1.0000   1.0000   1.0000   1.0000   1.0000   1.0000   1.0000
     1.0000   1.0000   1.0000   1.0000   1.0000   1.0000   1.0000   1.0000
     1.0000   1.0000   1.0000   1.0000   1.0000   1.0000   1.0000   1.0000
     1.0000   1.0000   1.0000   1.0000   1.0000   1.0000   1.0000   1.0000
     1.0000   1.0000   1.0000   1.0000   1.0000   1.0000   1.0000   1.0000
     1.0000   1.0000   1.0000   1.0000   1.0000   1.0000   1.0000   1.0000
     1.0000   1.0000   1.0000   1.0000   1.0000   1.0000   1.0000   1.0000
     1.0000   1.0000   1.0000   1.0000   1.0000   1.0000   1.0000   1.0000
     1.0000   1.0000   1.0000   1.0000   1.0000   1.0000   1.0000   1.0000
     1.0000   1.0000   1.0000   1.0000   1.0000   1.0000   1.0000   1.0000
     1.0000   1.0000   1.0000   1.0000   1.0000   1.0000   1.0000   1.0000
     1.0000   1.0000   1.0000   1.0000   1.0000   1.0000   1.0000   1.0000
     1.0000   1.0000   1.0000   1.0000   1.0000   1.0000   1.0000   1.0000
     1.0000   1.0000   1.0000   1.0000   1.0000   1.0000   1.0000   1.0000
     1.0000   1.0000   1.0000   1.0000   1.0000   1.0000   1.0000   1.0000
     1.0000   1.0000   1.0000   1.0000   1.0000   1.0000   1.0000   1.0000
     1.0000   1.0000   1.0000   1.0000   1.0000   1.0000   1.0000   1.0000

     highest occupied level (ev):     1.2427

!    total energy              =  -14225.28732633 Ry
     estimated scf accuracy    <          6.3E-09 Ry

     The total energy is the sum of the following terms:
     one-electron contribution =  -15719.73421360 Ry
     hartree contribution      =    8487.31883706 Ry
     xc contribution           =   -2486.47732183 Ry
     ewald contribution        =   -3375.19546777 Ry
     one-center paw contrib.   =   -1131.19916019 Ry
      -> PAW hartree energy AE =       0.00000000 Ry
      -> PAW hartree energy PS =       0.00000000 Ry
      -> PAW xc energy AE      =       0.00000000 Ry
      -> PAW xc energy PS      =       0.00000000 Ry
      -> total E_H with PAW    =    8487.31883706 Ry
      -> total E_XC with PAW   =   -2486.47732183 Ry

     convergence has been achieved in  17 iterations

     Forces acting on atoms (cartesian axes, Ry/au):

     atom    1 type  1   force =    -0.00000239   -0.00023809   -0.00013566
     atom    2 type  1   force =    -0.00000198   -0.00024000   -0.00013612
     atom    3 type  1   force =    -0.00000215   -0.00023892   -0.00013512
     atom    4 type  1   force =    -0.00000203   -0.00023708   -0.00013449
     atom    5 type  1   force =    -0.00000304   -0.00023901   -0.00013582
     atom    6 type  1   force =     0.00013591   -0.00015825   -0.00006931
     atom    7 type  1   force =    -0.00000259   -0.00023977   -0.00013609
     atom    8 type  1   force =    -0.00000267   -0.00024003   -0.00013622
     atom    9 type  1   force =    -0.00019755   -0.00013142   -0.00017399
     atom   10 type  1   force =    -0.00019676   -0.00013023   -0.00017345
     atom   11 type  1   force =    -0.00019627   -0.00013068   -0.00017647
     atom   12 type  1   force =    -0.00019645   -0.00013080   -0.00017341
     atom   13 type  1   force =    -0.00022580   -0.00012744   -0.00020916
     atom   14 type  1   force =    -0.00019786   -0.00013168   -0.00017409
     atom   15 type  1   force =    -0.00019782   -0.00013133   -0.00017419
     atom   16 type  1   force =    -0.00019752   -0.00013065   -0.00017359
     atom   17 type  2   force =    -0.00001398    0.00000421    0.00001104
     atom   18 type  2   force =    -0.00001454    0.00000469    0.00001175
     atom   19 type  2   force =    -0.00001418    0.00000505    0.00001195
     atom   20 type  2   force =    -0.00001439    0.00000402    0.00001174
     atom   21 type  2   force =    -0.00650116   -0.00673233    0.00211511
     atom   22 type  2   force =    -0.00001424    0.00000389    0.00001190
     atom   23 type  2   force =    -0.00001384    0.00000373    0.00001160
     atom   24 type  2   force =    -0.00001413    0.00000383    0.00001126
     atom   25 type  2   force =     0.00019771   -0.00004472    0.00002704
     atom   26 type  2   force =     0.00019797   -0.00004492    0.00002703
     atom   27 type  2   force =     0.00019660   -0.00004364    0.00002859
     atom   28 type  2   force =     0.00019684   -0.00004541    0.00002675
     atom   29 type  2   force =    -0.00058188   -0.00026800   -0.00001338
     atom   30 type  2   force =     0.00019890   -0.00004513    0.00002679
     atom   31 type  2   force =     0.00019751   -0.00004469    0.00002727
     atom   32 type  2   force =     0.00019745   -0.00004458    0.00002708
     atom   33 type  2   force =     0.01237133    0.01495426   -0.00479770
     atom   34 type  2   force =    -0.00008508    0.00015355    0.00008290
     atom   35 type  2   force =    -0.00008551    0.00015381    0.00008297
     atom   36 type  2   force =    -0.00008537    0.00015373    0.00008230
     atom   37 type  2   force =    -0.00008507    0.00015391    0.00008217
     atom   38 type  2   force =    -0.00008545    0.00015332    0.00008257
     atom   39 type  2   force =    -0.00008586    0.00015316    0.00008273
     atom   40 type  2   force =    -0.00008571    0.00015335    0.00008289
     atom   41 type  3   force =     0.00028450   -0.00488247    0.00145017
     atom   42 type  3   force =     0.00002373    0.00004509   -0.00005421
     atom   43 type  3   force =     0.00002368    0.00004512   -0.00005439
     atom   44 type  3   force =     0.00002348    0.00004542   -0.00005422
     atom   45 type  3   force =     0.00002352    0.00004522   -0.00005405
     atom   46 type  3   force =     0.00002377    0.00004508   -0.00005411
     atom   47 type  3   force =     0.00002365    0.00004498   -0.00005408
     atom   48 type  3   force =     0.00002351    0.00004521   -0.00005439
     atom   49 type  2   force =     0.00093724    0.00185749   -0.00044717
     atom   50 type  2   force =     0.00014394   -0.00000563   -0.00000099
     atom   51 type  2   force =     0.00014381   -0.00000490   -0.00000155
     atom   52 type  2   force =     0.00014384   -0.00000517   -0.00000112
     atom   53 type  2   force =     0.00014371   -0.00000566   -0.00000127
     atom   54 type  2   force =     0.00014335   -0.00000487   -0.00000136
     atom   55 type  2   force =     0.00014269   -0.00000415   -0.00000107
     atom   56 type  2   force =     0.00014338   -0.00000564   -0.00000127
     atom   57 type  3   force =     0.00006416   -0.00016640   -0.00021098
     atom   58 type  3   force =     0.00003726   -0.00007025   -0.00004860
     atom   59 type  3   force =     0.00003723   -0.00007009   -0.00004843
     atom   60 type  3   force =     0.00003721   -0.00007037   -0.00004847
     atom   61 type  3   force =     0.00003729   -0.00007031   -0.00004844
     atom   62 type  3   force =     0.00003717   -0.00006995   -0.00004849
     atom   63 type  3   force =     0.00003677   -0.00007027   -0.00004843
     atom   64 type  3   force =     0.00003733   -0.00007035   -0.00004861
     atom   65 type  1   force =     0.00005369    0.00020549    0.00017832
     atom   66 type  1   force =     0.00005355    0.00020662    0.00017888
     atom   67 type  1   force =     0.00005645    0.00020695    0.00017917
     atom   68 type  1   force =     0.00005420    0.00020613    0.00017910
     atom   69 type  1   force =     0.00014638    0.00010783    0.00017222
     atom   70 type  1   force =     0.00005266    0.00020602    0.00017938
     atom   71 type  1   force =     0.00005290    0.00020515    0.00017848
     atom   72 type  1   force =     0.00005281    0.00020531    0.00017844
     atom   73 type  1   force =    -0.00015704    0.00025255    0.00011364
     atom   74 type  1   force =    -0.00015794    0.00025373    0.00011395
     atom   75 type  1   force =    -0.00015800    0.00025138    0.00011089
     atom   76 type  1   force =    -0.00015754    0.00025316    0.00011408
     atom   77 type  1   force =    -0.00011320    0.00022929    0.00010443
     atom   78 type  1   force =    -0.00015753    0.00025204    0.00011339
     atom   79 type  1   force =    -0.00015695    0.00025258    0.00011359
     atom   80 type  1   force =    -0.00015729    0.00025275    0.00011385
     atom   81 type  2   force =    -0.00009988   -0.00007570   -0.00003211
     atom   82 type  2   force =    -0.00010106   -0.00007646   -0.00003212
     atom   83 type  2   force =    -0.00010126   -0.00007541   -0.00003199
     atom   84 type  2   force =    -0.00010013   -0.00007616   -0.00003206
     atom   85 type  2   force =     0.00111601   -0.00207739   -0.00013057
     atom   86 type  2   force =    -0.00009969   -0.00007573   -0.00003251
     atom   87 type  2   force =    -0.00009983   -0.00007535   -0.00003240
     atom   88 type  2   force =    -0.00009977   -0.00007565   -0.00003248
     atom   89 type  3   force =    -0.00000446   -0.00002036    0.00001379
     atom   90 type  3   force =    -0.00000452   -0.00001998    0.00001403
     atom   91 type  3   force =    -0.00000448   -0.00002005    0.00001376
     atom   92 type  3   force =    -0.00000457   -0.00001983    0.00001387
     atom   93 type  3   force =    -0.00000458   -0.00002008    0.00001400
     atom   94 type  3   force =     0.00004354   -0.00005930   -0.00013645
     atom   95 type  3   force =    -0.00000450   -0.00002001    0.00001394
     atom   96 type  3   force =    -0.00000463   -0.00001999    0.00001379
     atom   97 type  1   force =     0.00013059   -0.00020275    0.00002137
     atom   98 type  1   force =     0.00012984   -0.00020383    0.00002128
     atom   99 type  1   force =     0.00013042   -0.00020347    0.00002184
     atom  100 type  1   force =     0.00013137   -0.00020288    0.00002140
     atom  101 type  1   force =     0.00012951   -0.00020320    0.00002145
     atom  102 type  1   force =    -0.00160572   -0.00069373    0.00043081
     atom  103 type  1   force =     0.00012972   -0.00020317    0.00002149
     atom  104 type  1   force =     0.00012965   -0.00020364    0.00002176
     atom  105 type  2   force =    -0.00006075   -0.00004769    0.00007255
     atom  106 type  2   force =    -0.00006387   -0.00004499    0.00007304
     atom  107 type  2   force =    -0.00006372   -0.00004520    0.00007323
     atom  108 type  2   force =    -0.00006323   -0.00004485    0.00007299
     atom  109 type  2   force =    -0.00006348   -0.00004470    0.00007295
     atom  110 type  2   force =    -0.00006414   -0.00004681    0.00007202
     atom  111 type  2   force =    -0.00006495   -0.00004455    0.00007271
     atom  112 type  2   force =    -0.00006366   -0.00004529    0.00007328
     atom  113 type  3   force =    -0.00089742    0.00026354   -0.00011532
     atom  114 type  3   force =    -0.00006648   -0.00002155   -0.00002942
     atom  115 type  3   force =    -0.00006654   -0.00002145   -0.00002946
     atom  116 type  3   force =    -0.00006648   -0.00002168   -0.00002938
     atom  117 type  3   force =    -0.00006628   -0.00002134   -0.00002933
     atom  118 type  3   force =    -0.00006654   -0.00002145   -0.00002932
     atom  119 type  3   force =    -0.00006675   -0.00002110   -0.00002936
     atom  120 type  3   force =    -0.00006638   -0.00002142   -0.00002963
     atom  121 type  1   force =    -0.00000403    0.00024795   -0.00014241
     atom  122 type  1   force =     0.00000223    0.00023970   -0.00013595
     atom  123 type  1   force =     0.00000281    0.00023948   -0.00013503
     atom  124 type  1   force =     0.00000327    0.00023939   -0.00013624
     atom  125 type  1   force =     0.00000224    0.00023984   -0.00013612
     atom  126 type  1   force =     0.00000294    0.00024505   -0.00013565
     atom  127 type  1   force =     0.00000241    0.00023949   -0.00013592
     atom  128 type  1   force =     0.00000264    0.00023941   -0.00013596
     atom  129 type  1   force =     0.00019445    0.00013006   -0.00017244
     atom  130 type  1   force =     0.00019719    0.00013094   -0.00017404
     atom  131 type  1   force =     0.00019715    0.00013166   -0.00017341
     atom  132 type  1   force =     0.00019789    0.00013068   -0.00017356
     atom  133 type  1   force =     0.00019747    0.00013125   -0.00017426
     atom  134 type  1   force =     0.00020306    0.00012654   -0.00017473
     atom  135 type  1   force =     0.00019720    0.00013105   -0.00017388
     atom  136 type  1   force =     0.00019745    0.00013178   -0.00017410
     atom  137 type  2   force =     0.00001562   -0.00000389    0.00001188
     atom  138 type  2   force =     0.00001451   -0.00000369    0.00001145
     atom  139 type  2   force =     0.00001431   -0.00000391    0.00001124
     atom  140 type  2   force =     0.00001571   -0.00000427    0.00001089
     atom  141 type  2   force =     0.00001486   -0.00000353    0.00001192
     atom  142 type  2   force =     0.00001573   -0.00000281    0.00001203
     atom  143 type  2   force =     0.00001562   -0.00000397    0.00001169
     atom  144 type  2   force =     0.00001449   -0.00000343    0.00001155
     atom  145 type  2   force =    -0.00018832    0.00004206    0.00002972
     atom  146 type  2   force =    -0.00019707    0.00004552    0.00002677
     atom  147 type  2   force =    -0.00019665    0.00004510    0.00002719
     atom  148 type  2   force =    -0.00020013    0.00004451    0.00002709
     atom  149 type  2   force =    -0.00019775    0.00004480    0.00002741
     atom  150 type  2   force =    -0.00020098    0.00004173    0.00002963
     atom  151 type  2   force =    -0.00019647    0.00004416    0.00002728
     atom  152 type  2   force =    -0.00019794    0.00004510    0.00002705
     atom  153 type  2   force =     0.00008535   -0.00015343    0.00008277
     atom  154 type  2   force =     0.00008500   -0.00015406    0.00008304
     atom  155 type  2   force =     0.00008527   -0.00015221    0.00008270
     atom  156 type  2   force =     0.00008554   -0.00015375    0.00008274
     atom  157 type  2   force =     0.00008517   -0.00015232    0.00008252
     atom  158 type  2   force =     0.00008578   -0.00015370    0.00008335
     atom  159 type  2   force =     0.00008575   -0.00015371    0.00008336
     atom  160 type  2   force =     0.00008544   -0.00015384    0.00008284
     atom  161 type  3   force =    -0.00002352   -0.00004522   -0.00005418
     atom  162 type  3   force =    -0.00002342   -0.00004533   -0.00005414
     atom  163 type  3   force =    -0.00002054   -0.00004470   -0.00005396
     atom  164 type  3   force =    -0.00002354   -0.00004529   -0.00005433
     atom  165 type  3   force =    -0.00002337   -0.00004356   -0.00005424
     atom  166 type  3   force =    -0.00002348   -0.00004522   -0.00005460
     atom  167 type  3   force =    -0.00002344   -0.00004503   -0.00005405
     atom  168 type  3   force =    -0.00002354   -0.00004515   -0.00005407
     atom  169 type  2   force =    -0.00014638    0.00000636   -0.00000127
     atom  170 type  2   force =    -0.00014325    0.00000605   -0.00000126
     atom  171 type  2   force =    -0.00014404    0.00000558   -0.00000103
     atom  172 type  2   force =    -0.00014423    0.00000537   -0.00000095
     atom  173 type  2   force =    -0.00014386    0.00000564   -0.00000064
     atom  174 type  2   force =    -0.00013982    0.00000539   -0.00000198
     atom  175 type  2   force =    -0.00014380    0.00000523   -0.00000112
     atom  176 type  2   force =    -0.00014387    0.00000554   -0.00000124
     atom  177 type  3   force =    -0.00003721    0.00006985   -0.00004832
     atom  178 type  3   force =    -0.00003704    0.00007027   -0.00004841
     atom  179 type  3   force =    -0.00003711    0.00007015   -0.00004864
     atom  180 type  3   force =    -0.00003714    0.00007043   -0.00004845
     atom  181 type  3   force =    -0.00003730    0.00007030   -0.00004838
     atom  182 type  3   force =    -0.00003873    0.00007041   -0.00004724
     atom  183 type  3   force =    -0.00003703    0.00007006   -0.00004837
     atom  184 type  3   force =    -0.00003739    0.00007040   -0.00004865
     atom  185 type  1   force =    -0.00004752   -0.00021102    0.00017703
     atom  186 type  1   force =    -0.00005410   -0.00020526    0.00017866
     atom  187 type  1   force =    -0.00005361   -0.00020610    0.00017870
     atom  188 type  1   force =    -0.00005231   -0.00020599    0.00017885
     atom  189 type  1   force =    -0.00005338   -0.00020539    0.00017842
     atom  190 type  1   force =    -0.00005579   -0.00020344    0.00017775
     atom  191 type  1   force =    -0.00005326   -0.00020539    0.00017831
     atom  192 type  1   force =    -0.00005348   -0.00020571    0.00017908
     atom  193 type  1   force =     0.00016352   -0.00024882    0.00010906
     atom  194 type  1   force =     0.00015745   -0.00025247    0.00011364
     atom  195 type  1   force =     0.00015742   -0.00025243    0.00011378
     atom  196 type  1   force =     0.00015812   -0.00025309    0.00011377
     atom  197 type  1   force =     0.00015703   -0.00025300    0.00011361
     atom  198 type  1   force =     0.00015611   -0.00024991    0.00011087
     atom  199 type  1   force =     0.00015685   -0.00025312    0.00011393
     atom  200 type  1   force =     0.00015729   -0.00025245    0.00011380
     atom  201 type  2   force =     0.00009970    0.00007470   -0.00003171
     atom  202 type  2   force =     0.00010037    0.00007577   -0.00003135
     atom  203 type  2   force =     0.00010009    0.00007561   -0.00003184
     atom  204 type  2   force =     0.00009568    0.00007635   -0.00003227
     atom  205 type  2   force =     0.00010002    0.00007560   -0.00003269
     atom  206 type  2   force =     0.00009786    0.00007346   -0.00003312
     atom  207 type  2   force =     0.00010038    0.00007504   -0.00003215
     atom  208 type  2   force =     0.00009964    0.00007592   -0.00003221
     atom  209 type  3   force =     0.00000469    0.00001957    0.00001382
     atom  210 type  3   force =     0.00000453    0.00001991    0.00001397
     atom  211 type  3   force =     0.00000457    0.00001985    0.00001382
     atom  212 type  3   force =     0.00000420    0.00002097    0.00001466
     atom  213 type  3   force =     0.00000466    0.00001998    0.00001385
     atom  214 type  3   force =     0.00000410    0.00001997    0.00001455
     atom  215 type  3   force =     0.00000458    0.00001988    0.00001391
     atom  216 type  3   force =     0.00000456    0.00002009    0.00001390
     atom  217 type  1   force =    -0.00013069    0.00020325    0.00002139
     atom  218 type  1   force =    -0.00012927    0.00020291    0.00002157
     atom  219 type  1   force =    -0.00012965    0.00020310    0.00002163
     atom  220 type  1   force =    -0.00012843    0.00019095    0.00002757
     atom  221 type  1   force =    -0.00012952    0.00020421    0.00002191
     atom  222 type  1   force =    -0.00012780    0.00020432    0.00002166
     atom  223 type  1   force =    -0.00012999    0.00020187    0.00002124
     atom  224 type  1   force =    -0.00012996    0.00020410    0.00002135
     atom  225 type  2   force =    -0.00518067   -0.00235178    0.00183821
     atom  226 type  2   force =     0.00006342    0.00004513    0.00007291
     atom  227 type  2   force =     0.00006352    0.00004494    0.00007274
     atom  228 type  2   force =     0.00006401    0.00004450    0.00007350
     atom  229 type  2   force =     0.00006395    0.00004511    0.00007291
     atom  230 type  2   force =     0.00006422    0.00004509    0.00007290
     atom  231 type  2   force =     0.00006430    0.00004416    0.00007289
     atom  232 type  2   force =     0.00006407    0.00004486    0.00007320
     atom  233 type  3   force =     0.00006250    0.00002913   -0.00002831
     atom  234 type  3   force =     0.00006649    0.00002144   -0.00002938
     atom  235 type  3   force =     0.00006644    0.00002165   -0.00002955
     atom  236 type  3   force =     0.00006657    0.00002162   -0.00002937
     atom  237 type  3   force =     0.00006638    0.00002127   -0.00002924
     atom  238 type  3   force =     0.00006659    0.00002070   -0.00002936
     atom  239 type  3   force =     0.00006628    0.00002171   -0.00002934
     atom  240 type  3   force =     0.00006641    0.00002132   -0.00002964
     atom  241 type  1   force =    -0.00023951    0.00000328    0.00013555
     atom  242 type  1   force =    -0.00023955    0.00000295    0.00013624
     atom  243 type  1   force =    -0.00023952    0.00000375    0.00013677
     atom  244 type  1   force =    -0.00023886    0.00000280    0.00013550
     atom  245 type  1   force =    -0.00024079    0.00000198    0.00013661
     atom  246 type  1   force =    -0.00024587   -0.00001053    0.00014157
     atom  247 type  1   force =    -0.00023957    0.00000266    0.00013598
     atom  248 type  1   force =    -0.00023984    0.00000198    0.00013610
     atom  249 type  1   force =    -0.00013112    0.00019703    0.00017373
     atom  250 type  1   force =    -0.00013136    0.00019811    0.00017411
     atom  251 type  1   force =    -0.00013060    0.00019864    0.00017382
     atom  252 type  1   force =    -0.00013072    0.00019715    0.00017376
     atom  253 type  1   force =    -0.00013083    0.00019644    0.00017423
     atom  254 type  1   force =    -0.00011874    0.00020454    0.00020911
     atom  255 type  1   force =    -0.00013061    0.00019744    0.00017366
     atom  256 type  1   force =    -0.00013040    0.00019783    0.00017378
     atom  257 type  2   force =     0.00000531    0.00001386   -0.00001181
     atom  258 type  2   force =     0.00000408    0.00001437   -0.00001197
     atom  259 type  2   force =     0.00000304    0.00001029   -0.00000981
     atom  260 type  2   force =     0.00000468    0.00001403   -0.00001175
     atom  261 type  2   force =     0.00000447    0.00001512   -0.00001171
     atom  262 type  2   force =     0.00000279    0.00001396   -0.00001111
     atom  263 type  2   force =     0.00000395    0.00001392   -0.00001144
     atom  264 type  2   force =     0.00000384    0.00001434   -0.00001183
     atom  265 type  2   force =    -0.00004525   -0.00019755   -0.00002666
     atom  266 type  2   force =    -0.00004469   -0.00019824   -0.00002709
     atom  267 type  2   force =    -0.00004660   -0.00020336   -0.00002641
     atom  268 type  2   force =    -0.00004496   -0.00019780   -0.00002724
     atom  269 type  2   force =    -0.00004402   -0.00019341   -0.00002652
     atom  270 type  2   force =    -0.00005032   -0.00020502   -0.00002558
     atom  271 type  2   force =    -0.00004464   -0.00019734   -0.00002730
     atom  272 type  2   force =    -0.00004446   -0.00019748   -0.00002716
     atom  273 type  2   force =     0.00015281    0.00008634   -0.00008191
     atom  274 type  2   force =     0.00015368    0.00008507   -0.00008269
     atom  275 type  2   force =     0.00015455    0.00008443   -0.00008417
     atom  276 type  2   force =     0.00015341    0.00008531   -0.00008317
     atom  277 type  2   force =     0.00015271    0.00008498   -0.00008298
     atom  278 type  2   force =     0.00015527    0.00008521   -0.00008307
     atom  279 type  2   force =     0.00015384    0.00008551   -0.00008306
     atom  280 type  2   force =     0.00015352    0.00008553   -0.00008277
     atom  281 type  3   force =     0.00004496   -0.00002365    0.00005425
     atom  282 type  3   force =     0.00004522   -0.00002367    0.00005420
     atom  283 type  3   force =     0.00004541   -0.00002398    0.00005391
     atom  284 type  3   force =     0.00004472   -0.00002373    0.00005413
     atom  285 type  3   force =     0.00004489   -0.00002225    0.00005607
     atom  286 type  3   force =     0.00004570   -0.00002380    0.00005451
     atom  287 type  3   force =     0.00004517   -0.00002350    0.00005425
     atom  288 type  3   force =     0.00004514   -0.00002350    0.00005413
     atom  289 type  2   force =    -0.00000587   -0.00014475    0.00000367
     atom  290 type  2   force =    -0.00000475   -0.00014377    0.00000095
     atom  291 type  2   force =    -0.00000752   -0.00014165   -0.00000026
     atom  292 type  2   force =    -0.00000502   -0.00014386    0.00000091
     atom  293 type  2   force =    -0.00000590   -0.00014407    0.00000054
     atom  294 type  2   force =    -0.00000591   -0.00014360    0.00000088
     atom  295 type  2   force =    -0.00000556   -0.00014405    0.00000154
     atom  296 type  2   force =    -0.00000501   -0.00014393    0.00000130
     atom  297 type  3   force =    -0.00006990   -0.00003525    0.00004817
     atom  298 type  3   force =    -0.00007010   -0.00003722    0.00004843
     atom  299 type  3   force =    -0.00006939   -0.00003734    0.00004817
     atom  300 type  3   force =    -0.00007012   -0.00003732    0.00004855
     atom  301 type  3   force =    -0.00007034   -0.00003726    0.00004856
     atom  302 type  3   force =    -0.00007047   -0.00003711    0.00004860
     atom  303 type  3   force =    -0.00007036   -0.00003713    0.00004847
     atom  304 type  3   force =    -0.00007040   -0.00003735    0.00004854
     atom  305 type  1   force =     0.00020604   -0.00005292   -0.00017883
     atom  306 type  1   force =     0.00020600   -0.00005286   -0.00017892
     atom  307 type  1   force =     0.00020645   -0.00005271   -0.00017960
     atom  308 type  1   force =     0.00020667   -0.00005332   -0.00017872
     atom  309 type  1   force =     0.00020249   -0.00005548   -0.00017721
     atom  310 type  1   force =     0.00019052   -0.00003043   -0.00017177
     atom  311 type  1   force =     0.00020548   -0.00005293   -0.00017838
     atom  312 type  1   force =     0.00020551   -0.00005341   -0.00017802
     atom  313 type  1   force =     0.00025339    0.00015759   -0.00011385
     atom  314 type  1   force =     0.00025294    0.00015767   -0.00011372
     atom  315 type  1   force =     0.00025334    0.00015949   -0.00011325
     atom  316 type  1   force =     0.00025346    0.00015777   -0.00011358
     atom  317 type  1   force =     0.00025320    0.00015598   -0.00011448
     atom  318 type  1   force =     0.00026498    0.00015423   -0.00011851
     atom  319 type  1   force =     0.00025286    0.00015718   -0.00011370
     atom  320 type  1   force =     0.00025287    0.00015727   -0.00011342
     atom  321 type  2   force =    -0.00007574    0.00009890    0.00003234
     atom  322 type  2   force =    -0.00007534    0.00010059    0.00003241
     atom  323 type  2   force =    -0.00008088    0.00010177    0.00003956
     atom  324 type  2   force =    -0.00007563    0.00010051    0.00003226
     atom  325 type  2   force =    -0.00007582    0.00010013    0.00003210
     atom  326 type  2   force =    -0.00007638    0.00009846    0.00003301
     atom  327 type  2   force =    -0.00007525    0.00010015    0.00003182
     atom  328 type  2   force =    -0.00007547    0.00010042    0.00003247
     atom  329 type  3   force =    -0.00001983    0.00000453   -0.00001371
     atom  330 type  3   force =    -0.00002000    0.00000461   -0.00001394
     atom  331 type  3   force =    -0.00001793   -0.00000018   -0.00002175
     atom  332 type  3   force =    -0.00001993    0.00000461   -0.00001381
     atom  333 type  3   force =    -0.00001991    0.00000448   -0.00001375
     atom  334 type  3   force =    -0.00002062    0.00000443   -0.00001440
     atom  335 type  3   force =    -0.00001995    0.00000452   -0.00001384
     atom  336 type  3   force =    -0.00001985    0.00000456   -0.00001395
     atom  337 type  1   force =    -0.00020274   -0.00012927   -0.00002250
     atom  338 type  1   force =    -0.00020300   -0.00012952   -0.00002143
     atom  339 type  1   force =    -0.00019875   -0.00012617   -0.00002214
     atom  340 type  1   force =    -0.00020257   -0.00012963   -0.00002154
     atom  341 type  1   force =    -0.00020227   -0.00013057   -0.00002140
     atom  342 type  1   force =    -0.00020385   -0.00012869   -0.00002139
     atom  343 type  1   force =    -0.00020348   -0.00012984   -0.00002150
     atom  344 type  1   force =    -0.00020311   -0.00012932   -0.00002164
     atom  345 type  2   force =    -0.00004373    0.00006302   -0.00007244
     atom  346 type  2   force =    -0.00004423    0.00006395   -0.00007269
     atom  347 type  2   force =    -0.00004476    0.00006439   -0.00007282
     atom  348 type  2   force =    -0.00004439    0.00006415   -0.00007268
     atom  349 type  2   force =    -0.00004184    0.00006241   -0.00007408
     atom  350 type  2   force =    -0.00004519    0.00006313   -0.00007300
     atom  351 type  2   force =    -0.00004493    0.00006307   -0.00007297
     atom  352 type  2   force =    -0.00004490    0.00006366   -0.00007308
     atom  353 type  3   force =    -0.00002088    0.00006604    0.00002912
     atom  354 type  3   force =    -0.00002144    0.00006664    0.00002927
     atom  355 type  3   force =    -0.00002147    0.00006643    0.00002938
     atom  356 type  3   force =    -0.00002140    0.00006642    0.00002936
     atom  357 type  3   force =    -0.00002137    0.00006559    0.00003025
     atom  358 type  3   force =    -0.00002156    0.00006676    0.00002947
     atom  359 type  3   force =    -0.00002153    0.00006640    0.00002947
     atom  360 type  3   force =    -0.00002138    0.00006636    0.00002938
     atom  361 type  1   force =     0.00023898   -0.00000230    0.00013523
     atom  362 type  1   force =     0.00024005   -0.00000229    0.00013631
     atom  363 type  1   force =     0.00023865   -0.00001741    0.00013586
     atom  364 type  1   force =     0.00023859   -0.00000273    0.00013447
     atom  365 type  1   force =     0.00024054   -0.00000207    0.00013660
     atom  366 type  1   force =     0.00024166   -0.00000020    0.00013803
     atom  367 type  1   force =     0.00023958   -0.00000270    0.00013611
     atom  368 type  1   force =     0.00023979   -0.00000225    0.00013616
     atom  369 type  1   force =     0.00014134   -0.00019419    0.00018247
     atom  370 type  1   force =     0.00013022   -0.00019699    0.00017307
     atom  371 type  1   force =     0.00013099   -0.00019675    0.00017370
     atom  372 type  1   force =     0.00013107   -0.00019763    0.00017403
     atom  373 type  1   force =     0.00013076   -0.00019757    0.00017386
     atom  374 type  1   force =     0.00013071   -0.00019770    0.00017369
     atom  375 type  1   force =     0.00013100   -0.00019808    0.00017368
     atom  376 type  1   force =     0.00013099   -0.00020039    0.00017452
     atom  377 type  2   force =    -0.00000462   -0.00001365   -0.00001151
     atom  378 type  2   force =    -0.00000419   -0.00001305   -0.00001170
     atom  379 type  2   force =    -0.00000410   -0.00001381   -0.00001183
     atom  380 type  2   force =    -0.00000374   -0.00001420   -0.00001155
     atom  381 type  2   force =    -0.00000375   -0.00001419   -0.00001146
     atom  382 type  2   force =    -0.00000422   -0.00001555   -0.00001125
     atom  383 type  2   force =    -0.00000376   -0.00001403   -0.00001169
     atom  384 type  2   force =    -0.00000304   -0.00001525   -0.00001165
     atom  385 type  2   force =     0.00002781    0.00018715   -0.00003422
     atom  386 type  2   force =     0.00004479    0.00019872   -0.00002637
     atom  387 type  2   force =     0.00004476    0.00019643   -0.00002740
     atom  388 type  2   force =     0.00004456    0.00019762   -0.00002749
     atom  389 type  2   force =     0.00004484    0.00019807   -0.00002725
     atom  390 type  2   force =     0.00004473    0.00019851   -0.00002683
     atom  391 type  2   force =     0.00004423    0.00019779   -0.00002748
     atom  392 type  2   force =     0.00004263    0.00019866   -0.00002871
     atom  393 type  2   force =    -0.00015272   -0.00008605   -0.00008236
     atom  394 type  2   force =    -0.00015675   -0.00008721   -0.00008391
     atom  395 type  2   force =    -0.00015371   -0.00008543   -0.00008309
     atom  396 type  2   force =    -0.00015359   -0.00008573   -0.00008252
     atom  397 type  2   force =    -0.00015361   -0.00008542   -0.00008296
     atom  398 type  2   force =    -0.00015477   -0.00008634   -0.00008315
     atom  399 type  2   force =    -0.00015373   -0.00008562   -0.00008266
     atom  400 type  2   force =    -0.00015412   -0.00008514   -0.00008283
     atom  401 type  3   force =    -0.00004457    0.00002350    0.00005381
     atom  402 type  3   force =    -0.00004359    0.00002446    0.00005807
     atom  403 type  3   force =    -0.00004509    0.00002363    0.00005414
     atom  404 type  3   force =    -0.00004519    0.00002373    0.00005409
     atom  405 type  3   force =    -0.00004516    0.00002355    0.00005425
     atom  406 type  3   force =    -0.00004521    0.00002330    0.00005433
     atom  407 type  3   force =    -0.00004528    0.00002345    0.00005417
     atom  408 type  3   force =    -0.00004530    0.00002345    0.00005413
     atom  409 type  2   force =     0.00000526    0.00014388    0.00000187
     atom  410 type  2   force =     0.00000490    0.00014401    0.00000107
     atom  411 type  2   force =     0.00000491    0.00014365    0.00000142
     atom  412 type  2   force =     0.00000494    0.00014313    0.00000159
     atom  413 type  2   force =     0.00000608    0.00014181    0.00000139
     atom  414 type  2   force =     0.00000586    0.00014383    0.00000093
     atom  415 type  2   force =     0.00000621    0.00014519    0.00000076
     atom  416 type  2   force =     0.00000490    0.00014399    0.00000125
     atom  417 type  3   force =     0.00007039    0.00003729    0.00004846
     atom  418 type  3   force =     0.00007007    0.00003709    0.00004843
     atom  419 type  3   force =     0.00006993    0.00003708    0.00004849
     atom  420 type  3   force =     0.00007000    0.00003698    0.00004837
     atom  421 type  3   force =     0.00007322    0.00003719    0.00004994
     atom  422 type  3   force =     0.00007029    0.00003726    0.00004863
     atom  423 type  3   force =     0.00007073    0.00003723    0.00004866
     atom  424 type  3   force =     0.00007027    0.00003735    0.00004844
     atom  425 type  1   force =    -0.00021357    0.00006066   -0.00014392
     atom  426 type  1   force =    -0.00020714    0.00005326   -0.00017869
     atom  427 type  1   force =    -0.00020606    0.00005318   -0.00017860
     atom  428 type  1   force =    -0.00020523    0.00005304   -0.00017816
     atom  429 type  1   force =    -0.00020569    0.00005292   -0.00017868
     atom  430 type  1   force =    -0.00020594    0.00005366   -0.00017887
     atom  431 type  1   force =    -0.00020502    0.00005285   -0.00017823
     atom  432 type  1   force =    -0.00020340    0.00005363   -0.00017711
     atom  433 type  1   force =    -0.00025647   -0.00013744   -0.00010031
     atom  434 type  1   force =    -0.00025299   -0.00015820   -0.00011334
     atom  435 type  1   force =    -0.00025297   -0.00015680   -0.00011386
     atom  436 type  1   force =    -0.00025297   -0.00015677   -0.00011365
     atom  437 type  1   force =    -0.00025308   -0.00015751   -0.00011384
     atom  438 type  1   force =    -0.00025311   -0.00015795   -0.00011361
     atom  439 type  1   force =    -0.00025274   -0.00015737   -0.00011414
     atom  440 type  1   force =    -0.00025034   -0.00015624   -0.00011257
     atom  441 type  2   force =     0.00007465   -0.00010176    0.00003246
     atom  442 type  2   force =     0.00007506   -0.00010023    0.00003279
     atom  443 type  2   force =     0.00007580   -0.00010024    0.00003207
     atom  444 type  2   force =     0.00007562   -0.00010051    0.00003224
     atom  445 type  2   force =     0.00007608   -0.00009943    0.00003180
     atom  446 type  2   force =     0.00007515   -0.00009844    0.00003224
     atom  447 type  2   force =     0.00007522   -0.00010072    0.00003221
     atom  448 type  2   force =     0.00007343   -0.00009852    0.00003275
     atom  449 type  3   force =     0.00001998   -0.00000450   -0.00001382
     atom  450 type  3   force =     0.00001995   -0.00000460   -0.00001383
     atom  451 type  3   force =     0.00001956   -0.00000471   -0.00001379
     atom  452 type  3   force =     0.00002013   -0.00000454   -0.00001383
     atom  453 type  3   force =     0.00001992   -0.00000453   -0.00001395
     atom  454 type  3   force =     0.00001986   -0.00000523   -0.00001529
     atom  455 type  3   force =     0.00002009   -0.00000456   -0.00001389
     atom  456 type  3   force =     0.00002009   -0.00000449   -0.00001407
     atom  457 type  1   force =     0.00020388    0.00013066   -0.00002133
     atom  458 type  1   force =     0.00020410    0.00012977   -0.00002172
     atom  459 type  1   force =     0.00020341    0.00013090   -0.00002147
     atom  460 type  1   force =     0.00020385    0.00013039   -0.00002194
     atom  461 type  1   force =     0.00020306    0.00012933   -0.00002139
     atom  462 type  1   force =     0.00020435    0.00012827   -0.00002093
     atom  463 type  1   force =     0.00020343    0.00012962   -0.00002150
     atom  464 type  1   force =     0.00020024    0.00013076   -0.00001969
     atom  465 type  2   force =     0.00004554   -0.00006411   -0.00007292
     atom  466 type  2   force =     0.00004528   -0.00006371   -0.00007295
     atom  467 type  2   force =     0.00004706   -0.00006354   -0.00007199
     atom  468 type  2   force =     0.00004536   -0.00006342   -0.00007314
     atom  469 type  2   force =     0.00004492   -0.00006420   -0.00007357
     atom  470 type  2   force =     0.00004490   -0.00006336   -0.00007328
     atom  471 type  2   force =     0.00004436   -0.00006364   -0.00007295
     atom  472 type  2   force =     0.00004514   -0.00006345   -0.00007337
     atom  473 type  3   force =     0.00002088   -0.00006619    0.00002879
     atom  474 type  3   force =     0.00002142   -0.00006631    0.00002937
     atom  475 type  3   force =     0.00002131   -0.00006655    0.00002931
     atom  476 type  3   force =     0.00002141   -0.00006650    0.00002934
     atom  477 type  3   force =     0.00001922   -0.00006652    0.00003210
     atom  478 type  3   force =     0.00002166   -0.00006638    0.00002954
     atom  479 type  3   force =     0.00002165   -0.00006654    0.00002939
     atom  480 type  3   force =     0.00002149   -0.00006658    0.00002933
     atom  481 type  4   force =    -0.00000339   -0.00000625    0.00000524
     atom  482 type  4   force =    -0.00000413   -0.00000091   -0.00000252
     atom  483 type  4   force =    -0.00000418   -0.00000060   -0.00000518
     atom  484 type  4   force =    -0.00000472    0.00000029    0.00000212
     atom  485 type  4   force =     0.00000469   -0.00000117   -0.00000260
     atom  486 type  4   force =    -0.00001352   -0.00003256   -0.00001290
     atom  487 type  4   force =     0.00000287    0.00000063    0.00000052
     atom  488 type  4   force =     0.00000382    0.00000054   -0.00000214
     atom  489 type  4   force =    -0.00000105    0.00000091    0.00000032
     atom  490 type  4   force =    -0.00000037   -0.00000072    0.00000347
     atom  491 type  4   force =    -0.00000291   -0.00000088    0.00000278
     atom  492 type  4   force =    -0.00000151    0.00000228   -0.00000306
     atom  493 type  4   force =     0.00004026    0.00001901   -0.00002029
     atom  494 type  4   force =     0.00000630   -0.00000198   -0.00000498
     atom  495 type  4   force =    -0.00000012   -0.00000004   -0.00000147
     atom  496 type  4   force =    -0.00000042    0.00000030   -0.00000003
     The non-local contrib.  to forces
     atom    1 type  1   force =     0.42450613   -0.94526758   -0.55499611
     atom    2 type  1   force =     0.42450978   -0.94528103   -0.55500108
     atom    3 type  1   force =     0.42450811   -0.94526976   -0.55499283
     atom    4 type  1   force =     0.42452465   -0.94528244   -0.55500039
     atom    5 type  1   force =     0.42450487   -0.94527467   -0.55499775
     atom    6 type  1   force =     0.42491762   -0.94502218   -0.55525431
     atom    7 type  1   force =     0.42450793   -0.94528051   -0.55500136
     atom    8 type  1   force =     0.42450732   -0.94528050   -0.55500081
     atom    9 type  1   force =    -1.90169309   -0.92018504   -0.83651130
     atom   10 type  1   force =    -1.90169308   -0.92017982   -0.83650839
     atom   11 type  1   force =    -1.90164330   -0.92015303   -0.83648909
     atom   12 type  1   force =    -1.90168966   -0.92017976   -0.83650768
     atom   13 type  1   force =    -1.90147515   -0.92011998   -0.83660215
     atom   14 type  1   force =    -1.90169257   -0.92018138   -0.83651023
     atom   15 type  1   force =    -1.90169538   -0.92018509   -0.83651243
     atom   16 type  1   force =    -1.90169480   -0.92018423   -0.83651152
     atom   17 type  2   force =     0.20917454   -0.04486341    0.00802005
     atom   18 type  2   force =     0.20917343   -0.04485991    0.00801940
     atom   19 type  2   force =     0.20918220   -0.04486266    0.00802019
     atom   20 type  2   force =     0.20917675   -0.04486177    0.00802158
     atom   21 type  2   force =     0.20296116   -0.05243011    0.01169159
     atom   22 type  2   force =     0.20917195   -0.04486294    0.00801995
     atom   23 type  2   force =     0.20917480   -0.04486503    0.00802079
     atom   24 type  2   force =     0.20917526   -0.04486345    0.00802034
     atom   25 type  2   force =     0.18057539   -0.00954344    0.01138318
     atom   26 type  2   force =     0.18057398   -0.00953996    0.01138608
     atom   27 type  2   force =     0.18058413   -0.00954069    0.01138849
     atom   28 type  2   force =     0.18057785   -0.00954044    0.01138539
     atom   29 type  2   force =     0.17996397   -0.00984327    0.01123091
     atom   30 type  2   force =     0.18057124   -0.00954185    0.01138336
     atom   31 type  2   force =     0.18057486   -0.00954408    0.01138289
     atom   32 type  2   force =     0.18057551   -0.00954327    0.01138354
     atom   33 type  2   force =     0.05325346    0.06567340   -0.02583030
     atom   34 type  2   force =     0.03833378    0.04943366   -0.02159115
     atom   35 type  2   force =     0.03833634    0.04942999   -0.02158964
     atom   36 type  2   force =     0.03833685    0.04943351   -0.02159045
     atom   37 type  2   force =     0.03833470    0.04943386   -0.02159094
     atom   38 type  2   force =     0.03833445    0.04943780   -0.02159125
     atom   39 type  2   force =     0.03834068    0.04943404   -0.02159007
     atom   40 type  2   force =     0.03833694    0.04943532   -0.02158872
     atom   41 type  3   force =    -0.02535869    0.07158394   -0.00807900
     atom   42 type  3   force =    -0.02448918    0.07095370   -0.00853850
     atom   43 type  3   force =    -0.02448912    0.07095361   -0.00853842
     atom   44 type  3   force =    -0.02448911    0.07095371   -0.00853850
     atom   45 type  3   force =    -0.02448916    0.07095373   -0.00853853
     atom   46 type  3   force =    -0.02448920    0.07095382   -0.00853852
     atom   47 type  3   force =    -0.02448909    0.07095373   -0.00853849
     atom   48 type  3   force =    -0.02448913    0.07095376   -0.00853843
     atom   49 type  2   force =     0.19624705    0.10329021   -0.02235570
     atom   50 type  2   force =     0.19564448    0.10406991   -0.02183077
     atom   51 type  2   force =     0.19564790    0.10406790   -0.02183116
     atom   52 type  2   force =     0.19564592    0.10407087   -0.02183120
     atom   53 type  2   force =     0.19564619    0.10406960   -0.02183125
     atom   54 type  2   force =     0.19564898    0.10407150   -0.02183141
     atom   55 type  2   force =     0.19565869    0.10406917   -0.02183217
     atom   56 type  2   force =     0.19564917    0.10407069   -0.02183063
     atom   57 type  3   force =     0.07447684   -0.02096695   -0.00103365
     atom   58 type  3   force =     0.07447304   -0.02094772   -0.00102129
     atom   59 type  3   force =     0.07447312   -0.02094779   -0.00102130
     atom   60 type  3   force =     0.07447309   -0.02094771   -0.00102131
     atom   61 type  3   force =     0.07447311   -0.02094773   -0.00102134
     atom   62 type  3   force =     0.07447315   -0.02094775   -0.00102133
     atom   63 type  3   force =     0.07447343   -0.02094772   -0.00102131
     atom   64 type  3   force =     0.07447318   -0.02094772   -0.00102125
     atom   65 type  1   force =     0.46059673    0.90171190    0.60854283
     atom   66 type  1   force =     0.46059701    0.90171983    0.60854830
     atom   67 type  1   force =     0.46060282    0.90171817    0.60854997
     atom   68 type  1   force =     0.46060091    0.90172004    0.60855062
     atom   69 type  1   force =     0.46087442    0.90125257    0.60843969
     atom   70 type  1   force =     0.46059441    0.90172024    0.60855099
     atom   71 type  1   force =     0.46059373    0.90170962    0.60854334
     atom   72 type  1   force =     0.46059500    0.90171043    0.60854340
     atom   73 type  1   force =    -1.81427145    1.18902269    0.50399022
     atom   74 type  1   force =    -1.81427770    1.18902998    0.50399392
     atom   75 type  1   force =    -1.81428853    1.18904610    0.50399503
     atom   76 type  1   force =    -1.81427269    1.18902745    0.50399257
     atom   77 type  1   force =    -1.81412436    1.18898412    0.50399906
     atom   78 type  1   force =    -1.81427879    1.18902794    0.50399391
     atom   79 type  1   force =    -1.81427423    1.18902323    0.50399057
     atom   80 type  1   force =    -1.81427177    1.18902224    0.50399003
     atom   81 type  2   force =    -0.12229323    0.00072335    0.01060874
     atom   82 type  2   force =    -0.12229014    0.00073035    0.01060839
     atom   83 type  2   force =    -0.12228853    0.00072455    0.01060838
     atom   84 type  2   force =    -0.12229028    0.00072570    0.01060947
     atom   85 type  2   force =    -0.12213421   -0.00005841    0.01009478
     atom   86 type  2   force =    -0.12229486    0.00072293    0.01060923
     atom   87 type  2   force =    -0.12229411    0.00072054    0.01061003
     atom   88 type  2   force =    -0.12229303    0.00072285    0.01060918
     atom   89 type  3   force =    -0.04392396   -0.06010566    0.00989229
     atom   90 type  3   force =    -0.04392407   -0.06010590    0.00989227
     atom   91 type  3   force =    -0.04392400   -0.06010582    0.00989236
     atom   92 type  3   force =    -0.04392391   -0.06010584    0.00989229
     atom   93 type  3   force =    -0.04392407   -0.06010588    0.00989228
     atom   94 type  3   force =    -0.04392808   -0.06010053    0.00987964
     atom   95 type  3   force =    -0.04392402   -0.06010586    0.00989230
     atom   96 type  3   force =    -0.04392404   -0.06010594    0.00989234
     atom   97 type  1   force =     0.67099583   -1.73657276    0.15449849
     atom   98 type  1   force =     0.67099282   -1.73657581    0.15449873
     atom   99 type  1   force =     0.67099564   -1.73657396    0.15450080
     atom  100 type  1   force =     0.67100141   -1.73657859    0.15449950
     atom  101 type  1   force =     0.67099161   -1.73657630    0.15449944
     atom  102 type  1   force =     0.67003162   -1.73679068    0.15433154
     atom  103 type  1   force =     0.67099292   -1.73657461    0.15449945
     atom  104 type  1   force =     0.67099479   -1.73658299    0.15450100
     atom  105 type  2   force =    -0.02522159    0.04106115   -0.00104819
     atom  106 type  2   force =    -0.02521407    0.04108883   -0.00104362
     atom  107 type  2   force =    -0.02521192    0.04108960   -0.00104264
     atom  108 type  2   force =    -0.02521036    0.04109134   -0.00104360
     atom  109 type  2   force =    -0.02521642    0.04108476   -0.00104495
     atom  110 type  2   force =    -0.02521457    0.04107254   -0.00104382
     atom  111 type  2   force =    -0.02521811    0.04108325   -0.00104379
     atom  112 type  2   force =    -0.02521285    0.04108598   -0.00104065
     atom  113 type  3   force =     0.05064641    0.05413779   -0.00606253
     atom  114 type  3   force =     0.05071353    0.05410623   -0.00605700
     atom  115 type  3   force =     0.05071359    0.05410624   -0.00605702
     atom  116 type  3   force =     0.05071362    0.05410632   -0.00605702
     atom  117 type  3   force =     0.05071360    0.05410628   -0.00605710
     atom  118 type  3   force =     0.05071357    0.05410624   -0.00605706
     atom  119 type  3   force =     0.05071374    0.05410625   -0.00605704
     atom  120 type  3   force =     0.05071364    0.05410634   -0.00605696
     atom  121 type  1   force =    -0.42453336    0.94531291   -0.55502942
     atom  122 type  1   force =    -0.42450953    0.94527635   -0.55499872
     atom  123 type  1   force =    -0.42450755    0.94527424   -0.55499250
     atom  124 type  1   force =    -0.42450198    0.94527852   -0.55500171
     atom  125 type  1   force =    -0.42450806    0.94527937   -0.55500109
     atom  126 type  1   force =    -0.42452710    0.94534645   -0.55501932
     atom  127 type  1   force =    -0.42450981    0.94527805   -0.55500005
     atom  128 type  1   force =    -0.42450656    0.94527564   -0.55499811
     atom  129 type  1   force =     1.90170750    0.92021606   -0.83654265
     atom  130 type  1   force =     1.90169104    0.92018303   -0.83651056
     atom  131 type  1   force =     1.90168990    0.92018123   -0.83650722
     atom  132 type  1   force =     1.90170055    0.92018492   -0.83651250
     atom  133 type  1   force =     1.90169513    0.92018478   -0.83651279
     atom  134 type  1   force =     1.90165480    0.92016502   -0.83650209
     atom  135 type  1   force =     1.90169239    0.92018276   -0.83651013
     atom  136 type  1   force =     1.90169339    0.92018300   -0.83651072
     atom  137 type  2   force =    -0.20919071    0.04486342    0.00802070
     atom  138 type  2   force =    -0.20917678    0.04486153    0.00802207
     atom  139 type  2   force =    -0.20917823    0.04486235    0.00802092
     atom  140 type  2   force =    -0.20916702    0.04485311    0.00801768
     atom  141 type  2   force =    -0.20917312    0.04486462    0.00802030
     atom  142 type  2   force =    -0.20917192    0.04486967    0.00802029
     atom  143 type  2   force =    -0.20917996    0.04485853    0.00801907
     atom  144 type  2   force =    -0.20917293    0.04486407    0.00802050
     atom  145 type  2   force =    -0.18059145    0.00955194    0.01138413
     atom  146 type  2   force =    -0.18057763    0.00954310    0.01138395
     atom  147 type  2   force =    -0.18057860    0.00954183    0.01138412
     atom  148 type  2   force =    -0.18056570    0.00954190    0.01138405
     atom  149 type  2   force =    -0.18057377    0.00954313    0.01138340
     atom  150 type  2   force =    -0.18057234    0.00954947    0.01137854
     atom  151 type  2   force =    -0.18057910    0.00954295    0.01138404
     atom  152 type  2   force =    -0.18057290    0.00954223    0.01138343
     atom  153 type  2   force =    -0.03833378   -0.04943272   -0.02159057
     atom  154 type  2   force =    -0.03833346   -0.04942695   -0.02159099
     atom  155 type  2   force =    -0.03833867   -0.04944776   -0.02159263
     atom  156 type  2   force =    -0.03833514   -0.04943187   -0.02159004
     atom  157 type  2   force =    -0.03833815   -0.04944907   -0.02159043
     atom  158 type  2   force =    -0.03833500   -0.04943489   -0.02158765
     atom  159 type  2   force =    -0.03833698   -0.04943501   -0.02159085
     atom  160 type  2   force =    -0.03833441   -0.04944043   -0.02159165
     atom  161 type  3   force =     0.02448917   -0.07095371   -0.00853849
     atom  162 type  3   force =     0.02448914   -0.07095361   -0.00853848
     atom  163 type  3   force =     0.02448858   -0.07095412   -0.00853860
     atom  164 type  3   force =     0.02448916   -0.07095367   -0.00853847
     atom  165 type  3   force =     0.02448910   -0.07095415   -0.00853850
     atom  166 type  3   force =     0.02448917   -0.07095372   -0.00853838
     atom  167 type  3   force =     0.02448911   -0.07095375   -0.00853849
     atom  168 type  3   force =     0.02448921   -0.07095386   -0.00853851
     atom  169 type  2   force =    -0.19563716   -0.10408087   -0.02183222
     atom  170 type  2   force =    -0.19564664   -0.10406826   -0.02183120
     atom  171 type  2   force =    -0.19564364   -0.10406829   -0.02183063
     atom  172 type  2   force =    -0.19563827   -0.10406732   -0.02183089
     atom  173 type  2   force =    -0.19564917   -0.10407054   -0.02183212
     atom  174 type  2   force =    -0.19565806   -0.10408173   -0.02183646
     atom  175 type  2   force =    -0.19564916   -0.10407163   -0.02183191
     atom  176 type  2   force =    -0.19564592   -0.10407165   -0.02182991
     atom  177 type  3   force =    -0.07447287    0.02094771   -0.00102137
     atom  178 type  3   force =    -0.07447312    0.02094774   -0.00102133
     atom  179 type  3   force =    -0.07447303    0.02094777   -0.00102127
     atom  180 type  3   force =    -0.07447295    0.02094774   -0.00102132
     atom  181 type  3   force =    -0.07447315    0.02094772   -0.00102133
     atom  182 type  3   force =    -0.07447309    0.02094754   -0.00102155
     atom  183 type  3   force =    -0.07447319    0.02094775   -0.00102130
     atom  184 type  3   force =    -0.07447307    0.02094769   -0.00102125
     atom  185 type  1   force =    -0.46059529   -0.90167160    0.60855462
     atom  186 type  1   force =    -0.46060141   -0.90171944    0.60854980
     atom  187 type  1   force =    -0.46059884   -0.90171764    0.60854775
     atom  188 type  1   force =    -0.46059100   -0.90171821    0.60854789
     atom  189 type  1   force =    -0.46059508   -0.90171098    0.60854272
     atom  190 type  1   force =    -0.46059947   -0.90169706    0.60853787
     atom  191 type  1   force =    -0.46059523   -0.90170611    0.60854021
     atom  192 type  1   force =    -0.46059519   -0.90171435    0.60854772
     atom  193 type  1   force =     1.81423150   -1.18898836    0.50393742
     atom  194 type  1   force =     1.81426707   -1.18902204    0.50398942
     atom  195 type  1   force =     1.81427393   -1.18902654    0.50399179
     atom  196 type  1   force =     1.81428005   -1.18902802    0.50399284
     atom  197 type  1   force =     1.81427381   -1.18902370    0.50399098
     atom  198 type  1   force =     1.81426221   -1.18901584    0.50399118
     atom  199 type  1   force =     1.81427404   -1.18902455    0.50399109
     atom  200 type  1   force =     1.81427711   -1.18902648    0.50399362
     atom  201 type  2   force =     0.12228913   -0.00072048    0.01060834
     atom  202 type  2   force =     0.12229294   -0.00072579    0.01060897
     atom  203 type  2   force =     0.12229196   -0.00072369    0.01060949
     atom  204 type  2   force =     0.12230145   -0.00072936    0.01060484
     atom  205 type  2   force =     0.12229436   -0.00072138    0.01060972
     atom  206 type  2   force =     0.12230635   -0.00070647    0.01061012
     atom  207 type  2   force =     0.12229218   -0.00072649    0.01060820
     atom  208 type  2   force =     0.12229245   -0.00072298    0.01060928
     atom  209 type  3   force =     0.04392393    0.06010594    0.00989230
     atom  210 type  3   force =     0.04392400    0.06010580    0.00989234
     atom  211 type  3   force =     0.04392400    0.06010586    0.00989235
     atom  212 type  3   force =     0.04392436    0.06010568    0.00989227
     atom  213 type  3   force =     0.04392406    0.06010595    0.00989233
     atom  214 type  3   force =     0.04392455    0.06010636    0.00989222
     atom  215 type  3   force =     0.04392398    0.06010580    0.00989228
     atom  216 type  3   force =     0.04392406    0.06010588    0.00989230
     atom  217 type  1   force =    -0.67099791    1.73658019    0.15449958
     atom  218 type  1   force =    -0.67099163    1.73657091    0.15450038
     atom  219 type  1   force =    -0.67099474    1.73657564    0.15450017
     atom  220 type  1   force =    -0.67096172    1.73645576    0.15449425
     atom  221 type  1   force =    -0.67099251    1.73658121    0.15450078
     atom  222 type  1   force =    -0.67098322    1.73658057    0.15449953
     atom  223 type  1   force =    -0.67099058    1.73656759    0.15449817
     atom  224 type  1   force =    -0.67099378    1.73657804    0.15449891
     atom  225 type  2   force =     0.01937740   -0.04190215    0.00200329
     atom  226 type  2   force =     0.02521245   -0.04108758   -0.00104332
     atom  227 type  2   force =     0.02521462   -0.04108904   -0.00104274
     atom  228 type  2   force =     0.02521611   -0.04108560   -0.00104358
     atom  229 type  2   force =     0.02521368   -0.04108725   -0.00104428
     atom  230 type  2   force =     0.02521262   -0.04108764   -0.00104395
     atom  231 type  2   force =     0.02521935   -0.04108682   -0.00104384
     atom  232 type  2   force =     0.02521644   -0.04108503   -0.00104166
     atom  233 type  3   force =    -0.05071257   -0.05410746   -0.00605728
     atom  234 type  3   force =    -0.05071358   -0.05410623   -0.00605703
     atom  235 type  3   force =    -0.05071352   -0.05410622   -0.00605698
     atom  236 type  3   force =    -0.05071348   -0.05410615   -0.00605703
     atom  237 type  3   force =    -0.05071362   -0.05410630   -0.00605710
     atom  238 type  3   force =    -0.05071374   -0.05410649   -0.00605707
     atom  239 type  3   force =    -0.05071362   -0.05410639   -0.00605704
     atom  240 type  3   force =    -0.05071355   -0.05410625   -0.00605695
     atom  241 type  1   force =    -0.94527060   -0.42450366    0.55499394
     atom  242 type  1   force =    -0.94527779   -0.42450555    0.55499992
     atom  243 type  1   force =    -0.94527923   -0.42449790    0.55500337
     atom  244 type  1   force =    -0.94527069   -0.42450562    0.55499522
     atom  245 type  1   force =    -0.94528111   -0.42451357    0.55500239
     atom  246 type  1   force =    -0.94529568   -0.42449531    0.55501016
     atom  247 type  1   force =    -0.94527971   -0.42450799    0.55500072
     atom  248 type  1   force =    -0.94528313   -0.42451127    0.55500304
     atom  249 type  1   force =    -0.92018313    1.90169725    0.83651119
     atom  250 type  1   force =    -0.92018340    1.90169533    0.83651071
     atom  251 type  1   force =    -0.92018435    1.90170207    0.83651322
     atom  252 type  1   force =    -0.92018042    1.90169258    0.83650848
     atom  253 type  1   force =    -0.92018589    1.90169226    0.83651174
     atom  254 type  1   force =    -0.92027080    1.90185666    0.83666238
     atom  255 type  1   force =    -0.92018334    1.90169361    0.83651061
     atom  256 type  1   force =    -0.92018306    1.90169075    0.83651009
     atom  257 type  2   force =    -0.04486077   -0.20917593   -0.00802228
     atom  258 type  2   force =    -0.04486318   -0.20917242   -0.00801974
     atom  259 type  2   force =    -0.04484787   -0.20916299   -0.00801749
     atom  260 type  2   force =    -0.04486082   -0.20917482   -0.00801986
     atom  261 type  2   force =    -0.04485866   -0.20918459   -0.00802259
     atom  262 type  2   force =    -0.04486418   -0.20915482   -0.00801902
     atom  263 type  2   force =    -0.04486336   -0.20917592   -0.00802026
     atom  264 type  2   force =    -0.04486323   -0.20917611   -0.00801968
     atom  265 type  2   force =    -0.00954201   -0.18057523   -0.01138441
     atom  266 type  2   force =    -0.00954288   -0.18057270   -0.01138332
     atom  267 type  2   force =    -0.00954050   -0.18055786   -0.01138315
     atom  268 type  2   force =    -0.00954124   -0.18057492   -0.01138507
     atom  269 type  2   force =    -0.00954732   -0.18058708   -0.01138314
     atom  270 type  2   force =    -0.00955550   -0.18054677   -0.01137175
     atom  271 type  2   force =    -0.00954321   -0.18057574   -0.01138364
     atom  272 type  2   force =    -0.00954352   -0.18057630   -0.01138351
     atom  273 type  2   force =     0.04943567   -0.03833654    0.02158974
     atom  274 type  2   force =     0.04943273   -0.03833373    0.02159107
     atom  275 type  2   force =     0.04944962   -0.03833400    0.02159212
     atom  276 type  2   force =     0.04943792   -0.03833407    0.02159139
     atom  277 type  2   force =     0.04944673   -0.03833752    0.02158390
     atom  278 type  2   force =     0.04942496   -0.03832964    0.02159039
     atom  279 type  2   force =     0.04943361   -0.03833684    0.02159061
     atom  280 type  2   force =     0.04943485   -0.03833513    0.02159113
     atom  281 type  3   force =     0.07095375    0.02448910    0.00853852
     atom  282 type  3   force =     0.07095370    0.02448917    0.00853849
     atom  283 type  3   force =     0.07095403    0.02448923    0.00853852
     atom  284 type  3   force =     0.07095383    0.02448919    0.00853852
     atom  285 type  3   force =     0.07095409    0.02448893    0.00853804
     atom  286 type  3   force =     0.07095348    0.02448921    0.00853842
     atom  287 type  3   force =     0.07095369    0.02448911    0.00853849
     atom  288 type  3   force =     0.07095373    0.02448913    0.00853852
     atom  289 type  2   force =     0.10407006   -0.19565542    0.02183147
     atom  290 type  2   force =     0.10407000   -0.19564614    0.02183160
     atom  291 type  2   force =     0.10407147   -0.19566324    0.02183667
     atom  292 type  2   force =     0.10407146   -0.19564728    0.02183150
     atom  293 type  2   force =     0.10407539   -0.19564373    0.02183077
     atom  294 type  2   force =     0.10406832   -0.19563898    0.02183014
     atom  295 type  2   force =     0.10407042   -0.19564605    0.02183129
     atom  296 type  2   force =     0.10407131   -0.19564505    0.02183127
     atom  297 type  3   force =    -0.02094770   -0.07447340    0.00102112
     atom  298 type  3   force =    -0.02094773   -0.07447306    0.00102134
     atom  299 type  3   force =    -0.02094777   -0.07447334    0.00102138
     atom  300 type  3   force =    -0.02094772   -0.07447310    0.00102135
     atom  301 type  3   force =    -0.02094765   -0.07447305    0.00102126
     atom  302 type  3   force =    -0.02094772   -0.07447295    0.00102134
     atom  303 type  3   force =    -0.02094770   -0.07447310    0.00102128
     atom  304 type  3   force =    -0.02094770   -0.07447309    0.00102128
     atom  305 type  1   force =     0.90171609   -0.46059552   -0.60854608
     atom  306 type  1   force =     0.90171330   -0.46059303   -0.60854562
     atom  307 type  1   force =     0.90172358   -0.46059091   -0.60855247
     atom  308 type  1   force =     0.90171974   -0.46059709   -0.60854647
     atom  309 type  1   force =     0.90169072   -0.46059943   -0.60853439
     atom  310 type  1   force =     0.90164891   -0.46055355   -0.60852245
     atom  311 type  1   force =     0.90171096   -0.46059500   -0.60854284
     atom  312 type  1   force =     0.90171299   -0.46059794   -0.60854336
     atom  313 type  1   force =     1.18902663    1.81427627   -0.50399219
     atom  314 type  1   force =     1.18902723    1.81427927   -0.50399311
     atom  315 type  1   force =     1.18903043    1.81428426   -0.50399540
     atom  316 type  1   force =     1.18902855    1.81427722   -0.50399283
     atom  317 type  1   force =     1.18901809    1.81426446   -0.50398722
     atom  318 type  1   force =     1.18893045    1.81422234   -0.50400037
     atom  319 type  1   force =     1.18902403    1.81427414   -0.50399055
     atom  320 type  1   force =     1.18902196    1.81426950   -0.50398905
     atom  321 type  2   force =     0.00072455    0.12229169   -0.01061048
     atom  322 type  2   force =     0.00072343    0.12229559   -0.01060910
     atom  323 type  2   force =     0.00077770    0.12225643   -0.01057753
     atom  324 type  2   force =     0.00072532    0.12229366   -0.01060909
     atom  325 type  2   force =     0.00072799    0.12228952   -0.01060866
     atom  326 type  2   force =     0.00072282    0.12229923   -0.01060899
     atom  327 type  2   force =     0.00072220    0.12229251   -0.01060902
     atom  328 type  2   force =     0.00072297    0.12229449   -0.01060877
     atom  329 type  3   force =    -0.06010579    0.04392397   -0.00989234
     atom  330 type  3   force =    -0.06010588    0.04392406   -0.00989228
     atom  331 type  3   force =    -0.06010460    0.04392415   -0.00988982
     atom  332 type  3   force =    -0.06010582    0.04392400   -0.00989231
     atom  333 type  3   force =    -0.06010576    0.04392394   -0.00989229
     atom  334 type  3   force =    -0.06010585    0.04392425   -0.00989217
     atom  335 type  3   force =    -0.06010589    0.04392400   -0.00989226
     atom  336 type  3   force =    -0.06010590    0.04392404   -0.00989228
     atom  337 type  1   force =    -1.73657644   -0.67099628   -0.15450522
     atom  338 type  1   force =    -1.73657660   -0.67099171   -0.15449902
     atom  339 type  1   force =    -1.73661754   -0.67102446   -0.15448010
     atom  340 type  1   force =    -1.73657491   -0.67099327   -0.15449997
     atom  341 type  1   force =    -1.73656554   -0.67099226   -0.15449967
     atom  342 type  1   force =    -1.73657116   -0.67098524   -0.15449815
     atom  343 type  1   force =    -1.73657626   -0.67099343   -0.15449922
     atom  344 type  1   force =    -1.73657343   -0.67099092   -0.15449898
     atom  345 type  2   force =     0.04108428    0.02522341    0.00104652
     atom  346 type  2   force =     0.04108511    0.02521945    0.00104508
     atom  347 type  2   force =     0.04109291    0.02521160    0.00104369
     atom  348 type  2   force =     0.04108810    0.02521682    0.00104412
     atom  349 type  2   force =     0.04106348    0.02523305    0.00104174
     atom  350 type  2   force =     0.04108570    0.02521488    0.00104305
     atom  351 type  2   force =     0.04109148    0.02520887    0.00104506
     atom  352 type  2   force =     0.04108676    0.02521437    0.00104414
     atom  353 type  3   force =     0.05410629   -0.05071365    0.00605712
     atom  354 type  3   force =     0.05410618   -0.05071351    0.00605705
     atom  355 type  3   force =     0.05410656   -0.05071383    0.00605709
     atom  356 type  3   force =     0.05410630   -0.05071357    0.00605705
     atom  357 type  3   force =     0.05410651   -0.05071351    0.00605680
     atom  358 type  3   force =     0.05410613   -0.05071345    0.00605699
     atom  359 type  3   force =     0.05410634   -0.05071365    0.00605705
     atom  360 type  3   force =     0.05410629   -0.05071357    0.00605704
     atom  361 type  1   force =     0.94527183    0.42450733    0.55499488
     atom  362 type  1   force =     0.94528218    0.42450903    0.55500278
     atom  363 type  1   force =     0.94527556    0.42448569    0.55501569
     atom  364 type  1   force =     0.94527769    0.42450432    0.55499248
     atom  365 type  1   force =     0.94528446    0.42450968    0.55500324
     atom  366 type  1   force =     0.94532244    0.42452327    0.55502707
     atom  367 type  1   force =     0.94527743    0.42450651    0.55499989
     atom  368 type  1   force =     0.94527859    0.42450876    0.55499981
     atom  369 type  1   force =     0.92016359   -1.90170005    0.83652345
     atom  370 type  1   force =     0.92018015   -1.90169267    0.83650668
     atom  371 type  1   force =     0.92018150   -1.90169218    0.83650852
     atom  372 type  1   force =     0.92018506   -1.90169489    0.83651202
     atom  373 type  1   force =     0.92018300   -1.90169477    0.83651080
     atom  374 type  1   force =     0.92018208   -1.90169169    0.83650987
     atom  375 type  1   force =     0.92018695   -1.90169647    0.83651271
     atom  376 type  1   force =     0.92018941   -1.90168533    0.83651161
     atom  377 type  2   force =     0.04486420    0.20918239   -0.00801472
     atom  378 type  2   force =     0.04486686    0.20917403   -0.00802373
     atom  379 type  2   force =     0.04486364    0.20917726   -0.00802004
     atom  380 type  2   force =     0.04486567    0.20917427   -0.00802019
     atom  381 type  2   force =     0.04486283    0.20917419   -0.00802032
     atom  382 type  2   force =     0.04485746    0.20917824   -0.00802018
     atom  383 type  2   force =     0.04486360    0.20917538   -0.00801973
     atom  384 type  2   force =     0.04486965    0.20917324   -0.00801769
     atom  385 type  2   force =     0.00954356    0.18057474   -0.01138092
     atom  386 type  2   force =     0.00954044    0.18057081   -0.01138689
     atom  387 type  2   force =     0.00954141    0.18057757   -0.01138440
     atom  388 type  2   force =     0.00954373    0.18057447   -0.01138290
     atom  389 type  2   force =     0.00954247    0.18057404   -0.01138387
     atom  390 type  2   force =     0.00954264    0.18057626   -0.01138429
     atom  391 type  2   force =     0.00954442    0.18057617   -0.01138254
     atom  392 type  2   force =     0.00954920    0.18057388   -0.01137987
     atom  393 type  2   force =    -0.04943627    0.03833932    0.02159289
     atom  394 type  2   force =    -0.04941553    0.03834578    0.02158165
     atom  395 type  2   force =    -0.04943314    0.03833795    0.02159086
     atom  396 type  2   force =    -0.04943055    0.03833486    0.02159092
     atom  397 type  2   force =    -0.04943417    0.03833532    0.02159049
     atom  398 type  2   force =    -0.04943840    0.03834301    0.02159030
     atom  399 type  2   force =    -0.04943152    0.03833610    0.02159077
     atom  400 type  2   force =    -0.04942610    0.03833370    0.02159172
     atom  401 type  3   force =    -0.07095377   -0.02448909    0.00853857
     atom  402 type  3   force =    -0.07095332   -0.02448903    0.00853736
     atom  403 type  3   force =    -0.07095369   -0.02448912    0.00853849
     atom  404 type  3   force =    -0.07095363   -0.02448916    0.00853850
     atom  405 type  3   force =    -0.07095370   -0.02448910    0.00853846
     atom  406 type  3   force =    -0.07095380   -0.02448912    0.00853846
     atom  407 type  3   force =    -0.07095368   -0.02448913    0.00853851
     atom  408 type  3   force =    -0.07095356   -0.02448916    0.00853852
     atom  409 type  2   force =    -0.10406904    0.19565169    0.02183229
     atom  410 type  2   force =    -0.10406913    0.19565263    0.02183256
     atom  411 type  2   force =    -0.10406673    0.19564820    0.02183143
     atom  412 type  2   force =    -0.10406798    0.19565243    0.02183187
     atom  413 type  2   force =    -0.10408092    0.19565044    0.02183011
     atom  414 type  2   force =    -0.10407023    0.19564507    0.02183084
     atom  415 type  2   force =    -0.10406862    0.19563489    0.02183097
     atom  416 type  2   force =    -0.10407059    0.19564787    0.02183163
     atom  417 type  3   force =     0.02094775    0.07447321    0.00102133
     atom  418 type  3   force =     0.02094777    0.07447325    0.00102133
     atom  419 type  3   force =     0.02094784    0.07447314    0.00102129
     atom  420 type  3   force =     0.02094778    0.07447325    0.00102135
     atom  421 type  3   force =     0.02094701    0.07447336    0.00102133
     atom  422 type  3   force =     0.02094774    0.07447306    0.00102129
     atom  423 type  3   force =     0.02094769    0.07447286    0.00102130
     atom  424 type  3   force =     0.02094773    0.07447312    0.00102133
     atom  425 type  1   force =    -0.90170536    0.46054811   -0.60835115
     atom  426 type  1   force =    -0.90173246    0.46059832   -0.60855941
     atom  427 type  1   force =    -0.90171335    0.46059568   -0.60854414
     atom  428 type  1   force =    -0.90170794    0.46059417   -0.60854128
     atom  429 type  1   force =    -0.90171267    0.46059466   -0.60854456
     atom  430 type  1   force =    -0.90171771    0.46059862   -0.60854808
     atom  431 type  1   force =    -0.90170583    0.46059452   -0.60854094
     atom  432 type  1   force =    -0.90169493    0.46059335   -0.60853175
     atom  433 type  1   force =    -1.18912447   -1.81439308   -0.50398374
     atom  434 type  1   force =    -1.18903061   -1.81427825   -0.50399422
     atom  435 type  1   force =    -1.18902743   -1.81427632   -0.50399240
     atom  436 type  1   force =    -1.18902320   -1.81427352   -0.50399058
     atom  437 type  1   force =    -1.18902524   -1.81427537   -0.50399144
     atom  438 type  1   force =    -1.18902416   -1.81427152   -0.50399124
     atom  439 type  1   force =    -1.18901880   -1.81426906   -0.50398875
     atom  440 type  1   force =    -1.18901170   -1.81426413   -0.50398503
     atom  441 type  2   force =    -0.00072148   -0.12229036   -0.01060734
     atom  442 type  2   force =    -0.00071946   -0.12229249   -0.01061025
     atom  443 type  2   force =    -0.00072302   -0.12229008   -0.01060913
     atom  444 type  2   force =    -0.00072082   -0.12229409   -0.01060960
     atom  445 type  2   force =    -0.00072370   -0.12229300   -0.01060894
     atom  446 type  2   force =    -0.00072660   -0.12229359   -0.01060643
     atom  447 type  2   force =    -0.00072319   -0.12229492   -0.01060873
     atom  448 type  2   force =    -0.00071005   -0.12230519   -0.01060618
     atom  449 type  3   force =     0.06010586   -0.04392397   -0.00989229
     atom  450 type  3   force =     0.06010596   -0.04392403   -0.00989233
     atom  451 type  3   force =     0.06010597   -0.04392390   -0.00989226
     atom  452 type  3   force =     0.06010592   -0.04392402   -0.00989231
     atom  453 type  3   force =     0.06010589   -0.04392406   -0.00989226
     atom  454 type  3   force =     0.06010631   -0.04392421   -0.00989186
     atom  455 type  3   force =     0.06010585   -0.04392403   -0.00989227
     atom  456 type  3   force =     0.06010576   -0.04392404   -0.00989223
     atom  457 type  1   force =     1.73658135    0.67099870   -0.15449916
     atom  458 type  1   force =     1.73658482    0.67099515   -0.15450048
     atom  459 type  1   force =     1.73658419    0.67099963   -0.15450008
     atom  460 type  1   force =     1.73658011    0.67099693   -0.15449938
     atom  461 type  1   force =     1.73657582    0.67099241   -0.15449827
     atom  462 type  1   force =     1.73657827    0.67098034   -0.15449468
     atom  463 type  1   force =     1.73657592    0.67099298   -0.15449903
     atom  464 type  1   force =     1.73655655    0.67099088   -0.15448708
     atom  465 type  2   force =    -0.04108492   -0.02521795    0.00104897
     atom  466 type  2   force =    -0.04108906   -0.02521140    0.00104394
     atom  467 type  2   force =    -0.04107997   -0.02522022    0.00104347
     atom  468 type  2   force =    -0.04108525   -0.02521299    0.00104404
     atom  469 type  2   force =    -0.04107829   -0.02521498    0.00103797
     atom  470 type  2   force =    -0.04109210   -0.02520777    0.00104301
     atom  471 type  2   force =    -0.04108525   -0.02521604    0.00104378
     atom  472 type  2   force =    -0.04108599   -0.02521413    0.00104395
     atom  473 type  3   force =    -0.05410643    0.05071375    0.00605724
     atom  474 type  3   force =    -0.05410635    0.05071369    0.00605708
     atom  475 type  3   force =    -0.05410609    0.05071350    0.00605705
     atom  476 type  3   force =    -0.05410626    0.05071365    0.00605707
     atom  477 type  3   force =    -0.05410659    0.05071447    0.00605637
     atom  478 type  3   force =    -0.05410632    0.05071358    0.00605699
     atom  479 type  3   force =    -0.05410612    0.05071343    0.00605704
     atom  480 type  3   force =    -0.05410625    0.05071359    0.00605704
     atom  481 type  4   force =    -0.00000866    0.00005219   -0.00003253
     atom  482 type  4   force =     0.00000186   -0.00000504    0.00000154
     atom  483 type  4   force =    -0.00000453    0.00001476    0.00003122
     atom  484 type  4   force =     0.00001160   -0.00000510   -0.00001654
     atom  485 type  4   force =     0.00000714    0.00000202    0.00000508
     atom  486 type  4   force =     0.00007322    0.00025275    0.00010762
     atom  487 type  4   force =    -0.00000099   -0.00000277   -0.00000058
     atom  488 type  4   force =    -0.00000232   -0.00000496    0.00000496
     atom  489 type  4   force =     0.00000330    0.00000063   -0.00000630
     atom  490 type  4   force =    -0.00000184    0.00002736   -0.00001003
     atom  491 type  4   force =     0.00002142    0.00001676   -0.00000693
     atom  492 type  4   force =     0.00002968    0.00000465    0.00002027
     atom  493 type  4   force =    -0.00023685   -0.00020060    0.00001957
     atom  494 type  4   force =    -0.00009283    0.00000751    0.00004500
     atom  495 type  4   force =    -0.00000432   -0.00000910    0.00000383
     atom  496 type  4   force =     0.00000663   -0.00001101    0.00000776
     The ionic contribution  to forces
     atom    1 type  1   force =    -0.12026381   -1.15077858   -2.54600738
     atom    2 type  1   force =    -0.12048205   -1.15081476   -2.54554770
     atom    3 type  1   force =    -0.12020432   -1.15041733   -2.54596846
     atom    4 type  1   force =    -0.12064921   -1.15040763   -2.54608232
     atom    5 type  1   force =    -0.12045079   -1.15050763   -2.54590043
     atom    6 type  1   force =    -0.12267145   -1.15144504   -2.54824858
     atom    7 type  1   force =    -0.12045056   -1.15073467   -2.54591016
     atom    8 type  1   force =    -0.12025947   -1.15078768   -2.54582837
     atom    9 type  1   force =    14.27343710    1.63954449    2.01297134
     atom   10 type  1   force =    14.27350920    1.63963791    2.01256684
     atom   11 type  1   force =    14.27296529    1.64016285    2.01231334
     atom   12 type  1   force =    14.27356832    1.63998319    2.01262830
     atom   13 type  1   force =    14.27211520    1.63974372    2.01159478
     atom   14 type  1   force =    14.27341785    1.63985174    2.01260471
     atom   15 type  1   force =    14.27350901    1.63953086    2.01278236
     atom   16 type  1   force =    14.27338782    1.63960508    2.01261094
     atom   17 type  2   force =    -2.68756202   -1.12184997   -0.87788733
     atom   18 type  2   force =    -2.68730263   -1.12183734   -0.87824055
     atom   19 type  2   force =    -2.68753858   -1.12159953   -0.87823618
     atom   20 type  2   force =    -2.68730670   -1.12160130   -0.87825790
     atom   21 type  2   force =    -2.72004041   -1.16510544   -0.89611515
     atom   22 type  2   force =    -2.68744375   -1.12151065   -0.87809785
     atom   23 type  2   force =    -2.68721576   -1.12173262   -0.87810190
     atom   24 type  2   force =    -2.68739999   -1.12169184   -0.87813269
     atom   25 type  2   force =    -5.25585594   -0.26052776   -0.96553119
     atom   26 type  2   force =    -5.25565532   -0.26046771   -0.96589568
     atom   27 type  2   force =    -5.25592301   -0.26021895   -0.96594821
     atom   28 type  2   force =    -5.25564110   -0.26023663   -0.96590366
     atom   29 type  2   force =    -5.26381112   -0.26177107   -0.96989414
     atom   30 type  2   force =    -5.25576524   -0.26019039   -0.96579409
     atom   31 type  2   force =    -5.25559139   -0.26042725   -0.96574802
     atom   32 type  2   force =    -5.25574741   -0.26037676   -0.96581335
     atom   33 type  2   force =    -3.21754588   -5.19690793    2.55179818
     atom   34 type  2   force =    -3.27867355   -5.22853953    2.50216949
     atom   35 type  2   force =    -3.27843150   -5.22878157    2.50216949
     atom   36 type  2   force =    -3.27862423   -5.22873226    2.50213636
     atom   37 type  2   force =    -3.27879259   -5.22890061    2.50234754
     atom   38 type  2   force =    -3.27854685   -5.22888720    2.50203090
     atom   39 type  2   force =    -3.27877918   -5.22865488    2.50203090
     atom   40 type  2   force =    -3.27855054   -5.22865857    2.50199144
     atom   41 type  3   force =    -0.72459977   -2.15436828    1.25036823
     atom   42 type  3   force =    -0.74075126   -2.14436527    1.26072941
     atom   43 type  3   force =    -0.74068795   -2.14442399    1.26072701
     atom   44 type  3   force =    -0.74073799   -2.14441236    1.26071711
     atom   45 type  3   force =    -0.74078024   -2.14445207    1.26076959
     atom   46 type  3   force =    -0.74071814   -2.14445516    1.26068914
     atom   47 type  3   force =    -0.74077662   -2.14439560    1.26069221
     atom   48 type  3   force =    -0.74071902   -2.14439530    1.26068287
     atom   49 type  2   force =    -6.17301359   -1.54490838    0.62864975
     atom   50 type  2   force =    -6.17639577   -1.54827947    0.63347186
     atom   51 type  2   force =    -6.17613302   -1.54854382    0.63348502
     atom   52 type  2   force =    -6.17634489   -1.54848186    0.63337477
     atom   53 type  2   force =    -6.17648892   -1.54862698    0.63355504
     atom   54 type  2   force =    -6.17630680   -1.54868126    0.63326975
     atom   55 type  2   force =    -6.17656370   -1.54844198    0.63326873
     atom   56 type  2   force =    -6.17628953   -1.54842636    0.63326072
     atom   57 type  3   force =    -1.97442878    0.04643767    0.18290681
     atom   58 type  3   force =    -1.97454060    0.04606606    0.18335457
     atom   59 type  3   force =    -1.97448346    0.04599057    0.18337211
     atom   60 type  3   force =    -1.97453234    0.04601118    0.18332119
     atom   61 type  3   force =    -1.97456082    0.04597740    0.18336174
     atom   62 type  3   force =    -1.97453513    0.04596229    0.18330059
     atom   63 type  3   force =    -1.97461270    0.04601502    0.18328854
     atom   64 type  3   force =    -1.97452505    0.04602503    0.18330034
     atom   65 type  1   force =    -0.87372778    0.57366565    1.98683601
     atom   66 type  1   force =    -0.87358470    0.57378919    1.98644311
     atom   67 type  1   force =    -0.87394844    0.57410332    1.98625805
     atom   68 type  1   force =    -0.87356128    0.57405687    1.98641952
     atom   69 type  1   force =    -0.87863141    0.57598605    1.98503347
     atom   70 type  1   force =    -0.87362328    0.57418340    1.98653926
     atom   71 type  1   force =    -0.87347493    0.57382501    1.98665556
     atom   72 type  1   force =    -0.87361819    0.57390017    1.98650573
     atom   73 type  1   force =    14.19222319   -5.31496931    0.05351546
     atom   74 type  1   force =    14.19225178   -5.31483221    0.05315157
     atom   75 type  1   force =    14.19165097   -5.31439427    0.05276745
     atom   76 type  1   force =    14.19228653   -5.31455957    0.05315725
     atom   77 type  1   force =    14.19053767   -5.31414725    0.05233413
     atom   78 type  1   force =    14.19225193   -5.31453387    0.05318637
     atom   79 type  1   force =    14.19230743   -5.31489920    0.05340400
     atom   80 type  1   force =    14.19222564   -5.31480445    0.05317502
     atom   81 type  2   force =    -0.21560125    2.77167754   -3.53130992
     atom   82 type  2   force =    -0.21528873    2.77159103   -3.53171890
     atom   83 type  2   force =    -0.21553042    2.77185759   -3.53164767
     atom   84 type  2   force =    -0.21530971    2.77187048   -3.53166789
     atom   85 type  2   force =    -0.21386199    2.76224128   -3.53498720
     atom   86 type  2   force =    -0.21548474    2.77194556   -3.53149230
     atom   87 type  2   force =    -0.21522665    2.77177587   -3.53154862
     atom   88 type  2   force =    -0.21542804    2.77179470   -3.53157242
     atom   89 type  3   force =     0.26887274    1.65177031   -1.78770641
     atom   90 type  3   force =     0.26877466    1.65180313   -1.78757315
     atom   91 type  3   force =     0.26885877    1.65184221   -1.78766860
     atom   92 type  3   force =     0.26880509    1.65183750   -1.78767314
     atom   93 type  3   force =     0.26880556    1.65184663   -1.78763603
     atom   94 type  3   force =     0.26874797    1.65090860   -1.78792949
     atom   95 type  3   force =     0.26881598    1.65181885   -1.78765980
     atom   96 type  3   force =     0.26886367    1.65182037   -1.78765729
     atom   97 type  1   force =    -5.25688195    6.86237225   -1.77966024
     atom   98 type  1   force =    -5.25719227    6.86257631   -1.77921843
     atom   99 type  1   force =    -5.25687984    6.86276651   -1.77958742
     atom  100 type  1   force =    -5.25717207    6.86273756   -1.77955382
     atom  101 type  1   force =    -5.25707837    6.86291737   -1.77929679
     atom  102 type  1   force =    -5.25227344    6.85995817   -1.78270307
     atom  103 type  1   force =    -5.25698824    6.86271784   -1.77946631
     atom  104 type  1   force =    -5.25669693    6.86268390   -1.77937710
     atom  105 type  2   force =     5.12370450    4.86061369    1.83915274
     atom  106 type  2   force =     5.12448390    4.86165311    1.83979185
     atom  107 type  2   force =     5.12460421    4.86155489    1.83977559
     atom  108 type  2   force =     5.12444753    4.86151333    1.83973030
     atom  109 type  2   force =     5.12446681    4.86155323    1.84020463
     atom  110 type  2   force =     5.12472483    4.86153675    1.83961972
     atom  111 type  2   force =     5.12449356    4.86174452    1.83964955
     atom  112 type  2   force =     5.12472911    4.86176839    1.83985878
     atom  113 type  3   force =    -1.68163478   -1.91350852    0.71473951
     atom  114 type  3   force =    -1.67846864   -1.91355972    0.71622755
     atom  115 type  3   force =    -1.67842176   -1.91362207    0.71623845
     atom  116 type  3   force =    -1.67846259   -1.91360812    0.71622170
     atom  117 type  3   force =    -1.67849364   -1.91364896    0.71628586
     atom  118 type  3   force =    -1.67844347   -1.91363522    0.71620065
     atom  119 type  3   force =    -1.67850935   -1.91357503    0.71618861
     atom  120 type  3   force =    -1.67844070   -1.91357876    0.71619518
     atom  121 type  1   force =     0.12091868    1.15037152   -2.54628153
     atom  122 type  1   force =     0.12023784    1.15068421   -2.54554188
     atom  123 type  1   force =     0.12071330    1.15075852   -2.54571750
     atom  124 type  1   force =     0.12030507    1.15069838   -2.54598076
     atom  125 type  1   force =     0.12017992    1.15061341   -2.54580626
     atom  126 type  1   force =     0.12015866    1.14988646   -2.54645956
     atom  127 type  1   force =     0.12013956    1.15050294   -2.54595723
     atom  128 type  1   force =     0.12041980    1.15057936   -2.54595779
     atom  129 type  1   force =   -14.27257049   -1.64059214    2.01203280
     atom  130 type  1   force =   -14.27363223   -1.63967091    2.01291871
     atom  131 type  1   force =   -14.27318213   -1.63968551    2.01268876
     atom  132 type  1   force =   -14.27353103   -1.63971975    2.01259264
     atom  133 type  1   force =   -14.27370200   -1.63976817    2.01282781
     atom  134 type  1   force =   -14.27339016   -1.64046857    2.01212146
     atom  135 type  1   force =   -14.27363739   -1.63979848    2.01258752
     atom  136 type  1   force =   -14.27336957   -1.63975431    2.01256869
     atom  137 type  2   force =     2.68746829    1.12183122   -0.87837548
     atom  138 type  2   force =     2.68744011    1.12182968   -0.87778790
     atom  139 type  2   force =     2.68748451    1.12168483   -0.87776854
     atom  140 type  2   force =     2.68743004    1.12169214   -0.87825150
     atom  141 type  2   force =     2.68731683    1.12158991   -0.87811750
     atom  142 type  2   force =     2.68715231    1.12137213   -0.87827116
     atom  143 type  2   force =     2.68701270    1.12140393   -0.87833394
     atom  144 type  2   force =     2.68733270    1.12164183   -0.87816734
     atom  145 type  2   force =     5.25608480    0.26048183   -0.96623770
     atom  146 type  2   force =     5.25565353    0.26048456   -0.96546709
     atom  147 type  2   force =     5.25591668    0.26034720   -0.96556517
     atom  148 type  2   force =     5.25571039    0.26035358   -0.96587432
     atom  149 type  2   force =     5.25560656    0.26025510   -0.96574528
     atom  150 type  2   force =     5.25553946    0.25990379   -0.96600581
     atom  151 type  2   force =     5.25545058    0.26020335   -0.96592450
     atom  152 type  2   force =     5.25571665    0.26031199   -0.96586812
     atom  153 type  2   force =     3.27858545    5.22860886    2.50215696
     atom  154 type  2   force =     3.27847162    5.22853402    2.50205341
     atom  155 type  2   force =     3.27789165    5.22827135    2.50175014
     atom  156 type  2   force =     3.27855043    5.22872368    2.50209826
     atom  157 type  2   force =     3.27855676    5.22893663    2.50189425
     atom  158 type  2   force =     3.27871057    5.22889484    2.50229054
     atom  159 type  2   force =     3.27862507    5.22861830    2.50255549
     atom  160 type  2   force =     3.27867843    5.22867443    2.50202315
     atom  161 type  3   force =     0.74072684    2.14437403    1.26073381
     atom  162 type  3   force =     0.74071205    2.14436834    1.26069995
     atom  163 type  3   force =     0.74051155    2.14434561    1.26061709
     atom  164 type  3   force =     0.74072519    2.14441764    1.26070301
     atom  165 type  3   force =     0.74069374    2.14449921    1.26062632
     atom  166 type  3   force =     0.74074740    2.14445223    1.26073636
     atom  167 type  3   force =     0.74074397    2.14436529    1.26080998
     atom  168 type  3   force =     0.74074080    2.14439399    1.26069886
     atom  169 type  2   force =     6.17602600    1.54772897    0.63297761
     atom  170 type  2   force =     6.17620614    1.54844757    0.63343501
     atom  171 type  2   force =     6.17635901    1.54842739    0.63333735
     atom  172 type  2   force =     6.17615480    1.54836097    0.63331472
     atom  173 type  2   force =     6.17620812    1.54851085    0.63375487
     atom  174 type  2   force =     6.17665641    1.54836590    0.63308097
     atom  175 type  2   force =     6.17628514    1.54852143    0.63330016
     atom  176 type  2   force =     6.17653756    1.54855549    0.63351538
     atom  177 type  3   force =     1.97451200   -0.04622209    0.18321546
     atom  178 type  3   force =     1.97449168   -0.04601907    0.18335229
     atom  179 type  3   force =     1.97454655   -0.04601967    0.18331224
     atom  180 type  3   force =     1.97449508   -0.04603021    0.18331295
     atom  181 type  3   force =     1.97448902   -0.04600312    0.18340145
     atom  182 type  3   force =     1.97465230   -0.04609802    0.18321954
     atom  183 type  3   force =     1.97451597   -0.04600912    0.18331261
     atom  184 type  3   force =     1.97457921   -0.04600207    0.18333856
     atom  185 type  1   force =     0.87439413   -0.57312098    1.98535709
     atom  186 type  1   force =     0.87347476   -0.57366243    1.98686719
     atom  187 type  1   force =     0.87380942   -0.57400906    1.98670873
     atom  188 type  1   force =     0.87359330   -0.57397501    1.98648688
     atom  189 type  1   force =     0.87345074   -0.57411811    1.98666169
     atom  190 type  1   force =     0.87351420   -0.57442867    1.98637229
     atom  191 type  1   force =     0.87330731   -0.57401904    1.98636005
     atom  192 type  1   force =     0.87361706   -0.57394320    1.98640978
     atom  193 type  1   force =   -14.19044803    5.31406468    0.05150543
     atom  194 type  1   force =   -14.19242914    5.31489428    0.05347725
     atom  195 type  1   force =   -14.19201765    5.31468211    0.05329905
     atom  196 type  1   force =   -14.19229324    5.31469393    0.05318962
     atom  197 type  1   force =   -14.19245939    5.31458720    0.05340737
     atom  198 type  1   force =   -14.19221125    5.31416450    0.05297241
     atom  199 type  1   force =   -14.19246007    5.31468226    0.05311601
     atom  200 type  1   force =   -14.19217959    5.31472968    0.05309670
     atom  201 type  2   force =     0.21544218   -2.77176047   -3.53169542
     atom  202 type  2   force =     0.21552010   -2.77176051   -3.53112961
     atom  203 type  2   force =     0.21545124   -2.77169609   -3.53125633
     atom  204 type  2   force =     0.21550271   -2.77170150   -3.53177841
     atom  205 type  2   force =     0.21535390   -2.77185052   -3.53159052
     atom  206 type  2   force =     0.21502841   -2.77210747   -3.53172691
     atom  207 type  2   force =     0.21516481   -2.77208908   -3.53173053
     atom  208 type  2   force =     0.21532998   -2.77187261   -3.53155666
     atom  209 type  3   force =    -0.26881316   -1.65182551   -1.78768387
     atom  210 type  3   force =    -0.26881794   -1.65183965   -1.78752383
     atom  211 type  3   force =    -0.26880918   -1.65179023   -1.78760809
     atom  212 type  3   force =    -0.26882384   -1.65178330   -1.78770909
     atom  213 type  3   force =    -0.26884231   -1.65182763   -1.78766106
     atom  214 type  3   force =    -0.26898510   -1.65193812   -1.78771506
     atom  215 type  3   force =    -0.26886744   -1.65187155   -1.78768031
     atom  216 type  3   force =    -0.26883945   -1.65184508   -1.78765030
     atom  217 type  1   force =     5.25694874   -6.86268019   -1.77954841
     atom  218 type  1   force =     5.25723029   -6.86268457   -1.77908148
     atom  219 type  1   force =     5.25690332   -6.86256078   -1.77905652
     atom  220 type  1   force =     5.25736601   -6.86258319   -1.77991213
     atom  221 type  1   force =     5.25695124   -6.86275744   -1.77952112
     atom  222 type  1   force =     5.25659518   -6.86291757   -1.77959212
     atom  223 type  1   force =     5.25672106   -6.86321328   -1.77972228
     atom  224 type  1   force =     5.25682031   -6.86280655   -1.77938886
     atom  225 type  2   force =    -5.14704988   -4.83529668    1.81455338
     atom  226 type  2   force =    -5.12463560   -4.86145645    1.83982195
     atom  227 type  2   force =    -5.12440568   -4.86171383    1.83984291
     atom  228 type  2   force =    -5.12459401   -4.86165548    1.83978376
     atom  229 type  2   force =    -5.12474493   -4.86182167    1.83999506
     atom  230 type  2   force =    -5.12452889   -4.86180261    1.83968702
     atom  231 type  2   force =    -5.12477767   -4.86156983    1.83966842
     atom  232 type  2   force =    -5.12452410   -4.86157435    1.83965063
     atom  233 type  3   force =     1.67797719    1.91303249    0.71590209
     atom  234 type  3   force =     1.67843330    1.91361427    0.71622750
     atom  235 type  3   force =     1.67847332    1.91357848    0.71622442
     atom  236 type  3   force =     1.67843446    1.91357797    0.71621597
     atom  237 type  3   force =     1.67841478    1.91356208    0.71631671
     atom  238 type  3   force =     1.67848537    1.91356213    0.71618784
     atom  239 type  3   force =     1.67842381    1.91362230    0.71619246
     atom  240 type  3   force =     1.67848503    1.91362513    0.71621658
     atom  241 type  1   force =    -1.15044678    0.11998721    2.54601938
     atom  242 type  1   force =    -1.15076522    0.12022945    2.54616921
     atom  243 type  1   force =    -1.15040700    0.12059685    2.54558653
     atom  244 type  1   force =    -1.15077782    0.12045969    2.54596190
     atom  245 type  1   force =    -1.15094388    0.12059553    2.54610119
     atom  246 type  1   force =    -1.15000705    0.12089033    2.54491344
     atom  247 type  1   force =    -1.15071524    0.12027218    2.54610256
     atom  248 type  1   force =    -1.15049730    0.12024265    2.54600253
     atom  249 type  1   force =     1.63982943  -14.27373397   -2.01254715
     atom  250 type  1   force =     1.63955227  -14.27366879   -2.01237288
     atom  251 type  1   force =     1.63978485  -14.27337863   -2.01292521
     atom  252 type  1   force =     1.63956603  -14.27338209   -2.01258811
     atom  253 type  1   force =     1.63952120  -14.27317244   -2.01248960
     atom  254 type  1   force =     1.64132750  -14.27133462   -2.01296596
     atom  255 type  1   force =     1.63969564  -14.27351882   -2.01242970
     atom  256 type  1   force =     1.63991747  -14.27358092   -2.01252884
     atom  257 type  2   force =    -1.12138718    2.68671953    0.87855164
     atom  258 type  2   force =    -1.12171431    2.68731948    0.87828013
     atom  259 type  2   force =    -1.12140803    2.68758204    0.87789782
     atom  260 type  2   force =    -1.12171085    2.68742072    0.87821137
     atom  261 type  2   force =    -1.12225044    2.68746400    0.87843868
     atom  262 type  2   force =    -1.12151693    2.68744004    0.87794872
     atom  263 type  2   force =    -1.12173862    2.68728861    0.87828797
     atom  264 type  2   force =    -1.12161185    2.68729249    0.87818358
     atom  265 type  2   force =    -0.26019756    5.25528775    0.96601426
     atom  266 type  2   force =    -0.26041077    5.25560425    0.96597378
     atom  267 type  2   force =    -0.26024254    5.25587503    0.96551296
     atom  268 type  2   force =    -0.26040578    5.25576559    0.96585857
     atom  269 type  2   force =    -0.26079062    5.25598357    0.96604984
     atom  270 type  2   force =    -0.26002283    5.25607517    0.96551556
     atom  271 type  2   force =    -0.26037365    5.25563540    0.96597854
     atom  272 type  2   force =    -0.26024913    5.25563302    0.96587922
     atom  273 type  2   force =    -5.22861960    3.27758438   -2.50131152
     atom  274 type  2   force =    -5.22873916    3.27857170   -2.50201920
     atom  275 type  2   force =    -5.22857317    3.27870394   -2.50222816
     atom  276 type  2   force =    -5.22873724    3.27862697   -2.50205278
     atom  277 type  2   force =    -5.22955028    3.27852134   -2.50154627
     atom  278 type  2   force =    -5.22860716    3.27863976   -2.50222103
     atom  279 type  2   force =    -5.22875464    3.27855183   -2.50201819
     atom  280 type  2   force =    -5.22867535    3.27854786   -2.50207824
     atom  281 type  3   force =    -2.14445719    0.74051047   -1.26056071
     atom  282 type  3   force =    -2.14441319    0.74071701   -1.26069152
     atom  283 type  3   force =    -2.14439934    0.74074755   -1.26073007
     atom  284 type  3   force =    -2.14441576    0.74073361   -1.26070529
     atom  285 type  3   force =    -2.14467988    0.74072957   -1.26044633
     atom  286 type  3   force =    -2.14438245    0.74076017   -1.26073389
     atom  287 type  3   force =    -2.14440645    0.74072316   -1.26069276
     atom  288 type  3   force =    -2.14439764    0.74072335   -1.26069491
     atom  289 type  2   force =    -1.54727158    6.17561249   -0.63190754
     atom  290 type  2   force =    -1.54849841    6.17638540   -0.63328018
     atom  291 type  2   force =    -1.54802710    6.17631617   -0.63337071
     atom  292 type  2   force =    -1.54848681    6.17635924   -0.63323582
     atom  293 type  2   force =    -1.54887087    6.17614827   -0.63314070
     atom  294 type  2   force =    -1.54841907    6.17625022   -0.63340644
     atom  295 type  2   force =    -1.54861972    6.17628895   -0.63326649
     atom  296 type  2   force =    -1.54845724    6.17624800   -0.63342845
     atom  297 type  3   force =     0.04643747    1.97453394   -0.18291894
     atom  298 type  3   force =     0.04600404    1.97455550   -0.18330464
     atom  299 type  3   force =     0.04611085    1.97450343   -0.18330992
     atom  300 type  3   force =     0.04600945    1.97453402   -0.18328344
     atom  301 type  3   force =     0.04594018    1.97448276   -0.18327344
     atom  302 type  3   force =     0.04602549    1.97450609   -0.18332304
     atom  303 type  3   force =     0.04597037    1.97452939   -0.18330031
     atom  304 type  3   force =     0.04601536    1.97451202   -0.18335499
     atom  305 type  1   force =     0.57398315    0.87319815   -1.98628185
     atom  306 type  1   force =     0.57384558    0.87338015   -1.98634770
     atom  307 type  1   force =     0.57384464    0.87367690   -1.98681603
     atom  308 type  1   force =     0.57387388    0.87365364   -1.98649150
     atom  309 type  1   force =     0.57332857    0.87430697   -1.98625160
     atom  310 type  1   force =     0.57425823    0.87446637   -1.98642427
     atom  311 type  1   force =     0.57397126    0.87352223   -1.98629183
     atom  312 type  1   force =     0.57405382    0.87352323   -1.98642262
     atom  313 type  1   force =    -5.31467740  -14.19252747   -0.05307027
     atom  314 type  1   force =    -5.31489691  -14.19253187   -0.05298810
     atom  315 type  1   force =    -5.31479350  -14.19223139   -0.05346124
     atom  316 type  1   force =    -5.31483034  -14.19219450   -0.05318030
     atom  317 type  1   force =    -5.31496187  -14.19176928   -0.05308762
     atom  318 type  1   force =    -5.31410752  -14.19044773   -0.05236833
     atom  319 type  1   force =    -5.31470377  -14.19229924   -0.05298294
     atom  320 type  1   force =    -5.31456811  -14.19232861   -0.05311450
     atom  321 type  2   force =     2.77229760    0.21492287    3.53191652
     atom  322 type  2   force =     2.77177399    0.21537093    3.53171577
     atom  323 type  2   force =     2.77264322    0.21570798    3.53139979
     atom  324 type  2   force =     2.77176953    0.21545813    3.53166606
     atom  325 type  2   force =     2.77142886    0.21539610    3.53173813
     atom  326 type  2   force =     2.77189624    0.21536246    3.53141272
     atom  327 type  2   force =     2.77166782    0.21527917    3.53173677
     atom  328 type  2   force =     2.77185983    0.21528690    3.53158359
     atom  329 type  3   force =     1.65191201   -0.26889977    1.78770078
     atom  330 type  3   force =     1.65181566   -0.26883908    1.78769505
     atom  331 type  3   force =     1.65219103   -0.26865820    1.78762408
     atom  332 type  3   force =     1.65181013   -0.26880709    1.78767787
     atom  333 type  3   force =     1.65175538   -0.26882155    1.78768213
     atom  334 type  3   force =     1.65184342   -0.26883419    1.78760773
     atom  335 type  3   force =     1.65178376   -0.26886726    1.78770434
     atom  336 type  3   force =     1.65183957   -0.26886217    1.78766120
     atom  337 type  1   force =     6.86375477    5.25644245    1.78009879
     atom  338 type  1   force =     6.86268247    5.25698342    1.77961269
     atom  339 type  1   force =     6.86384937    5.25694079    1.77957040
     atom  340 type  1   force =     6.86268223    5.25701830    1.77961537
     atom  341 type  1   force =     6.86230706    5.25685357    1.77966726
     atom  342 type  1   force =     6.86278509    5.25686627    1.77936769
     atom  343 type  1   force =     6.86247628    5.25684380    1.77965191
     atom  344 type  1   force =     6.86276246    5.25682732    1.77941482
     atom  345 type  2   force =     4.86070092   -5.12451494   -1.83908740
     atom  346 type  2   force =     4.86173662   -5.12446219   -1.83989218
     atom  347 type  2   force =     4.86158689   -5.12460653   -1.83966779
     atom  348 type  2   force =     4.86165581   -5.12460559   -1.83971270
     atom  349 type  2   force =     4.86161735   -5.12545737   -1.83916450
     atom  350 type  2   force =     4.86157780   -5.12461028   -1.83966545
     atom  351 type  2   force =     4.86169805   -5.12446065   -1.83988354
     atom  352 type  2   force =     4.86157685   -5.12453565   -1.83972211
     atom  353 type  3   force =    -1.91372597    1.67816171   -0.71555620
     atom  354 type  3   force =    -1.91359791    1.67847387   -0.71620968
     atom  355 type  3   force =    -1.91356620    1.67845810   -0.71621775
     atom  356 type  3   force =    -1.91359729    1.67845656   -0.71619365
     atom  357 type  3   force =    -1.91374155    1.67833787   -0.71609596
     atom  358 type  3   force =    -1.91358972    1.67844060   -0.71621873
     atom  359 type  3   force =    -1.91361341    1.67845564   -0.71621047
     atom  360 type  3   force =    -1.91359993    1.67844702   -0.71622174
     atom  361 type  1   force =     1.15082409   -0.12048343    2.54596884
     atom  362 type  1   force =     1.15059772   -0.12040978    2.54617733
     atom  363 type  1   force =     1.15160905   -0.11906949    2.54678051
     atom  364 type  1   force =     1.15045150   -0.12006570    2.54596305
     atom  365 type  1   force =     1.15046709   -0.12031007    2.54597974
     atom  366 type  1   force =     1.15051323   -0.12042614    2.54552741
     atom  367 type  1   force =     1.15039387   -0.12062263    2.54610982
     atom  368 type  1   force =     1.15067264   -0.12056898    2.54601379
     atom  369 type  1   force =    -1.63866483   14.27444591   -2.00996056
     atom  370 type  1   force =    -1.63981326   14.27368359   -2.01259208
     atom  371 type  1   force =    -1.63950424   14.27338590   -2.01259519
     atom  372 type  1   force =    -1.63975017   14.27345358   -2.01239935
     atom  373 type  1   force =    -1.64010843   14.27309977   -2.01238795
     atom  374 type  1   force =    -1.63972030   14.27330892   -2.01256876
     atom  375 type  1   force =    -1.63989665   14.27347878   -2.01256407
     atom  376 type  1   force =    -1.63982640   14.27337044   -2.01282487
     atom  377 type  2   force =     1.12203091   -2.68676944    0.87785360
     atom  378 type  2   force =     1.12121143   -2.68701443    0.87840373
     atom  379 type  2   force =     1.12173546   -2.68742890    0.87822003
     atom  380 type  2   force =     1.12162211   -2.68742322    0.87830054
     atom  381 type  2   force =     1.12155538   -2.68749072    0.87830875
     atom  382 type  2   force =     1.12173166   -2.68775965    0.87831508
     atom  383 type  2   force =     1.12156427   -2.68731298    0.87817438
     atom  384 type  2   force =     1.12167985   -2.68724842    0.87790611
     atom  385 type  2   force =     0.26092715   -5.25418589    0.96620569
     atom  386 type  2   force =     0.26009111   -5.25534799    0.96594194
     atom  387 type  2   force =     0.26043057   -5.25577777    0.96589421
     atom  388 type  2   force =     0.26031067   -5.25575297    0.96598585
     atom  389 type  2   force =     0.26017440   -5.25591281    0.96599778
     atom  390 type  2   force =     0.26035361   -5.25595362    0.96592138
     atom  391 type  2   force =     0.26021228   -5.25566261    0.96583700
     atom  392 type  2   force =     0.26027649   -5.25567491    0.96560690
     atom  393 type  2   force =     5.22887655   -3.27822083   -2.50226197
     atom  394 type  2   force =     5.22787281   -3.27810861   -2.50147648
     atom  395 type  2   force =     5.22875477   -3.27863664   -2.50203281
     atom  396 type  2   force =     5.22869706   -3.27864213   -2.50199290
     atom  397 type  2   force =     5.22863559   -3.27870596   -2.50199239
     atom  398 type  2   force =     5.22867550   -3.27914310   -2.50182992
     atom  399 type  2   force =     5.22863333   -3.27856300   -2.50210346
     atom  400 type  2   force =     5.22868983   -3.27850393   -2.50226015
     atom  401 type  3   force =     2.14441966   -0.74061169   -1.26071618
     atom  402 type  3   force =     2.14417469   -0.74048379   -1.26045598
     atom  403 type  3   force =     2.14441610   -0.74073871   -1.26068576
     atom  404 type  3   force =     2.14441511   -0.74074103   -1.26068482
     atom  405 type  3   force =     2.14439259   -0.74076898   -1.26068554
     atom  406 type  3   force =     2.14437606   -0.74083921   -1.26065092
     atom  407 type  3   force =     2.14438853   -0.74072545   -1.26071929
     atom  408 type  3   force =     2.14438830   -0.74071655   -1.26073397
     atom  409 type  2   force =     1.54788743   -6.17634796   -0.63303768
     atom  410 type  2   force =     1.54855743   -6.17633348   -0.63352219
     atom  411 type  2   force =     1.54835543   -6.17638043   -0.63325406
     atom  412 type  2   force =     1.54849188   -6.17638191   -0.63334984
     atom  413 type  2   force =     1.54890689   -6.17726509   -0.63269742
     atom  414 type  2   force =     1.54840762   -6.17632747   -0.63324369
     atom  415 type  2   force =     1.54876882   -6.17617063   -0.63349170
     atom  416 type  2   force =     1.54841441   -6.17627539   -0.63329122
     atom  417 type  3   force =    -0.04613720   -1.97456424   -0.18325229
     atom  418 type  3   force =    -0.04600231   -1.97454559   -0.18334372
     atom  419 type  3   force =    -0.04605120   -1.97454118   -0.18329798
     atom  420 type  3   force =    -0.04601264   -1.97454552   -0.18332801
     atom  421 type  3   force =    -0.04579348   -1.97480433   -0.18301937
     atom  422 type  3   force =    -0.04602740   -1.97452067   -0.18329652
     atom  423 type  3   force =    -0.04591964   -1.97451352   -0.18333164
     atom  424 type  3   force =    -0.04602487   -1.97452027   -0.18329695
     atom  425 type  1   force =    -0.57433163   -0.87018879   -1.98419848
     atom  426 type  1   force =    -0.57411038   -0.87314027   -1.98636928
     atom  427 type  1   force =    -0.57383922   -0.87366779   -1.98638980
     atom  428 type  1   force =    -0.57395869   -0.87363833   -1.98634596
     atom  429 type  1   force =    -0.57418149   -0.87395074   -1.98622639
     atom  430 type  1   force =    -0.57396849   -0.87385985   -1.98641524
     atom  431 type  1   force =    -0.57411225   -0.87355045   -1.98653394
     atom  432 type  1   force =    -0.57401437   -0.87357584   -1.98663215
     atom  433 type  1   force =     5.31413138   14.19389834   -0.04823000
     atom  434 type  1   force =     5.31465335   14.19252859   -0.05315377
     atom  435 type  1   force =     5.31485808   14.19219444   -0.05312234
     atom  436 type  1   force =     5.31470896   14.19222866   -0.05302881
     atom  437 type  1   force =     5.31435031   14.19179313   -0.05285455
     atom  438 type  1   force =     5.31471183   14.19207871   -0.05313789
     atom  439 type  1   force =     5.31457131   14.19228448   -0.05319342
     atom  440 type  1   force =     5.31465047   14.19222743   -0.05330233
     atom  441 type  2   force =    -2.77157022   -0.21521765    3.53112248
     atom  442 type  2   force =    -2.77217328   -0.21521815    3.53175466
     atom  443 type  2   force =    -2.77174858   -0.21546823    3.53163123
     atom  444 type  2   force =    -2.77191457   -0.21546499    3.53173354
     atom  445 type  2   force =    -2.77191145   -0.21545409    3.53175705
     atom  446 type  2   force =    -2.77161342   -0.21577073    3.53172873
     atom  447 type  2   force =    -2.77191693   -0.21530461    3.53162797
     atom  448 type  2   force =    -2.77154392   -0.21511536    3.53127544
     atom  449 type  3   force =    -1.65180529    0.26880330    1.78767306
     atom  450 type  3   force =    -1.65185425    0.26880868    1.78769776
     atom  451 type  3   force =    -1.65176977    0.26887100    1.78750201
     atom  452 type  3   force =    -1.65188579    0.26886559    1.78768591
     atom  453 type  3   force =    -1.65185949    0.26885955    1.78767018
     atom  454 type  3   force =    -1.65173303    0.26892087    1.78757814
     atom  455 type  3   force =    -1.65185074    0.26881332    1.78770765
     atom  456 type  3   force =    -1.65178282    0.26876967    1.78767805
     atom  457 type  1   force =    -6.86267339   -5.25704127    1.77950082
     atom  458 type  1   force =    -6.86290349   -5.25705554    1.77964462
     atom  459 type  1   force =    -6.86259904   -5.25697498    1.77913423
     atom  460 type  1   force =    -6.86321824   -5.25687425    1.77971643
     atom  461 type  1   force =    -6.86281581   -5.25685413    1.77955369
     atom  462 type  1   force =    -6.86205080   -5.25658707    1.77928805
     atom  463 type  1   force =    -6.86281518   -5.25696890    1.77967236
     atom  464 type  1   force =    -6.86220652   -5.25761298    1.77979443
     atom  465 type  2   force =    -4.86132680    5.12327566   -1.83793301
     atom  466 type  2   force =    -4.86164703    5.12460787   -1.83969492
     atom  467 type  2   force =    -4.86141904    5.12462225   -1.83981170
     atom  468 type  2   force =    -4.86163980    5.12459405   -1.83966544
     atom  469 type  2   force =    -4.86225520    5.12428509   -1.83935266
     atom  470 type  2   force =    -4.86157310    5.12452626   -1.83980908
     atom  471 type  2   force =    -4.86171084    5.12454289   -1.83969287
     atom  472 type  2   force =    -4.86162057    5.12451702   -1.83977579
     atom  473 type  3   force =     1.91331477   -1.67852768   -0.71595367
     atom  474 type  3   force =     1.91361181   -1.67843747   -0.71623134
     atom  475 type  3   force =     1.91359424   -1.67845897   -0.71620265
     atom  476 type  3   force =     1.91360033   -1.67846050   -0.71620512
     atom  477 type  3   force =     1.91351812   -1.67869461   -0.71600441
     atom  478 type  3   force =     1.91359216   -1.67846101   -0.71620335
     atom  479 type  3   force =     1.91360491   -1.67843836   -0.71623241
     atom  480 type  3   force =     1.91358965   -1.67845047   -0.71620827
     atom  481 type  4   force =     0.00098380   -0.00094553   -0.00020619
     atom  482 type  4   force =    -0.00040892   -0.00031296    0.00128836
     atom  483 type  4   force =     0.00177090    0.00155068    0.00021938
     atom  484 type  4   force =    -0.00065953    0.00068077   -0.00013017
     atom  485 type  4   force =    -0.00073582    0.00035148    0.00037093
     atom  486 type  4   force =    -0.00111944   -0.00184648   -0.00472378
     atom  487 type  4   force =    -0.00064069   -0.00058162    0.00033756
     atom  488 type  4   force =     0.00035356   -0.00055223    0.00022975
     atom  489 type  4   force =    -0.00049088   -0.00126647    0.00103711
     atom  490 type  4   force =    -0.00019693   -0.00110782    0.00009099
     atom  491 type  4   force =    -0.00098721    0.00017356   -0.00076903
     atom  492 type  4   force =    -0.00008436    0.00019333   -0.00027931
     atom  493 type  4   force =    -0.00607079    0.01088627    0.00016947
     atom  494 type  4   force =    -0.00015758    0.00186081    0.00081214
     atom  495 type  4   force =     0.00044159   -0.00033963    0.00070150
     atom  496 type  4   force =     0.00008035   -0.00018903    0.00021119
     The local contribution  to forces
     atom    1 type  1   force =    -0.30112200    2.09142175    3.09825751
     atom    2 type  1   force =    -0.30090921    2.09146400    3.09779947
     atom    3 type  1   force =    -0.30118486    2.09105834    3.09821503
     atom    4 type  1   force =    -0.30075555    2.09106571    3.09833831
     atom    5 type  1   force =    -0.30094353    2.09114918    3.09814802
     atom    6 type  1   force =    -0.29898946    2.09192057    3.10081876
     atom    7 type  1   force =    -0.30094490    2.09138499    3.09816344
     atom    8 type  1   force =    -0.30113650    2.09143467    3.09807885
     atom    9 type  1   force =   -12.38533064   -0.72431068   -1.18153345
     atom   10 type  1   force =   -12.38540691   -0.72440034   -1.18112712
     atom   11 type  1   force =   -12.38491176   -0.72495351   -1.18089556
     atom   12 type  1   force =   -12.38546648   -0.72475081   -1.18119115
     atom   13 type  1   force =   -12.38425753   -0.72456913   -1.18010023
     atom   14 type  1   force =   -12.38531447   -0.72462536   -1.18116889
     atom   15 type  1   force =   -12.38540360   -0.72429836   -1.18134356
     atom   16 type  1   force =   -12.38528615   -0.72436790   -1.18116967
     atom   17 type  2   force =     2.48480425    1.16492334    0.86981113
     atom   18 type  2   force =     2.48454658    1.16491205    0.87016568
     atom   19 type  2   force =     2.48477468    1.16467763    0.87016134
     atom   20 type  2   force =     2.48454739    1.16467461    0.87018103
     atom   21 type  2   force =     2.51669293    1.20861059    0.88651146
     atom   22 type  2   force =     2.48469020    1.16458421    0.87002143
     atom   23 type  2   force =     2.48445966    1.16480861    0.87002493
     atom   24 type  2   force =     2.48464384    1.16476683    0.87005711
     atom   25 type  2   force =     5.07245532    0.27022305    0.95390255
     atom   26 type  2   force =     5.07225621    0.27016626    0.95426745
     atom   27 type  2   force =     5.07251284    0.26991857    0.95431885
     atom   28 type  2   force =     5.07223717    0.26993131    0.95427453
     atom   29 type  2   force =     5.08023000    0.27153810    0.95837478
     atom   30 type  2   force =     5.07236774    0.26988059    0.95416339
     atom   31 type  2   force =     5.07218919    0.27012228    0.95411891
     atom   32 type  2   force =     5.07234419    0.27007496    0.95418617
     atom   33 type  2   force =     3.17957066    5.14398236   -2.53103499
     atom   34 type  2   force =     3.24258821    5.17648286   -2.48082277
     atom   35 type  2   force =     3.24234283    5.17672894   -2.48082416
     atom   36 type  2   force =     3.24253775    5.17667691   -2.48078970
     atom   37 type  2   force =     3.24270397    5.17684176   -2.48100084
     atom   38 type  2   force =     3.24246064    5.17682665   -2.48068331
     atom   39 type  2   force =     3.24268634    5.17659804   -2.48068419
     atom   40 type  2   force =     3.24246092    5.17659879   -2.48064621
     atom   41 type  3   force =     0.75024266    2.07790112   -1.24083820
     atom   42 type  3   force =     0.76526405    2.07345558   -1.25224442
     atom   43 type  3   force =     0.76520051    2.07351445   -1.25224223
     atom   44 type  3   force =     0.76525042    2.07350350   -1.25223196
     atom   45 type  3   force =     0.76529231    2.07354228   -1.25228441
     atom   46 type  3   force =     0.76523059    2.07354542   -1.25220383
     atom   47 type  3   force =     0.76528894    2.07348565   -1.25220676
     atom   48 type  3   force =     0.76523115    2.07348553   -1.25219798
     atom   49 type  2   force =     5.97683399    1.44502561   -0.60713784
     atom   50 type  2   force =     5.98001697    1.44578119   -0.61203045
     atom   51 type  2   force =     5.97975095    1.44604829   -0.61204335
     atom   52 type  2   force =     5.97996506    1.44598397   -0.61193239
     atom   53 type  2   force =     5.98010804    1.44612616   -0.61211270
     atom   54 type  2   force =     5.97992341    1.44618333   -0.61182690
     atom   55 type  2   force =     5.98017062    1.44594737   -0.61182521
     atom   56 type  2   force =     5.97990566    1.44592522   -0.61181845
     atom   57 type  3   force =     1.90001723   -0.02563615   -0.18208477
     atom   58 type  3   force =     1.90010634   -0.02518795   -0.18238273
     atom   59 type  3   force =     1.90004922   -0.02511220   -0.18240013
     atom   60 type  3   force =     1.90009750   -0.02513295   -0.18234902
     atom   61 type  3   force =     1.90012640   -0.02509985   -0.18238961
     atom   62 type  3   force =     1.90010023   -0.02508375   -0.18232838
     atom   63 type  3   force =     1.90017725   -0.02513688   -0.18231626
     atom   64 type  3   force =     1.90009051   -0.02514750   -0.18232832
     atom   65 type  1   force =     0.41644265   -1.47104010   -2.59221984
     atom   66 type  1   force =     0.41629697   -1.47116695   -2.59183136
     atom   67 type  1   force =     0.41665841   -1.47147956   -2.59164718
     atom   68 type  1   force =     0.41627125   -1.47143782   -2.59180923
     atom   69 type  1   force =     0.42116179   -1.47300252   -2.59032109
     atom   70 type  1   force =     0.41633682   -1.47156658   -2.59193128
     atom   71 type  1   force =     0.41618832   -1.47119723   -2.59204020
     atom   72 type  1   force =     0.41632853   -1.47127081   -2.59188924
     atom   73 type  1   force =   -12.39093841    4.13287400   -0.55482368
     atom   74 type  1   force =   -12.39096002    4.13273782   -0.55445885
     atom   75 type  1   force =   -12.39034953    4.13227996   -0.55407923
     atom   76 type  1   force =   -12.39100027    4.13246266   -0.55446486
     atom   77 type  1   force =   -12.38935798    4.13206604   -0.55366000
     atom   78 type  1   force =   -12.39096593    4.13242752   -0.55450196
     atom   79 type  1   force =   -12.39102405    4.13279999   -0.55471463
     atom   80 type  1   force =   -12.39094432    4.13271033   -0.55448176
     atom   81 type  2   force =     0.33950889   -2.77015125    3.52044269
     atom   82 type  2   force =     0.33919318   -2.77007044    3.52085333
     atom   83 type  2   force =     0.33943248   -2.77033033    3.52078265
     atom   84 type  2   force =     0.33921553   -2.77034672    3.52080116
     atom   85 type  2   force =     0.33882198   -2.76194155    3.52452453
     atom   86 type  2   force =     0.33939313   -2.77041861    3.52062475
     atom   87 type  2   force =     0.33913337   -2.77024597    3.52068019
     atom   88 type  2   force =     0.33933759   -2.77026806    3.52070602
     atom   89 type  3   force =    -0.22495417   -1.59168469    1.77782767
     atom   90 type  3   force =    -0.22485631   -1.59171697    1.77769420
     atom   91 type  3   force =    -0.22494025   -1.59175632    1.77778960
     atom   92 type  3   force =    -0.22488676   -1.59175120    1.77779454
     atom   93 type  3   force =    -0.22488766   -1.59176070    1.77775721
     atom   94 type  3   force =    -0.22477762   -1.59086712    1.77791298
     atom   95 type  3   force =    -0.22489750   -1.59173297    1.77778124
     atom   96 type  3   force =    -0.22494586   -1.59173431    1.77777812
     atom   97 type  1   force =     4.59004808   -5.13683181    1.62615703
     atom   98 type  1   force =     4.59035784   -5.13703674    1.62571424
     atom   99 type  1   force =     4.59004472   -5.13722824    1.62608292
     atom  100 type  1   force =     4.59033315   -5.13719127    1.62604998
     atom  101 type  1   force =     4.59024426   -5.13737616    1.62579178
     atom  102 type  1   force =     4.58465802   -5.13469311    1.62977389
     atom  103 type  1   force =     4.59015561   -5.13717706    1.62596198
     atom  104 type  1   force =     4.58985890   -5.13713631    1.62587073
     atom  105 type  2   force =    -5.09624844   -4.89792870   -1.83803134
     atom  106 type  2   force =    -5.09703686   -4.89899107   -1.83867481
     atom  107 type  2   force =    -5.09715896   -4.89889431   -1.83865925
     atom  108 type  2   force =    -5.09700400   -4.89885533   -1.83861257
     atom  109 type  2   force =    -5.09701617   -4.89889110   -1.83908630
     atom  110 type  2   force =    -5.09727924   -4.89886340   -1.83850223
     atom  111 type  2   force =    -5.09704635   -4.89907898   -1.83853154
     atom  112 type  2   force =    -5.09728220   -4.89910757   -1.83874396
     atom  113 type  3   force =     1.63009055    1.85963515   -0.70879232
     atom  114 type  3   force =     1.62768833    1.85943307   -0.71020013
     atom  115 type  3   force =     1.62764128    1.85949556   -0.71021108
     atom  116 type  3   force =     1.62768216    1.85948100   -0.71019401
     atom  117 type  3   force =     1.62771346    1.85952217   -0.71025829
     atom  118 type  3   force =     1.62766275    1.85950820   -0.71017282
     atom  119 type  3   force =     1.62772820    1.85944839   -0.71016085
     atom  120 type  3   force =     1.62766026    1.85945168   -0.71016790
     atom  121 type  1   force =     0.30049445   -2.09104680    3.09855716
     atom  122 type  1   force =     0.30115893   -2.09132671    3.09779146
     atom  123 type  1   force =     0.30068286   -2.09140156    3.09796201
     atom  124 type  1   force =     0.30108455   -2.09134768    3.09823505
     atom  125 type  1   force =     0.30120911   -2.09126208    3.09805858
     atom  126 type  1   force =     0.30125234   -2.09059812    3.09873129
     atom  127 type  1   force =     0.30125258   -2.09115340    3.09821047
     atom  128 type  1   force =     0.30096982   -2.09122323    3.09820629
     atom  129 type  1   force =    12.38445412    0.72532140   -1.18055874
     atom  130 type  1   force =    12.38552950    0.72444193   -1.18148165
     atom  131 type  1   force =    12.38508227    0.72445585   -1.18125355
     atom  132 type  1   force =    12.38542441    0.72448136   -1.18114993
     atom  133 type  1   force =    12.38559435    0.72453292   -1.18138801
     atom  134 type  1   force =    12.38533068    0.72524553   -1.18069060
     atom  135 type  1   force =    12.38553616    0.72456055   -1.18114694
     atom  136 type  1   force =    12.38526234    0.72452352   -1.18113179
     atom  137 type  2   force =    -2.48469523   -1.16490631    0.87030009
     atom  138 type  2   force =    -2.48468113   -1.16490131    0.86970977
     atom  139 type  2   force =    -2.48472487   -1.16475941    0.86969223
     atom  140 type  2   force =    -2.48468071   -1.16475801    0.87017803
     atom  141 type  2   force =    -2.48456088   -1.16466444    0.87004108
     atom  142 type  2   force =    -2.48439738   -1.16445248    0.87019547
     atom  143 type  2   force =    -2.48424988   -1.16447492    0.87025952
     atom  144 type  2   force =    -2.48457739   -1.16471539    0.87009071
     atom  145 type  2   force =    -5.07265691   -0.27019238    0.95461360
     atom  146 type  2   force =    -5.07224890   -0.27017613    0.95383632
     atom  147 type  2   force =    -5.07251042   -0.27004095    0.95393535
     atom  148 type  2   force =    -5.07231973   -0.27005117    0.95424723
     atom  149 type  2   force =    -5.07220777   -0.26995121    0.95411699
     atom  150 type  2   force =    -5.07214442   -0.26961131    0.95438549
     atom  151 type  2   force =    -5.07204408   -0.26990349    0.95429778
     atom  152 type  2   force =    -5.07231758   -0.27000524    0.95423840
     atom  153 type  2   force =    -3.24249886   -5.17655174   -2.48081069
     atom  154 type  2   force =    -3.24238651   -5.17648438   -2.48070654
     atom  155 type  2   force =    -3.24180162   -5.17619973   -2.48040156
     atom  156 type  2   force =    -3.24246258   -5.17666811   -2.48075237
     atom  157 type  2   force =    -3.24246988   -5.17686467   -2.48054710
     atom  158 type  2   force =    -3.24262289   -5.17683598   -2.48094678
     atom  159 type  2   force =    -3.24253484   -5.17656021   -2.48120877
     atom  160 type  2   force =    -3.24259457   -5.17661313   -2.48067435
     atom  161 type  3   force =    -0.76523903   -2.07346439   -1.25224878
     atom  162 type  3   force =    -0.76522414   -2.07345921   -1.25221478
     atom  163 type  3   force =    -0.76502020   -2.07343546   -1.25213159
     atom  164 type  3   force =    -0.76523737   -2.07350829   -1.25221809
     atom  165 type  3   force =    -0.76520610   -2.07358817   -1.25214116
     atom  166 type  3   force =    -0.76526002   -2.07354243   -1.25225188
     atom  167 type  3   force =    -0.76525634   -2.07345542   -1.25232476
     atom  168 type  3   force =    -0.76525350   -2.07348460   -1.25221343
     atom  169 type  2   force =    -5.97965693   -1.44521886   -0.61153384
     atom  170 type  2   force =    -5.97982437   -1.44594688   -0.61199270
     atom  171 type  2   force =    -5.97998064   -1.44592761   -0.61189532
     atom  172 type  2   force =    -5.97978199   -1.44586457   -0.61187207
     atom  173 type  2   force =    -5.97982478   -1.44601241   -0.61231222
     atom  174 type  2   force =    -5.98026140   -1.44585824   -0.61163364
     atom  175 type  2   force =    -5.97990248   -1.44602314   -0.61185703
     atom  176 type  2   force =    -5.98015784   -1.44605621   -0.61207430
     atom  177 type  3   force =    -1.90007732    0.02534353   -0.18224307
     atom  178 type  3   force =    -1.90005689    0.02514152   -0.18238016
     atom  179 type  3   force =    -1.90011195    0.02514187   -0.18234029
     atom  180 type  3   force =    -1.90006030    0.02515216   -0.18234070
     atom  181 type  3   force =    -1.90005490    0.02512506   -0.18242926
     atom  182 type  3   force =    -1.90021932    0.02521987   -0.18224580
     atom  183 type  3   force =    -1.90008096    0.02513047   -0.18234034
     atom  184 type  3   force =    -1.90014534    0.02512412   -0.18236673
     atom  185 type  1   force =    -0.41709869    1.47044702   -2.59075268
     atom  186 type  1   force =    -0.41618297    1.47104659   -2.59225798
     atom  187 type  1   force =    -0.41651890    1.47138837   -2.59209698
     atom  188 type  1   force =    -0.41630782    1.47135295   -2.59187408
     atom  189 type  1   force =    -0.41616642    1.47149061   -2.59204573
     atom  190 type  1   force =    -0.41622551    1.47178772   -2.59175183
     atom  191 type  1   force =    -0.41601971    1.47138432   -2.59174059
     atom  192 type  1   force =    -0.41633234    1.47131881   -2.59179776
     atom  193 type  1   force =    12.38921197   -4.13200219   -0.55276353
     atom  194 type  1   force =    12.39115362   -4.13279435   -0.55478686
     atom  195 type  1   force =    12.39073437   -4.13258004   -0.55460990
     atom  196 type  1   force =    12.39100412   -4.13259489   -0.55449857
     atom  197 type  1   force =    12.39117206   -4.13249330   -0.55471587
     atom  198 type  1   force =    12.39093564   -4.13207577   -0.55428289
     atom  199 type  1   force =    12.39117300   -4.13259045   -0.55442157
     atom  200 type  1   force =    12.39089033   -4.13263089   -0.55440821
     atom  201 type  2   force =    -0.33934822    2.77023037    3.52083065
     atom  202 type  2   force =    -0.33942415    2.77023613    3.52026211
     atom  203 type  2   force =    -0.33935610    2.77016865    3.52038937
     atom  204 type  2   force =    -0.33942366    2.77018123    3.52091629
     atom  205 type  2   force =    -0.33926411    2.77032268    3.52072286
     atom  206 type  2   force =    -0.33895257    2.77056225    3.52085874
     atom  207 type  2   force =    -0.33907329    2.77056536    3.52086517
     atom  208 type  2   force =    -0.33923903    2.77034747    3.52068903
     atom  209 type  3   force =     0.22489484    1.59173904    1.77780532
     atom  210 type  3   force =     0.22490009    1.59175348    1.77764487
     atom  211 type  3   force =     0.22489117    1.59170390    1.77772922
     atom  212 type  3   force =     0.22490467    1.59169838    1.77783142
     atom  213 type  3   force =     0.22492381    1.59174150    1.77778194
     atom  214 type  3   force =     0.22506549    1.59185145    1.77783704
     atom  215 type  3   force =     0.22494873    1.59178539    1.77780165
     atom  216 type  3   force =     0.22492087    1.59175920    1.77777122
     atom  217 type  1   force =    -4.59011323    5.13713346    1.62604416
     atom  218 type  1   force =    -4.59039387    5.13714804    1.62557602
     atom  219 type  1   force =    -4.59006559    5.13701960    1.62555141
     atom  220 type  1   force =    -4.59056260    5.13714709    1.62641991
     atom  221 type  1   force =    -4.59011733    5.13721326    1.62601631
     atom  222 type  1   force =    -4.58976902    5.13737208    1.62608856
     atom  223 type  1   force =    -4.58989116    5.13767809    1.62621927
     atom  224 type  1   force =    -4.58998604    5.13726565    1.62588457
     atom  225 type  2   force =     5.11992453    4.87114384   -1.81472614
     atom  226 type  2   force =     5.09718936    4.89879658   -1.83870529
     atom  227 type  2   force =     5.09695719    4.89905531   -1.83872680
     atom  228 type  2   force =     5.09714715    4.89899234   -1.83866622
     atom  229 type  2   force =     5.09729741    4.89915896   -1.83887752
     atom  230 type  2   force =     5.09708401    4.89914153   -1.83856891
     atom  231 type  2   force =     5.09732541    4.89890724   -1.83855026
     atom  232 type  2   force =     5.09707464    4.89890909   -1.83853452
     atom  233 type  3   force =    -1.62720183   -1.85889667   -0.70987317
     atom  234 type  3   force =    -1.62765306   -1.85948743   -0.71020003
     atom  235 type  3   force =    -1.62769315   -1.85945141   -0.71019713
     atom  236 type  3   force =    -1.62765405   -1.85945104   -0.71018828
     atom  237 type  3   force =    -1.62763450   -1.85943578   -0.71028901
     atom  238 type  3   force =    -1.62770479   -1.85943587   -0.71015999
     atom  239 type  3   force =    -1.62764369   -1.85949497   -0.71016467
     atom  240 type  3   force =    -1.62770485   -1.85949879   -0.71018933
     atom  241 type  1   force =     2.09108848    0.30140604   -3.09826534
     atom  242 type  1   force =     2.09141220    0.30116384   -3.09841859
     atom  243 type  1   force =     2.09105685    0.30078701   -3.09784039
     atom  244 type  1   force =     2.09142148    0.30093276   -3.09820952
     atom  245 type  1   force =     2.09159184    0.30080295   -3.09835486
     atom  246 type  1   force =     2.09066355    0.30048207   -3.09716749
     atom  247 type  1   force =     2.09136469    0.30112371   -3.09835514
     atom  248 type  1   force =     2.09114781    0.30115316   -3.09825705
     atom  249 type  1   force =    -0.72459384   12.38562804    1.18110737
     atom  250 type  1   force =    -0.72431905   12.38556385    1.18093550
     atom  251 type  1   force =    -0.72454840   12.38526766    1.18148384
     atom  252 type  1   force =    -0.72433119   12.38528158    1.18115062
     atom  253 type  1   force =    -0.72428458   12.38506985    1.18104966
     atom  254 type  1   force =    -0.72599520   12.38307772    1.18141319
     atom  255 type  1   force =    -0.72445853   12.38541740    1.18098948
     atom  256 type  1   force =    -0.72468383   12.38548062    1.18109034
     atom  257 type  2   force =     1.16446352   -2.48396370   -0.87047342
     atom  258 type  2   force =     1.16478947   -2.48456438   -0.87020410
     atom  259 type  2   force =     1.16446730   -2.48484007   -0.86982262
     atom  260 type  2   force =     1.16478729   -2.48466504   -0.87013576
     atom  261 type  2   force =     1.16531977   -2.48469801   -0.87036114
     atom  262 type  2   force =     1.16458904   -2.48470678   -0.86987305
     atom  263 type  2   force =     1.16481341   -2.48453404   -0.87021287
     atom  264 type  2   force =     1.16468484   -2.48453503   -0.87010881
     atom  265 type  2   force =     0.26989377   -5.07188531   -0.95438471
     atom  266 type  2   force =     0.27010601   -5.07220598   -0.95434459
     atom  267 type  2   force =     0.26993524   -5.07249670   -0.95388422
     atom  268 type  2   force =     0.27010309   -5.07236487   -0.95422952
     atom  269 type  2   force =     0.27049179   -5.07256551   -0.95442226
     atom  270 type  2   force =     0.26972340   -5.07270698   -0.95389578
     atom  271 type  2   force =     0.27007136   -5.07223212   -0.95435113
     atom  272 type  2   force =     0.26994557   -5.07223007   -0.95425199
     atom  273 type  2   force =     5.17656200   -3.24149436    2.47996583
     atom  274 type  2   force =     5.17668395   -3.24248460    2.48067207
     atom  275 type  2   force =     5.17650209   -3.24261823    2.48087873
     atom  276 type  2   force =     5.17667767   -3.24254035    2.48070535
     atom  277 type  2   force =     5.17748060   -3.24243360    2.48020461
     atom  278 type  2   force =     5.17656060   -3.24256151    2.48087502
     atom  279 type  2   force =     5.17669868   -3.24246524    2.48067134
     atom  280 type  2   force =     5.17661689   -3.24246053    2.48073045
     atom  281 type  3   force =     2.07354736   -0.76502310    1.25207550
     atom  282 type  3   force =     2.07350367   -0.76522931    1.25220627
     atom  283 type  3   force =     2.07348978   -0.76526023    1.25224453
     atom  284 type  3   force =     2.07350544   -0.76524633    1.25221994
     atom  285 type  3   force =     2.07376978   -0.76524057    1.25196330
     atom  286 type  3   force =     2.07347400   -0.76527327    1.25224931
     atom  287 type  3   force =     2.07349702   -0.76523574    1.25220767
     atom  288 type  3   force =     2.07348794   -0.76523568    1.25220953
     atom  289 type  2   force =     1.44477485   -5.97922436    0.61046679
     atom  290 type  2   force =     1.44600243   -5.98000497    0.61183761
     atom  291 type  2   force =     1.44552733   -5.97991705    0.61192197
     atom  292 type  2   force =     1.44599004   -5.97997888    0.61179390
     atom  293 type  2   force =     1.44636512   -5.97977222    0.61169821
     atom  294 type  2   force =     1.44591859   -5.97987685    0.61196415
     atom  295 type  2   force =     1.44611977   -5.97990947    0.61182319
     atom  296 type  2   force =     1.44595742   -5.97986973    0.61198535
     atom  297 type  3   force =    -0.02555883   -1.90009766    0.18194681
     atom  298 type  3   force =    -0.02512564   -1.90012130    0.18233238
     atom  299 type  3   force =    -0.02523167   -1.90006895    0.18233744
     atom  300 type  3   force =    -0.02513103   -1.90010005    0.18231142
     atom  301 type  3   force =    -0.02506232   -1.90004832    0.18230134
     atom  302 type  3   force =    -0.02514791   -1.90007114    0.18235086
     atom  303 type  3   force =    -0.02509248   -1.90009451    0.18232804
     atom  304 type  3   force =    -0.02513752   -1.90007770    0.18238280
     atom  305 type  1   force =    -1.47135873   -0.41590845    2.59166847
     atom  306 type  1   force =    -1.47121972   -0.41609455    2.59173400
     atom  307 type  1   force =    -1.47122769   -0.41639403    2.59220817
     atom  308 type  1   force =    -1.47125219   -0.41636392    2.59187854
     atom  309 type  1   force =    -1.47068304   -0.41701772    2.59162750
     atom  310 type  1   force =    -1.47158378   -0.41719434    2.59179482
     atom  311 type  1   force =    -1.47134228   -0.41623210    2.59167505
     atom  312 type  1   force =    -1.47142813   -0.41623349    2.59180663
     atom  313 type  1   force =     4.13257834   12.39124248    0.55438083
     atom  314 type  1   force =     4.13279537   12.39124318    0.55430068
     atom  315 type  1   force =     4.13269202   12.39093806    0.55477469
     atom  316 type  1   force =     4.13273147   12.39090710    0.55449067
     atom  317 type  1   force =     4.13287238   12.39049180    0.55439090
     atom  318 type  1   force =     4.13211295   12.38921509    0.55368419
     atom  319 type  1   force =     4.13260785   12.39101581    0.55429109
     atom  320 type  1   force =     4.13247384   12.39104743    0.55442092
     atom  321 type  2   force =    -2.77077031   -0.33882900   -3.52104827
     atom  322 type  2   force =    -2.77024613   -0.33927767   -3.52084838
     atom  323 type  2   force =    -2.77117390   -0.33957587   -3.52055699
     atom  324 type  2   force =    -2.77024229   -0.33936406   -3.52079926
     atom  325 type  2   force =    -2.76990899   -0.33930162   -3.52087261
     atom  326 type  2   force =    -2.77037307   -0.33928237   -3.52054548
     atom  327 type  2   force =    -2.77014163   -0.33918990   -3.52087070
     atom  328 type  2   force =    -2.77033370   -0.33919525   -3.52071761
     atom  329 type  3   force =    -1.59182583    0.22498167   -1.77782192
     atom  330 type  3   force =    -1.59172942    0.22492118   -1.77781620
     atom  331 type  3   force =    -1.59210391    0.22473514   -1.77775560
     atom  332 type  3   force =    -1.59172395    0.22488901   -1.77779907
     atom  333 type  3   force =    -1.59166965    0.22490301   -1.77780326
     atom  334 type  3   force =    -1.59175857    0.22491495   -1.77772954
     atom  335 type  3   force =    -1.59169798    0.22494842   -1.77782571
     atom  336 type  3   force =    -1.59175342    0.22494377   -1.77778248
     atom  337 type  1   force =    -5.13821147   -4.58960447   -1.62658947
     atom  338 type  1   force =    -5.13713964   -4.59014747   -1.62610886
     atom  339 type  1   force =    -5.13826109   -4.59006989   -1.62608583
     atom  340 type  1   force =    -5.13714007   -4.59018320   -1.62611011
     atom  341 type  1   force =    -5.13677530   -4.59002192   -1.62616329
     atom  342 type  1   force =    -5.13725046   -4.59004263   -1.62586476
     atom  343 type  1   force =    -5.13693529   -4.59001188   -1.62614882
     atom  344 type  1   force =    -5.13722373   -4.58999367   -1.62591190
     atom  345 type  2   force =    -4.89803548    5.09705895    1.83796656
     atom  346 type  2   force =    -4.89907192    5.09701055    1.83877313
     atom  347 type  2   force =    -4.89893041    5.09716300    1.83855034
     atom  348 type  2   force =    -4.89899421    5.09715787    1.83859426
     atom  349 type  2   force =    -4.89893106    5.09798849    1.83804827
     atom  350 type  2   force =    -4.89891665    5.09716202    1.83854880
     atom  351 type  2   force =    -4.89904287    5.09701740    1.83876513
     atom  352 type  2   force =    -4.89891669    5.09708661    1.83860442
     atom  353 type  3   force =     1.85959999   -1.62738151    0.70952816
     atom  354 type  3   force =     1.85947129   -1.62769309    0.71018194
     atom  355 type  3   force =     1.85943907   -1.62767729    0.71019008
     atom  356 type  3   force =     1.85947082   -1.62767599    0.71016598
     atom  357 type  3   force =     1.85961444   -1.62755875    0.71006928
     atom  358 type  3   force =     1.85946265   -1.62766045    0.71019118
     atom  359 type  3   force =     1.85948631   -1.62767547    0.71018285
     atom  360 type  3   force =     1.85947310   -1.62766700    0.71019403
     atom  361 type  1   force =    -2.09146696   -0.30090929   -3.09821745
     atom  362 type  1   force =    -2.09124714   -0.30098253   -3.09843097
     atom  363 type  1   force =    -2.09225468   -0.30231646   -3.09904870
     atom  364 type  1   force =    -2.09110060   -0.30132525   -3.09820906
     atom  365 type  1   force =    -2.09112093   -0.30108504   -3.09823338
     atom  366 type  1   force =    -2.09120337   -0.30098303   -3.09780281
     atom  367 type  1   force =    -2.09104268   -0.30077216   -3.09836088
     atom  368 type  1   force =    -2.09132060   -0.30082481   -3.09826426
     atom  369 type  1   force =     0.72345935  -12.38633424    1.17851601
     atom  370 type  1   force =     0.72457841  -12.38558259    1.18115557
     atom  371 type  1   force =     0.72426858  -12.38528474    1.18115667
     atom  372 type  1   force =     0.72451546  -12.38534818    1.18095996
     atom  373 type  1   force =     0.72487104  -12.38499758    1.18094788
     atom  374 type  1   force =     0.72448687  -12.38520670    1.18113053
     atom  375 type  1   force =     0.72465774  -12.38537329    1.18112285
     atom  376 type  1   force =     0.72458464  -12.38527991    1.18138558
     atom  377 type  2   force =    -1.16510714    2.48400673   -0.86978436
     atom  378 type  2   force =    -1.16429109    2.48426265   -0.87032492
     atom  379 type  2   force =    -1.16481132    2.48467256   -0.87014540
     atom  380 type  2   force =    -1.16469755    2.48466738   -0.87022492
     atom  381 type  2   force =    -1.16463105    2.48473539   -0.87023261
     atom  382 type  2   force =    -1.16480150    2.48499835   -0.87023872
     atom  383 type  2   force =    -1.16463973    2.48455516   -0.87009868
     atom  384 type  2   force =    -1.16476069    2.48449265   -0.86983224
     atom  385 type  2   force =    -0.27064204    5.07077402   -0.95458953
     atom  386 type  2   force =    -0.26978666    5.07195174   -0.95431049
     atom  387 type  2   force =    -0.27012727    5.07237238   -0.95426675
     atom  388 type  2   force =    -0.27000705    5.07235242   -0.95435866
     atom  389 type  2   force =    -0.26987253    5.07251116   -0.95436965
     atom  390 type  2   force =    -0.27004989    5.07255137   -0.95429202
     atom  391 type  2   force =    -0.26991111    5.07226029   -0.95420999
     atom  392 type  2   force =    -0.26998173    5.07227460   -0.95398335
     atom  393 type  2   force =    -5.17681648    3.24212900    2.48091255
     atom  394 type  2   force =    -5.17583720    3.24201162    2.48013632
     atom  395 type  2   force =    -5.17669903    3.24254884    2.48068541
     atom  396 type  2   force =    -5.17664299    3.24255514    2.48064567
     atom  397 type  2   force =    -5.17658024    3.24261879    2.48064628
     atom  398 type  2   force =    -5.17661548    3.24304748    2.48048263
     atom  399 type  2   force =    -5.17657877    3.24247316    2.48075666
     atom  400 type  2   force =    -5.17664216    3.24241851    2.48091292
     atom  401 type  3   force =    -2.07350940    0.76512398    1.25223038
     atom  402 type  3   force =    -2.07326394    0.76499747    1.25197582
     atom  403 type  3   force =    -2.07350666    0.76525142    1.25220049
     atom  404 type  3   force =    -2.07350565    0.76525361    1.25219945
     atom  405 type  3   force =    -2.07348339    0.76528132    1.25220053
     atom  406 type  3   force =    -2.07346646    0.76535119    1.25216588
     atom  407 type  3   force =    -2.07347904    0.76523748    1.25223403
     atom  408 type  3   force =    -2.07347932    0.76522882    1.25224881
     atom  409 type  2   force =    -1.44539015    5.97996370    0.61159405
     atom  410 type  2   force =    -1.44605989    5.97994730    0.61207810
     atom  411 type  2   force =    -1.44585964    5.97999860    0.61181138
     atom  412 type  2   force =    -1.44599442    5.97999634    0.61190616
     atom  413 type  2   force =    -1.44639905    5.98087811    0.61125640
     atom  414 type  2   force =    -1.44590872    5.97994745    0.61180195
     atom  415 type  2   force =    -1.44627178    5.97980223    0.61204949
     atom  416 type  2   force =    -1.44591859    5.97989340    0.61184843
     atom  417 type  3   force =     0.02525918    1.90012966    0.18227994
     atom  418 type  3   force =     0.02512403    1.90011086    0.18237142
     atom  419 type  3   force =     0.02517278    1.90010654    0.18232583
     atom  420 type  3   force =     0.02513448    1.90011054    0.18235560
     atom  421 type  3   force =     0.02491878    1.90036974    0.18204866
     atom  422 type  3   force =     0.02514912    1.90008620    0.18232460
     atom  423 type  3   force =     0.02504182    1.90007928    0.18235970
     atom  424 type  3   force =     0.02514655    1.90008621    0.18232472
     atom  425 type  1   force =     1.47168964    0.41295524    2.58942567
     atom  426 type  1   force =     1.47150169    0.41584864    2.59176933
     atom  427 type  1   force =     1.47121201    0.41637855    2.59177391
     atom  428 type  1   force =     1.47132867    0.41635322    2.59172810
     atom  429 type  1   force =     1.47155350    0.41666052    2.59161111
     atom  430 type  1   force =     1.47134658    0.41656963    2.59180339
     atom  431 type  1   force =     1.47147953    0.41626307    2.59191565
     atom  432 type  1   force =     1.47137162    0.41628807    2.59200639
     atom  433 type  1   force =    -4.13194089  -12.39247513    0.54954394
     atom  434 type  1   force =    -4.13255154  -12.39124097    0.55446584
     atom  435 type  1   force =    -4.13276059  -12.39090699    0.55443115
     atom  436 type  1   force =    -4.13261398  -12.39094260    0.55433642
     atom  437 type  1   force =    -4.13225422  -12.39050829    0.55416330
     atom  438 type  1   force =    -4.13261598  -12.39079578    0.55444634
     atom  439 type  1   force =    -4.13247991  -12.39100398    0.55449920
     atom  440 type  1   force =    -4.13256347  -12.39095285    0.55460690
     atom  441 type  2   force =     2.77004174    0.33912177   -3.52025847
     atom  442 type  2   force =     2.77064293    0.33912731   -3.52088740
     atom  443 type  2   force =     2.77022311    0.33937568   -3.52076568
     atom  444 type  2   force =     2.77038669    0.33937306   -3.52086604
     atom  445 type  2   force =     2.77038507    0.33936289   -3.52089000
     atom  446 type  2   force =     2.77008821    0.33967808   -3.52086431
     atom  447 type  2   force =     2.77038822    0.33921004   -3.52076140
     atom  448 type  2   force =     2.77000185    0.33903584   -3.52041037
     atom  449 type  3   force =     1.59171961   -0.22488453   -1.77779440
     atom  450 type  3   force =     1.59176821   -0.22489029   -1.77781870
     atom  451 type  3   force =     1.59168328   -0.22495276   -1.77762330
     atom  452 type  3   force =     1.59180012   -0.22494687   -1.77780726
     atom  453 type  3   force =     1.59177293   -0.22494144   -1.77779146
     atom  454 type  3   force =     1.59164651   -0.22500314   -1.77770094
     atom  455 type  3   force =     1.59176486   -0.22489492   -1.77782891
     atom  456 type  3   force =     1.59169667   -0.22485152   -1.77779942
     atom  457 type  1   force =     5.13712819    4.59020621   -1.62599737
     atom  458 type  1   force =     5.13735517    4.59021869   -1.62613953
     atom  459 type  1   force =     5.13704996    4.59013560   -1.62563019
     atom  460 type  1   force =     5.13767354    4.59004014   -1.62621368
     atom  461 type  1   force =     5.13727341    4.59001627   -1.62605097
     atom  462 type  1   force =     5.13650870    4.58976250   -1.62578721
     atom  463 type  1   force =     5.13727428    4.59013415   -1.62616808
     atom  464 type  1   force =     5.13668059    4.59077876   -1.62630059
     atom  465 type  2   force =     4.89866649   -5.09582531    1.83681254
     atom  466 type  2   force =     4.89898931   -5.09716194    1.83857752
     atom  467 type  2   force =     4.89875316   -5.09716811    1.83869547
     atom  468 type  2   force =     4.89898002   -5.09714582    1.83854808
     atom  469 type  2   force =     4.89958459   -5.09683864    1.83823910
     atom  470 type  2   force =     4.89891447   -5.09708746    1.83869176
     atom  471 type  2   force =     4.89904651   -5.09709496    1.83857481
     atom  472 type  2   force =     4.89895718   -5.09707060    1.83865765
     atom  473 type  3   force =    -1.85918836    1.62774756    0.70992507
     atom  474 type  3   force =    -1.85948497    1.62765737    0.71020360
     atom  475 type  3   force =    -1.85946777    1.62767885    0.71017491
     atom  476 type  3   force =    -1.85947347    1.62768024    0.71017734
     atom  477 type  3   force =    -1.85939339    1.62791305    0.70998006
     atom  478 type  3   force =    -1.85946549    1.62768060    0.71017596
     atom  479 type  3   force =    -1.85947844    1.62765798    0.71020478
     atom  480 type  3   force =    -1.85946298    1.62766965    0.71018057
     atom  481 type  4   force =    -0.00096964    0.00089086    0.00023885
     atom  482 type  4   force =     0.00041108    0.00031975   -0.00128734
     atom  483 type  4   force =    -0.00176092   -0.00156899   -0.00025355
     atom  484 type  4   force =     0.00064932   -0.00067512    0.00014841
     atom  485 type  4   force =     0.00072236   -0.00035197   -0.00037349
     atom  486 type  4   force =     0.00103153    0.00156289    0.00460270
     atom  487 type  4   force =     0.00063902    0.00058435   -0.00033736
     atom  488 type  4   force =    -0.00035468    0.00055701   -0.00023346
     atom  489 type  4   force =     0.00048821    0.00126478   -0.00102983
     atom  490 type  4   force =     0.00020017    0.00107565   -0.00008288
     atom  491 type  4   force =     0.00096564   -0.00019332    0.00077504
     atom  492 type  4   force =     0.00005063   -0.00020139    0.00025808
     atom  493 type  4   force =     0.00635145   -0.01066579   -0.00020933
     atom  494 type  4   force =     0.00026100   -0.00186716   -0.00085868
     atom  495 type  4   force =    -0.00043620    0.00035047   -0.00070456
     atom  496 type  4   force =    -0.00008843    0.00020215   -0.00022010
     The core correction contribution to forces
     atom    1 type  1   force =    -0.00311523    0.00438508    0.00260948
     atom    2 type  1   force =    -0.00311524    0.00438526    0.00260953
     atom    3 type  1   force =    -0.00311525    0.00438512    0.00260952
     atom    4 type  1   force =    -0.00311543    0.00438523    0.00260960
     atom    5 type  1   force =    -0.00311525    0.00438512    0.00260955
     atom    6 type  1   force =    -0.00311872    0.00438257    0.00261223
     atom    7 type  1   force =    -0.00311527    0.00438520    0.00260958
     atom    8 type  1   force =    -0.00311524    0.00438525    0.00260956
     atom    9 type  1   force =     0.01340062    0.00481507    0.00489607
     atom   10 type  1   force =     0.01340062    0.00481506    0.00489605
     atom   11 type  1   force =     0.01340024    0.00481480    0.00489580
     atom   12 type  1   force =     0.01340057    0.00481502    0.00489603
     atom   13 type  1   force =     0.01339842    0.00481455    0.00489704
     atom   14 type  1   force =     0.01340068    0.00481503    0.00489602
     atom   15 type  1   force =     0.01340065    0.00481516    0.00489604
     atom   16 type  1   force =     0.01340068    0.00481508    0.00489608
     atom   17 type  2   force =    -0.00643045    0.00179834    0.00006714
     atom   18 type  2   force =    -0.00643127    0.00179752    0.00006825
     atom   19 type  2   force =    -0.00643131    0.00179766    0.00006807
     atom   20 type  2   force =    -0.00643117    0.00179751    0.00006820
     atom   21 type  2   force =    -0.00611411    0.00219721    0.00002768
     atom   22 type  2   force =    -0.00643121    0.00179781    0.00006831
     atom   23 type  2   force =    -0.00643110    0.00179773    0.00006788
     atom   24 type  2   force =    -0.00643096    0.00179791    0.00006749
     atom   25 type  2   force =     0.00302126   -0.00019469    0.00027329
     atom   26 type  2   force =     0.00302144   -0.00019484    0.00027320
     atom   27 type  2   force =     0.00302124   -0.00019477    0.00027359
     atom   28 type  2   force =     0.00302119   -0.00019520    0.00027351
     atom   29 type  2   force =     0.00303296   -0.00018884    0.00027680
     atom   30 type  2   force =     0.00302149   -0.00019446    0.00027329
     atom   31 type  2   force =     0.00302137   -0.00019481    0.00027368
     atom   32 type  2   force =     0.00302139   -0.00019469    0.00027329
     atom   33 type  2   force =    -0.00291041    0.00220903    0.00027120
     atom   34 type  2   force =    -0.00233779    0.00277900    0.00032871
     atom   35 type  2   force =    -0.00233800    0.00277916    0.00032875
     atom   36 type  2   force =    -0.00233798    0.00277912    0.00032805
     atom   37 type  2   force =    -0.00233710    0.00277987    0.00032776
     atom   38 type  2   force =    -0.00233781    0.00277904    0.00032833
     atom   39 type  2   force =    -0.00233802    0.00277903    0.00032857
     atom   40 type  2   force =    -0.00233795    0.00277908    0.00032855
     atom   41 type  3   force =     0.00000000    0.00000000    0.00000000
     atom   42 type  3   force =     0.00000000    0.00000000    0.00000000
     atom   43 type  3   force =     0.00000000    0.00000000    0.00000000
     atom   44 type  3   force =     0.00000000    0.00000000    0.00000000
     atom   45 type  3   force =     0.00000000    0.00000000    0.00000000
     atom   46 type  3   force =     0.00000000    0.00000000    0.00000000
     atom   47 type  3   force =     0.00000000    0.00000000    0.00000000
     atom   48 type  3   force =     0.00000000    0.00000000    0.00000000
     atom   49 type  2   force =     0.00086921   -0.00154316    0.00039410
     atom   50 type  2   force =     0.00087754   -0.00157238    0.00038529
     atom   51 type  2   force =     0.00087734   -0.00157196    0.00038474
     atom   52 type  2   force =     0.00087743   -0.00157214    0.00038520
     atom   53 type  2   force =     0.00087734   -0.00157196    0.00038495
     atom   54 type  2   force =     0.00087744   -0.00157227    0.00038492
     atom   55 type  2   force =     0.00087722   -0.00157221    0.00038545
     atom   56 type  2   force =     0.00087733   -0.00157229    0.00038516
     atom   57 type  3   force =     0.00000000    0.00000000    0.00000000
     atom   58 type  3   force =     0.00000000    0.00000000    0.00000000
     atom   59 type  3   force =     0.00000000    0.00000000    0.00000000
     atom   60 type  3   force =     0.00000000    0.00000000    0.00000000
     atom   61 type  3   force =     0.00000000    0.00000000    0.00000000
     atom   62 type  3   force =     0.00000000    0.00000000    0.00000000
     atom   63 type  3   force =     0.00000000    0.00000000    0.00000000
     atom   64 type  3   force =     0.00000000    0.00000000    0.00000000
     atom   65 type  1   force =    -0.00325622   -0.00412428   -0.00297497
     atom   66 type  1   force =    -0.00325624   -0.00412433   -0.00297500
     atom   67 type  1   force =    -0.00325631   -0.00412433   -0.00297504
     atom   68 type  1   force =    -0.00325633   -0.00412448   -0.00297497
     atom   69 type  1   force =    -0.00325930   -0.00412000   -0.00297381
     atom   70 type  1   force =    -0.00325625   -0.00412443   -0.00297493
     atom   71 type  1   force =    -0.00325627   -0.00412432   -0.00297492
     atom   72 type  1   force =    -0.00325627   -0.00412432   -0.00297490
     atom   73 type  1   force =     0.01284241   -0.00666370   -0.00256021
     atom   74 type  1   force =     0.01284251   -0.00666371   -0.00256026
     atom   75 type  1   force =     0.01284263   -0.00666387   -0.00256030
     atom   76 type  1   force =     0.01284249   -0.00666372   -0.00256031
     atom   77 type  1   force =     0.01284088   -0.00666344   -0.00256038
     atom   78 type  1   force =     0.01284248   -0.00666368   -0.00256024
     atom   79 type  1   force =     0.01284250   -0.00666368   -0.00256029
     atom   80 type  1   force =     0.01284246   -0.00666364   -0.00256022
     atom   81 type  2   force =    -0.00172090   -0.00232292    0.00022377
     atom   82 type  2   force =    -0.00172097   -0.00232325    0.00022350
     atom   83 type  2   force =    -0.00172123   -0.00232284    0.00022353
     atom   84 type  2   force =    -0.00172114   -0.00232320    0.00022377
     atom   85 type  2   force =    -0.00171703   -0.00231566    0.00023530
     atom   86 type  2   force =    -0.00172074   -0.00232294    0.00022341
     atom   87 type  2   force =    -0.00172045   -0.00232292    0.00022348
     atom   88 type  2   force =    -0.00172098   -0.00232278    0.00022326
     atom   89 type  3   force =     0.00000000    0.00000000    0.00000000
     atom   90 type  3   force =     0.00000000    0.00000000    0.00000000
     atom   91 type  3   force =     0.00000000    0.00000000    0.00000000
     atom   92 type  3   force =     0.00000000    0.00000000    0.00000000
     atom   93 type  3   force =     0.00000000    0.00000000    0.00000000
     atom   94 type  3   force =     0.00000000    0.00000000    0.00000000
     atom   95 type  3   force =     0.00000000    0.00000000    0.00000000
     atom   96 type  3   force =     0.00000000    0.00000000    0.00000000
     atom   97 type  1   force =    -0.00403859    0.01083128   -0.00097752
     atom   98 type  1   force =    -0.00403857    0.01083131   -0.00097752
     atom   99 type  1   force =    -0.00403856    0.01083131   -0.00097752
     atom  100 type  1   force =    -0.00403861    0.01083134   -0.00097752
     atom  101 type  1   force =    -0.00403858    0.01083129   -0.00097753
     atom  102 type  1   force =    -0.00403241    0.01083299   -0.00097537
     atom  103 type  1   force =    -0.00403858    0.01083129   -0.00097756
     atom  104 type  1   force =    -0.00403854    0.01083141   -0.00097754
     atom  105 type  2   force =    -0.00228995   -0.00379978   -0.00000098
     atom  106 type  2   force =    -0.00229043   -0.00380098   -0.00000103
     atom  107 type  2   force =    -0.00229044   -0.00380086   -0.00000097
     atom  108 type  2   force =    -0.00229029   -0.00380048   -0.00000117
     atom  109 type  2   force =    -0.00229005   -0.00380013   -0.00000106
     atom  110 type  2   force =    -0.00229034   -0.00380028   -0.00000124
     atom  111 type  2   force =    -0.00229052   -0.00380034   -0.00000145
     atom  112 type  2   force =    -0.00229024   -0.00380037   -0.00000126
     atom  113 type  3   force =     0.00000000    0.00000000    0.00000000
     atom  114 type  3   force =     0.00000000    0.00000000    0.00000000
     atom  115 type  3   force =     0.00000000    0.00000000    0.00000000
     atom  116 type  3   force =     0.00000000    0.00000000    0.00000000
     atom  117 type  3   force =     0.00000000    0.00000000    0.00000000
     atom  118 type  3   force =     0.00000000    0.00000000    0.00000000
     atom  119 type  3   force =     0.00000000    0.00000000    0.00000000
     atom  120 type  3   force =     0.00000000    0.00000000    0.00000000
     atom  121 type  1   force =     0.00311548   -0.00438548    0.00260987
     atom  122 type  1   force =     0.00311536   -0.00438516    0.00260932
     atom  123 type  1   force =     0.00311521   -0.00438514    0.00260957
     atom  124 type  1   force =     0.00311516   -0.00438524    0.00260970
     atom  125 type  1   force =     0.00311519   -0.00438520    0.00260966
     atom  126 type  1   force =     0.00311550   -0.00438567    0.00260982
     atom  127 type  1   force =     0.00311523   -0.00438521    0.00260963
     atom  128 type  1   force =     0.00311524   -0.00438510    0.00260955
     atom  129 type  1   force =    -0.01340076   -0.00481542    0.00489639
     atom  130 type  1   force =    -0.01340056   -0.00481511    0.00489591
     atom  131 type  1   force =    -0.01340055   -0.00481502    0.00489607
     atom  132 type  1   force =    -0.01340065   -0.00481508    0.00489602
     atom  133 type  1   force =    -0.01340066   -0.00481512    0.00489610
     atom  134 type  1   force =    -0.01340025   -0.00481479    0.00489596
     atom  135 type  1   force =    -0.01340066   -0.00481509    0.00489606
     atom  136 type  1   force =    -0.01340064   -0.00481510    0.00489616
     atom  137 type  2   force =     0.00643152   -0.00179799    0.00006816
     atom  138 type  2   force =     0.00643124   -0.00179754    0.00006779
     atom  139 type  2   force =     0.00643150   -0.00179740    0.00006737
     atom  140 type  2   force =     0.00643115   -0.00179755    0.00006839
     atom  141 type  2   force =     0.00643133   -0.00179773    0.00006837
     atom  142 type  2   force =     0.00643134   -0.00179762    0.00006819
     atom  143 type  2   force =     0.00643147   -0.00179733    0.00006809
     atom  144 type  2   force =     0.00643119   -0.00179752    0.00006784
     atom  145 type  2   force =    -0.00302108    0.00019447    0.00027343
     atom  146 type  2   force =    -0.00302139    0.00019490    0.00027365
     atom  147 type  2   force =    -0.00302136    0.00019479    0.00027423
     atom  148 type  2   force =    -0.00302171    0.00019472    0.00027357
     atom  149 type  2   force =    -0.00302103    0.00019480    0.00027358
     atom  150 type  2   force =    -0.00302126    0.00019466    0.00027369
     atom  151 type  2   force =    -0.00302121    0.00019473    0.00027326
     atom  152 type  2   force =    -0.00302139    0.00019483    0.00027365
     atom  153 type  2   force =     0.00233776   -0.00277911    0.00032860
     atom  154 type  2   force =     0.00233768   -0.00277948    0.00032903
     atom  155 type  2   force =     0.00233774   -0.00277905    0.00032860
     atom  156 type  2   force =     0.00233791   -0.00277905    0.00032847
     atom  157 type  2   force =     0.00233804   -0.00277875    0.00032809
     atom  158 type  2   force =     0.00233791   -0.00277945    0.00032892
     atom  159 type  2   force =     0.00233761   -0.00277955    0.00032927
     atom  160 type  2   force =     0.00233829   -0.00277840    0.00032827
     atom  161 type  3   force =     0.00000000    0.00000000    0.00000000
     atom  162 type  3   force =     0.00000000    0.00000000    0.00000000
     atom  163 type  3   force =     0.00000000    0.00000000    0.00000000
     atom  164 type  3   force =     0.00000000    0.00000000    0.00000000
     atom  165 type  3   force =     0.00000000    0.00000000    0.00000000
     atom  166 type  3   force =     0.00000000    0.00000000    0.00000000
     atom  167 type  3   force =     0.00000000    0.00000000    0.00000000
     atom  168 type  3   force =     0.00000000    0.00000000    0.00000000
     atom  169 type  2   force =    -0.00087761    0.00157267    0.00038481
     atom  170 type  2   force =    -0.00087712    0.00157239    0.00038499
     atom  171 type  2   force =    -0.00087758    0.00157199    0.00038532
     atom  172 type  2   force =    -0.00087763    0.00157185    0.00038523
     atom  173 type  2   force =    -0.00087768    0.00157228    0.00038612
     atom  174 type  2   force =    -0.00087720    0.00157244    0.00038517
     atom  175 type  2   force =    -0.00087751    0.00157216    0.00038532
     atom  176 type  2   force =    -0.00087744    0.00157209    0.00038496
     atom  177 type  3   force =     0.00000000    0.00000000    0.00000000
     atom  178 type  3   force =     0.00000000    0.00000000    0.00000000
     atom  179 type  3   force =     0.00000000    0.00000000    0.00000000
     atom  180 type  3   force =     0.00000000    0.00000000    0.00000000
     atom  181 type  3   force =     0.00000000    0.00000000    0.00000000
     atom  182 type  3   force =     0.00000000    0.00000000    0.00000000
     atom  183 type  3   force =     0.00000000    0.00000000    0.00000000
     atom  184 type  3   force =     0.00000000    0.00000000    0.00000000
     atom  185 type  1   force =     0.00325611    0.00412414   -0.00297501
     atom  186 type  1   force =     0.00325631    0.00412435   -0.00297503
     atom  187 type  1   force =     0.00325633    0.00412438   -0.00297496
     atom  188 type  1   force =     0.00325619    0.00412435   -0.00297496
     atom  189 type  1   force =     0.00325624    0.00412433   -0.00297496
     atom  190 type  1   force =     0.00325627    0.00412426   -0.00297489
     atom  191 type  1   force =     0.00325623    0.00412425   -0.00297489
     atom  192 type  1   force =     0.00325625    0.00412437   -0.00297499
     atom  193 type  1   force =    -0.01284205    0.00666369   -0.00255981
     atom  194 type  1   force =    -0.01284246    0.00666364   -0.00256021
     atom  195 type  1   force =    -0.01284248    0.00666373   -0.00256032
     atom  196 type  1   force =    -0.01284259    0.00666371   -0.00256027
     atom  197 type  1   force =    -0.01284252    0.00666361   -0.00256023
     atom  198 type  1   force =    -0.01284240    0.00666372   -0.00256030
     atom  199 type  1   force =    -0.01284250    0.00666365   -0.00256027
     atom  200 type  1   force =    -0.01284248    0.00666367   -0.00256028
     atom  201 type  2   force =     0.00172088    0.00232266    0.00022369
     atom  202 type  2   force =     0.00172090    0.00232269    0.00022489
     atom  203 type  2   force =     0.00172099    0.00232307    0.00022386
     atom  204 type  2   force =     0.00172077    0.00232293    0.00022421
     atom  205 type  2   force =     0.00172108    0.00232301    0.00022316
     atom  206 type  2   force =     0.00172070    0.00232258    0.00022339
     atom  207 type  2   force =     0.00172097    0.00232277    0.00022355
     atom  208 type  2   force =     0.00172097    0.00232293    0.00022375
     atom  209 type  3   force =     0.00000000    0.00000000    0.00000000
     atom  210 type  3   force =     0.00000000    0.00000000    0.00000000
     atom  211 type  3   force =     0.00000000    0.00000000    0.00000000
     atom  212 type  3   force =     0.00000000    0.00000000    0.00000000
     atom  213 type  3   force =     0.00000000    0.00000000    0.00000000
     atom  214 type  3   force =     0.00000000    0.00000000    0.00000000
     atom  215 type  3   force =     0.00000000    0.00000000    0.00000000
     atom  216 type  3   force =     0.00000000    0.00000000    0.00000000
     atom  217 type  1   force =     0.00403855   -0.01083137   -0.00097754
     atom  218 type  1   force =     0.00403855   -0.01083129   -0.00097752
     atom  219 type  1   force =     0.00403856   -0.01083132   -0.00097747
     atom  220 type  1   force =     0.00403828   -0.01083028   -0.00097750
     atom  221 type  1   force =     0.00403854   -0.01083137   -0.00097755
     atom  222 type  1   force =     0.00403852   -0.01083136   -0.00097751
     atom  223 type  1   force =     0.00403856   -0.01083127   -0.00097751
     atom  224 type  1   force =     0.00403851   -0.01083135   -0.00097751
     atom  225 type  2   force =     0.00256180    0.00371035    0.00000730
     atom  226 type  2   force =     0.00229018    0.00380048   -0.00000130
     atom  227 type  2   force =     0.00229004    0.00380070   -0.00000158
     atom  228 type  2   force =     0.00229020    0.00380051   -0.00000064
     atom  229 type  2   force =     0.00229065    0.00380077   -0.00000116
     atom  230 type  2   force =     0.00229036    0.00380050   -0.00000122
     atom  231 type  2   force =     0.00229025    0.00380048   -0.00000125
     atom  232 type  2   force =     0.00229048    0.00380074   -0.00000131
     atom  233 type  3   force =     0.00000000    0.00000000    0.00000000
     atom  234 type  3   force =     0.00000000    0.00000000    0.00000000
     atom  235 type  3   force =     0.00000000    0.00000000    0.00000000
     atom  236 type  3   force =     0.00000000    0.00000000    0.00000000
     atom  237 type  3   force =     0.00000000    0.00000000    0.00000000
     atom  238 type  3   force =     0.00000000    0.00000000    0.00000000
     atom  239 type  3   force =     0.00000000    0.00000000    0.00000000
     atom  240 type  3   force =     0.00000000    0.00000000    0.00000000
     atom  241 type  1   force =     0.00438514    0.00311525   -0.00260951
     atom  242 type  1   force =     0.00438530    0.00311531   -0.00260975
     atom  243 type  1   force =     0.00438517    0.00311517   -0.00260962
     atom  244 type  1   force =     0.00438510    0.00311521   -0.00260957
     atom  245 type  1   force =     0.00438518    0.00311533   -0.00260959
     atom  246 type  1   force =     0.00438529    0.00311521   -0.00260955
     atom  247 type  1   force =     0.00438519    0.00311523   -0.00260961
     atom  248 type  1   force =     0.00438522    0.00311527   -0.00260963
     atom  249 type  1   force =     0.00481508   -0.01340068   -0.00489607
     atom  250 type  1   force =     0.00481514   -0.01340056   -0.00489613
     atom  251 type  1   force =     0.00481513   -0.01340065   -0.00489602
     atom  252 type  1   force =     0.00481511   -0.01340064   -0.00489606
     atom  253 type  1   force =     0.00481509   -0.01340065   -0.00489610
     atom  254 type  1   force =     0.00481583   -0.01340226   -0.00489724
     atom  255 type  1   force =     0.00481509   -0.01340060   -0.00489609
     atom  256 type  1   force =     0.00481506   -0.01340062   -0.00489607
     atom  257 type  2   force =     0.00179773    0.00643154   -0.00006839
     atom  258 type  2   force =     0.00179780    0.00643133   -0.00006841
     atom  259 type  2   force =     0.00179738    0.00643079   -0.00006795
     atom  260 type  2   force =     0.00179778    0.00643116   -0.00006820
     atom  261 type  2   force =     0.00179795    0.00643129   -0.00006822
     atom  262 type  2   force =     0.00179778    0.00643102   -0.00006812
     atom  263 type  2   force =     0.00179775    0.00643121   -0.00006772
     atom  264 type  2   force =     0.00179773    0.00643122   -0.00006827
     atom  265 type  2   force =    -0.00019491   -0.00302157   -0.00027330
     atom  266 type  2   force =    -0.00019451   -0.00302111   -0.00027349
     atom  267 type  2   force =    -0.00019489   -0.00302163   -0.00027348
     atom  268 type  2   force =    -0.00019471   -0.00302139   -0.00027369
     atom  269 type  2   force =    -0.00019423   -0.00302126   -0.00027370
     atom  270 type  2   force =    -0.00019453   -0.00302175   -0.00027370
     atom  271 type  2   force =    -0.00019492   -0.00302149   -0.00027351
     atom  272 type  2   force =    -0.00019463   -0.00302125   -0.00027322
     atom  273 type  2   force =     0.00277895    0.00233707   -0.00032786
     atom  274 type  2   force =     0.00277913    0.00233742   -0.00032848
     atom  275 type  2   force =     0.00277895    0.00233792   -0.00032865
     atom  276 type  2   force =     0.00277921    0.00233771   -0.00032899
     atom  277 type  2   force =     0.00277831    0.00233789   -0.00032788
     atom  278 type  2   force =     0.00277924    0.00233761   -0.00032892
     atom  279 type  2   force =     0.00277912    0.00233805   -0.00032899
     atom  280 type  2   force =     0.00277899    0.00233758   -0.00032862
     atom  281 type  3   force =     0.00000000    0.00000000    0.00000000
     atom  282 type  3   force =     0.00000000    0.00000000    0.00000000
     atom  283 type  3   force =     0.00000000    0.00000000    0.00000000
     atom  284 type  3   force =     0.00000000    0.00000000    0.00000000
     atom  285 type  3   force =     0.00000000    0.00000000    0.00000000
     atom  286 type  3   force =     0.00000000    0.00000000    0.00000000
     atom  287 type  3   force =     0.00000000    0.00000000    0.00000000
     atom  288 type  3   force =     0.00000000    0.00000000    0.00000000
     atom  289 type  2   force =    -0.00157185   -0.00087795   -0.00038411
     atom  290 type  2   force =    -0.00157216   -0.00087733   -0.00038547
     atom  291 type  2   force =    -0.00157245   -0.00087714   -0.00038529
     atom  292 type  2   force =    -0.00157207   -0.00087730   -0.00038563
     atom  293 type  2   force =    -0.00157162   -0.00087692   -0.00038588
     atom  294 type  2   force =    -0.00157221   -0.00087771   -0.00038514
     atom  295 type  2   force =    -0.00157238   -0.00087760   -0.00038471
     atom  296 type  2   force =    -0.00157208   -0.00087727   -0.00038493
     atom  297 type  3   force =     0.00000000    0.00000000    0.00000000
     atom  298 type  3   force =     0.00000000    0.00000000    0.00000000
     atom  299 type  3   force =     0.00000000    0.00000000    0.00000000
     atom  300 type  3   force =     0.00000000    0.00000000    0.00000000
     atom  301 type  3   force =     0.00000000    0.00000000    0.00000000
     atom  302 type  3   force =     0.00000000    0.00000000    0.00000000
     atom  303 type  3   force =     0.00000000    0.00000000    0.00000000
     atom  304 type  3   force =     0.00000000    0.00000000    0.00000000
     atom  305 type  1   force =    -0.00412435    0.00325624    0.00297494
     atom  306 type  1   force =    -0.00412437    0.00325624    0.00297502
     atom  307 type  1   force =    -0.00412438    0.00325621    0.00297497
     atom  308 type  1   force =    -0.00412435    0.00325626    0.00297498
     atom  309 type  1   force =    -0.00412422    0.00325631    0.00297488
     atom  310 type  1   force =    -0.00412380    0.00325592    0.00297478
     atom  311 type  1   force =    -0.00412430    0.00325627    0.00297489
     atom  312 type  1   force =    -0.00412433    0.00325625    0.00297501
     atom  313 type  1   force =    -0.00666371   -0.01284252    0.00256032
     atom  314 type  1   force =    -0.00666356   -0.01284229    0.00256020
     atom  315 type  1   force =    -0.00666359   -0.01284250    0.00256035
     atom  316 type  1   force =    -0.00666362   -0.01284251    0.00256031
     atom  317 type  1   force =    -0.00666363   -0.01284244    0.00256027
     atom  318 type  1   force =    -0.00666279   -0.01284208    0.00256033
     atom  319 type  1   force =    -0.00666365   -0.01284248    0.00256023
     atom  320 type  1   force =    -0.00666360   -0.01284243    0.00256024
     atom  321 type  2   force =    -0.00232286    0.00172090   -0.00022373
     atom  322 type  2   force =    -0.00232284    0.00172099   -0.00022349
     atom  323 type  2   force =    -0.00232393    0.00172162   -0.00022355
     atom  324 type  2   force =    -0.00232299    0.00172095   -0.00022358
     atom  325 type  2   force =    -0.00232270    0.00172111   -0.00022356
     atom  326 type  2   force =    -0.00232284    0.00172046   -0.00022353
     atom  327 type  2   force =    -0.00232221    0.00172152   -0.00022430
     atom  328 type  2   force =    -0.00232293    0.00172113   -0.00022328
     atom  329 type  3   force =     0.00000000    0.00000000    0.00000000
     atom  330 type  3   force =     0.00000000    0.00000000    0.00000000
     atom  331 type  3   force =     0.00000000    0.00000000    0.00000000
     atom  332 type  3   force =     0.00000000    0.00000000    0.00000000
     atom  333 type  3   force =     0.00000000    0.00000000    0.00000000
     atom  334 type  3   force =     0.00000000    0.00000000    0.00000000
     atom  335 type  3   force =     0.00000000    0.00000000    0.00000000
     atom  336 type  3   force =     0.00000000    0.00000000    0.00000000
     atom  337 type  1   force =     0.01083134    0.00403863    0.00097756
     atom  338 type  1   force =     0.01083134    0.00403852    0.00097758
     atom  339 type  1   force =     0.01083172    0.00403878    0.00097747
     atom  340 type  1   force =     0.01083131    0.00403854    0.00097753
     atom  341 type  1   force =     0.01083134    0.00403857    0.00097749
     atom  342 type  1   force =     0.01083132    0.00403848    0.00097746
     atom  343 type  1   force =     0.01083139    0.00403859    0.00097753
     atom  344 type  1   force =     0.01083129    0.00403852    0.00097750
     atom  345 type  2   force =    -0.00380066    0.00229028    0.00000151
     atom  346 type  2   force =    -0.00380042    0.00229017    0.00000121
     atom  347 type  2   force =    -0.00380026    0.00229053    0.00000108
     atom  348 type  2   force =    -0.00380034    0.00229022    0.00000146
     atom  349 type  2   force =    -0.00379999    0.00229069    0.00000068
     atom  350 type  2   force =    -0.00380066    0.00228955    0.00000124
     atom  351 type  2   force =    -0.00380020    0.00229048    0.00000092
     atom  352 type  2   force =    -0.00380039    0.00229032    0.00000097
     atom  353 type  3   force =     0.00000000    0.00000000    0.00000000
     atom  354 type  3   force =     0.00000000    0.00000000    0.00000000
     atom  355 type  3   force =     0.00000000    0.00000000    0.00000000
     atom  356 type  3   force =     0.00000000    0.00000000    0.00000000
     atom  357 type  3   force =     0.00000000    0.00000000    0.00000000
     atom  358 type  3   force =     0.00000000    0.00000000    0.00000000
     atom  359 type  3   force =     0.00000000    0.00000000    0.00000000
     atom  360 type  3   force =     0.00000000    0.00000000    0.00000000
     atom  361 type  1   force =    -0.00438512   -0.00311529   -0.00260955
     atom  362 type  1   force =    -0.00438522   -0.00311525   -0.00260969
     atom  363 type  1   force =    -0.00438513   -0.00311497   -0.00260973
     atom  364 type  1   force =    -0.00438520   -0.00311523   -0.00260957
     atom  365 type  1   force =    -0.00438531   -0.00311529   -0.00260956
     atom  366 type  1   force =    -0.00438554   -0.00311538   -0.00260982
     atom  367 type  1   force =    -0.00438513   -0.00311522   -0.00260960
     atom  368 type  1   force =    -0.00438515   -0.00311519   -0.00260964
     atom  369 type  1   force =    -0.00481494    0.01340064   -0.00489580
     atom  370 type  1   force =    -0.00481507    0.01340064   -0.00489600
     atom  371 type  1   force =    -0.00481513    0.01340065   -0.00489602
     atom  372 type  1   force =    -0.00481506    0.01340066   -0.00489614
     atom  373 type  1   force =    -0.00481511    0.01340058   -0.00489602
     atom  374 type  1   force =    -0.00481506    0.01340057   -0.00489601
     atom  375 type  1   force =    -0.00481504    0.01340065   -0.00489609
     atom  376 type  1   force =    -0.00481513    0.01340064   -0.00489606
     atom  377 type  2   force =    -0.00179774   -0.00643129   -0.00006785
     atom  378 type  2   force =    -0.00179790   -0.00643141   -0.00006821
     atom  379 type  2   force =    -0.00179772   -0.00643126   -0.00006824
     atom  380 type  2   force =    -0.00179786   -0.00643124   -0.00006790
     atom  381 type  2   force =    -0.00179758   -0.00643106   -0.00006780
     atom  382 type  2   force =    -0.00179743   -0.00643176   -0.00006782
     atom  383 type  2   force =    -0.00179767   -0.00643115   -0.00006815
     atom  384 type  2   force =    -0.00179769   -0.00643111   -0.00006790
     atom  385 type  2   force =     0.00019461    0.00302156   -0.00027283
     atom  386 type  2   force =     0.00019476    0.00302146   -0.00027363
     atom  387 type  2   force =     0.00019491    0.00302139   -0.00027370
     atom  388 type  2   force =     0.00019472    0.00302137   -0.00027368
     atom  389 type  2   force =     0.00019492    0.00302184   -0.00027364
     atom  390 type  2   force =     0.00019465    0.00302174   -0.00027341
     atom  391 type  2   force =     0.00019451    0.00302151   -0.00027376
     atom  392 type  2   force =     0.00019463    0.00302145   -0.00027359
     atom  393 type  2   force =    -0.00277909   -0.00233772   -0.00032846
     atom  394 type  2   force =    -0.00278006   -0.00233797   -0.00032768
     atom  395 type  2   force =    -0.00277938   -0.00233787   -0.00032901
     atom  396 type  2   force =    -0.00277921   -0.00233803   -0.00032841
     atom  397 type  2   force =    -0.00277892   -0.00233798   -0.00032885
     atom  398 type  2   force =    -0.00277924   -0.00233901   -0.00032807
     atom  399 type  2   force =    -0.00277947   -0.00233778   -0.00032849
     atom  400 type  2   force =    -0.00277927   -0.00233805   -0.00032873
     atom  401 type  3   force =     0.00000000    0.00000000    0.00000000
     atom  402 type  3   force =     0.00000000    0.00000000    0.00000000
     atom  403 type  3   force =     0.00000000    0.00000000    0.00000000
     atom  404 type  3   force =     0.00000000    0.00000000    0.00000000
     atom  405 type  3   force =     0.00000000    0.00000000    0.00000000
     atom  406 type  3   force =     0.00000000    0.00000000    0.00000000
     atom  407 type  3   force =     0.00000000    0.00000000    0.00000000
     atom  408 type  3   force =     0.00000000    0.00000000    0.00000000
     atom  409 type  2   force =     0.00157216    0.00087731   -0.00038509
     atom  410 type  2   force =     0.00157242    0.00087771   -0.00038536
     atom  411 type  2   force =     0.00157213    0.00087730   -0.00038495
     atom  412 type  2   force =     0.00157185    0.00087711   -0.00038471
     atom  413 type  2   force =     0.00157222    0.00087766   -0.00038511
     atom  414 type  2   force =     0.00157231    0.00087752   -0.00038544
     atom  415 type  2   force =     0.00157237    0.00087764   -0.00038527
     atom  416 type  2   force =     0.00157229    0.00087756   -0.00038508
     atom  417 type  3   force =     0.00000000    0.00000000    0.00000000
     atom  418 type  3   force =     0.00000000    0.00000000    0.00000000
     atom  419 type  3   force =     0.00000000    0.00000000    0.00000000
     atom  420 type  3   force =     0.00000000    0.00000000    0.00000000
     atom  421 type  3   force =     0.00000000    0.00000000    0.00000000
     atom  422 type  3   force =     0.00000000    0.00000000    0.00000000
     atom  423 type  3   force =     0.00000000    0.00000000    0.00000000
     atom  424 type  3   force =     0.00000000    0.00000000    0.00000000
     atom  425 type  1   force =     0.00412424   -0.00325597    0.00297308
     atom  426 type  1   force =     0.00412457   -0.00325638    0.00297500
     atom  427 type  1   force =     0.00412432   -0.00325622    0.00297495
     atom  428 type  1   force =     0.00412426   -0.00325625    0.00297496
     atom  429 type  1   force =     0.00412425   -0.00325624    0.00297503
     atom  430 type  1   force =     0.00412436   -0.00325630    0.00297502
     atom  431 type  1   force =     0.00412423   -0.00325626    0.00297495
     atom  432 type  1   force =     0.00412414   -0.00325627    0.00297483
     atom  433 type  1   force =     0.00666482    0.01284347    0.00255919
     atom  434 type  1   force =     0.00666366    0.01284249    0.00256031
     atom  435 type  1   force =     0.00666373    0.01284249    0.00256033
     atom  436 type  1   force =     0.00666363    0.01284242    0.00256033
     atom  437 type  1   force =     0.00666381    0.01284269    0.00256015
     atom  438 type  1   force =     0.00666362    0.01284241    0.00256030
     atom  439 type  1   force =     0.00666362    0.01284244    0.00256024
     atom  440 type  1   force =     0.00666359    0.01284244    0.00256025
     atom  441 type  2   force =     0.00232282   -0.00172116   -0.00022327
     atom  442 type  2   force =     0.00232262   -0.00172081   -0.00022340
     atom  443 type  2   force =     0.00232273   -0.00172095   -0.00022363
     atom  444 type  2   force =     0.00232309   -0.00172087   -0.00022369
     atom  445 type  2   force =     0.00232329   -0.00172051   -0.00022438
     atom  446 type  2   force =     0.00232313   -0.00172107   -0.00022356
     atom  447 type  2   force =     0.00232275   -0.00172099   -0.00022360
     atom  448 type  2   force =     0.00232276   -0.00172056   -0.00022358
     atom  449 type  3   force =     0.00000000    0.00000000    0.00000000
     atom  450 type  3   force =     0.00000000    0.00000000    0.00000000
     atom  451 type  3   force =     0.00000000    0.00000000    0.00000000
     atom  452 type  3   force =     0.00000000    0.00000000    0.00000000
     atom  453 type  3   force =     0.00000000    0.00000000    0.00000000
     atom  454 type  3   force =     0.00000000    0.00000000    0.00000000
     atom  455 type  3   force =     0.00000000    0.00000000    0.00000000
     atom  456 type  3   force =     0.00000000    0.00000000    0.00000000
     atom  457 type  1   force =    -0.01083135   -0.00403859    0.00097744
     atom  458 type  1   force =    -0.01083140   -0.00403856    0.00097752
     atom  459 type  1   force =    -0.01083140   -0.00403855    0.00097756
     atom  460 type  1   force =    -0.01083133   -0.00403863    0.00097753
     atom  461 type  1   force =    -0.01083131   -0.00403854    0.00097749
     atom  462 type  1   force =    -0.01083143   -0.00403843    0.00097745
     atom  463 type  1   force =    -0.01083131   -0.00403857    0.00097744
     atom  464 type  1   force =    -0.01083116   -0.00403850    0.00097741
     atom  465 type  2   force =     0.00380055   -0.00228901   -0.00000101
     atom  466 type  2   force =     0.00380041   -0.00229036    0.00000107
     atom  467 type  2   force =     0.00380058   -0.00229036    0.00000144
     atom  468 type  2   force =     0.00380026   -0.00229041    0.00000081
     atom  469 type  2   force =     0.00379967   -0.00229088    0.00000161
     atom  470 type  2   force =     0.00380027   -0.00229061    0.00000106
     atom  471 type  2   force =     0.00380006   -0.00229040    0.00000119
     atom  472 type  2   force =     0.00380071   -0.00229001    0.00000066
     atom  473 type  3   force =     0.00000000    0.00000000    0.00000000
     atom  474 type  3   force =     0.00000000    0.00000000    0.00000000
     atom  475 type  3   force =     0.00000000    0.00000000    0.00000000
     atom  476 type  3   force =     0.00000000    0.00000000    0.00000000
     atom  477 type  3   force =     0.00000000    0.00000000    0.00000000
     atom  478 type  3   force =     0.00000000    0.00000000    0.00000000
     atom  479 type  3   force =     0.00000000    0.00000000    0.00000000
     atom  480 type  3   force =     0.00000000    0.00000000    0.00000000
     atom  481 type  4   force =     0.00000000    0.00000000    0.00000000
     atom  482 type  4   force =     0.00000000    0.00000000    0.00000000
     atom  483 type  4   force =     0.00000000    0.00000000    0.00000000
     atom  484 type  4   force =     0.00000000    0.00000000    0.00000000
     atom  485 type  4   force =     0.00000000    0.00000000    0.00000000
     atom  486 type  4   force =     0.00000000    0.00000000    0.00000000
     atom  487 type  4   force =     0.00000000    0.00000000    0.00000000
     atom  488 type  4   force =     0.00000000    0.00000000    0.00000000
     atom  489 type  4   force =     0.00000000    0.00000000    0.00000000
     atom  490 type  4   force =     0.00000000    0.00000000    0.00000000
     atom  491 type  4   force =     0.00000000    0.00000000    0.00000000
     atom  492 type  4   force =     0.00000000    0.00000000    0.00000000
     atom  493 type  4   force =     0.00000000    0.00000000    0.00000000
     atom  494 type  4   force =     0.00000000    0.00000000    0.00000000
     atom  495 type  4   force =     0.00000000    0.00000000    0.00000000
     atom  496 type  4   force =     0.00000000    0.00000000    0.00000000
     The Hubbard contrib.    to forces
     atom    1 type  1   force =     0.00000000    0.00000000    0.00000000
     atom    2 type  1   force =     0.00000000    0.00000000    0.00000000
     atom    3 type  1   force =     0.00000000    0.00000000    0.00000000
     atom    4 type  1   force =     0.00000000    0.00000000    0.00000000
     atom    5 type  1   force =     0.00000000    0.00000000    0.00000000
     atom    6 type  1   force =     0.00000000    0.00000000    0.00000000
     atom    7 type  1   force =     0.00000000    0.00000000    0.00000000
     atom    8 type  1   force =     0.00000000    0.00000000    0.00000000
     atom    9 type  1   force =     0.00000000    0.00000000    0.00000000
     atom   10 type  1   force =     0.00000000    0.00000000    0.00000000
     atom   11 type  1   force =     0.00000000    0.00000000    0.00000000
     atom   12 type  1   force =     0.00000000    0.00000000    0.00000000
     atom   13 type  1   force =     0.00000000    0.00000000    0.00000000
     atom   14 type  1   force =     0.00000000    0.00000000    0.00000000
     atom   15 type  1   force =     0.00000000    0.00000000    0.00000000
     atom   16 type  1   force =     0.00000000    0.00000000    0.00000000
     atom   17 type  2   force =     0.00000000    0.00000000    0.00000000
     atom   18 type  2   force =     0.00000000    0.00000000    0.00000000
     atom   19 type  2   force =     0.00000000    0.00000000    0.00000000
     atom   20 type  2   force =     0.00000000    0.00000000    0.00000000
     atom   21 type  2   force =     0.00000000    0.00000000    0.00000000
     atom   22 type  2   force =     0.00000000    0.00000000    0.00000000
     atom   23 type  2   force =     0.00000000    0.00000000    0.00000000
     atom   24 type  2   force =     0.00000000    0.00000000    0.00000000
     atom   25 type  2   force =     0.00000000    0.00000000    0.00000000
     atom   26 type  2   force =     0.00000000    0.00000000    0.00000000
     atom   27 type  2   force =     0.00000000    0.00000000    0.00000000
     atom   28 type  2   force =     0.00000000    0.00000000    0.00000000
     atom   29 type  2   force =     0.00000000    0.00000000    0.00000000
     atom   30 type  2   force =     0.00000000    0.00000000    0.00000000
     atom   31 type  2   force =     0.00000000    0.00000000    0.00000000
     atom   32 type  2   force =     0.00000000    0.00000000    0.00000000
     atom   33 type  2   force =     0.00000000    0.00000000    0.00000000
     atom   34 type  2   force =     0.00000000    0.00000000    0.00000000
     atom   35 type  2   force =     0.00000000    0.00000000    0.00000000
     atom   36 type  2   force =     0.00000000    0.00000000    0.00000000
     atom   37 type  2   force =     0.00000000    0.00000000    0.00000000
     atom   38 type  2   force =     0.00000000    0.00000000    0.00000000
     atom   39 type  2   force =     0.00000000    0.00000000    0.00000000
     atom   40 type  2   force =     0.00000000    0.00000000    0.00000000
     atom   41 type  3   force =     0.00000000    0.00000000    0.00000000
     atom   42 type  3   force =     0.00000000    0.00000000    0.00000000
     atom   43 type  3   force =     0.00000000    0.00000000    0.00000000
     atom   44 type  3   force =     0.00000000    0.00000000    0.00000000
     atom   45 type  3   force =     0.00000000    0.00000000    0.00000000
     atom   46 type  3   force =     0.00000000    0.00000000    0.00000000
     atom   47 type  3   force =     0.00000000    0.00000000    0.00000000
     atom   48 type  3   force =     0.00000000    0.00000000    0.00000000
     atom   49 type  2   force =     0.00000000    0.00000000    0.00000000
     atom   50 type  2   force =     0.00000000    0.00000000    0.00000000
     atom   51 type  2   force =     0.00000000    0.00000000    0.00000000
     atom   52 type  2   force =     0.00000000    0.00000000    0.00000000
     atom   53 type  2   force =     0.00000000    0.00000000    0.00000000
     atom   54 type  2   force =     0.00000000    0.00000000    0.00000000
     atom   55 type  2   force =     0.00000000    0.00000000    0.00000000
     atom   56 type  2   force =     0.00000000    0.00000000    0.00000000
     atom   57 type  3   force =     0.00000000    0.00000000    0.00000000
     atom   58 type  3   force =     0.00000000    0.00000000    0.00000000
     atom   59 type  3   force =     0.00000000    0.00000000    0.00000000
     atom   60 type  3   force =     0.00000000    0.00000000    0.00000000
     atom   61 type  3   force =     0.00000000    0.00000000    0.00000000
     atom   62 type  3   force =     0.00000000    0.00000000    0.00000000
     atom   63 type  3   force =     0.00000000    0.00000000    0.00000000
     atom   64 type  3   force =     0.00000000    0.00000000    0.00000000
     atom   65 type  1   force =     0.00000000    0.00000000    0.00000000
     atom   66 type  1   force =     0.00000000    0.00000000    0.00000000
     atom   67 type  1   force =     0.00000000    0.00000000    0.00000000
     atom   68 type  1   force =     0.00000000    0.00000000    0.00000000
     atom   69 type  1   force =     0.00000000    0.00000000    0.00000000
     atom   70 type  1   force =     0.00000000    0.00000000    0.00000000
     atom   71 type  1   force =     0.00000000    0.00000000    0.00000000
     atom   72 type  1   force =     0.00000000    0.00000000    0.00000000
     atom   73 type  1   force =     0.00000000    0.00000000    0.00000000
     atom   74 type  1   force =     0.00000000    0.00000000    0.00000000
     atom   75 type  1   force =     0.00000000    0.00000000    0.00000000
     atom   76 type  1   force =     0.00000000    0.00000000    0.00000000
     atom   77 type  1   force =     0.00000000    0.00000000    0.00000000
     atom   78 type  1   force =     0.00000000    0.00000000    0.00000000
     atom   79 type  1   force =     0.00000000    0.00000000    0.00000000
     atom   80 type  1   force =     0.00000000    0.00000000    0.00000000
     atom   81 type  2   force =     0.00000000    0.00000000    0.00000000
     atom   82 type  2   force =     0.00000000    0.00000000    0.00000000
     atom   83 type  2   force =     0.00000000    0.00000000    0.00000000
     atom   84 type  2   force =     0.00000000    0.00000000    0.00000000
     atom   85 type  2   force =     0.00000000    0.00000000    0.00000000
     atom   86 type  2   force =     0.00000000    0.00000000    0.00000000
     atom   87 type  2   force =     0.00000000    0.00000000    0.00000000
     atom   88 type  2   force =     0.00000000    0.00000000    0.00000000
     atom   89 type  3   force =     0.00000000    0.00000000    0.00000000
     atom   90 type  3   force =     0.00000000    0.00000000    0.00000000
     atom   91 type  3   force =     0.00000000    0.00000000    0.00000000
     atom   92 type  3   force =     0.00000000    0.00000000    0.00000000
     atom   93 type  3   force =     0.00000000    0.00000000    0.00000000
     atom   94 type  3   force =     0.00000000    0.00000000    0.00000000
     atom   95 type  3   force =     0.00000000    0.00000000    0.00000000
     atom   96 type  3   force =     0.00000000    0.00000000    0.00000000
     atom   97 type  1   force =     0.00000000    0.00000000    0.00000000
     atom   98 type  1   force =     0.00000000    0.00000000    0.00000000
     atom   99 type  1   force =     0.00000000    0.00000000    0.00000000
     atom  100 type  1   force =     0.00000000    0.00000000    0.00000000
     atom  101 type  1   force =     0.00000000    0.00000000    0.00000000
     atom  102 type  1   force =     0.00000000    0.00000000    0.00000000
     atom  103 type  1   force =     0.00000000    0.00000000    0.00000000
     atom  104 type  1   force =     0.00000000    0.00000000    0.00000000
     atom  105 type  2   force =     0.00000000    0.00000000    0.00000000
     atom  106 type  2   force =     0.00000000    0.00000000    0.00000000
     atom  107 type  2   force =     0.00000000    0.00000000    0.00000000
     atom  108 type  2   force =     0.00000000    0.00000000    0.00000000
     atom  109 type  2   force =     0.00000000    0.00000000    0.00000000
     atom  110 type  2   force =     0.00000000    0.00000000    0.00000000
     atom  111 type  2   force =     0.00000000    0.00000000    0.00000000
     atom  112 type  2   force =     0.00000000    0.00000000    0.00000000
     atom  113 type  3   force =     0.00000000    0.00000000    0.00000000
     atom  114 type  3   force =     0.00000000    0.00000000    0.00000000
     atom  115 type  3   force =     0.00000000    0.00000000    0.00000000
     atom  116 type  3   force =     0.00000000    0.00000000    0.00000000
     atom  117 type  3   force =     0.00000000    0.00000000    0.00000000
     atom  118 type  3   force =     0.00000000    0.00000000    0.00000000
     atom  119 type  3   force =     0.00000000    0.00000000    0.00000000
     atom  120 type  3   force =     0.00000000    0.00000000    0.00000000
     atom  121 type  1   force =     0.00000000    0.00000000    0.00000000
     atom  122 type  1   force =     0.00000000    0.00000000    0.00000000
     atom  123 type  1   force =     0.00000000    0.00000000    0.00000000
     atom  124 type  1   force =     0.00000000    0.00000000    0.00000000
     atom  125 type  1   force =     0.00000000    0.00000000    0.00000000
     atom  126 type  1   force =     0.00000000    0.00000000    0.00000000
     atom  127 type  1   force =     0.00000000    0.00000000    0.00000000
     atom  128 type  1   force =     0.00000000    0.00000000    0.00000000
     atom  129 type  1   force =     0.00000000    0.00000000    0.00000000
     atom  130 type  1   force =     0.00000000    0.00000000    0.00000000
     atom  131 type  1   force =     0.00000000    0.00000000    0.00000000
     atom  132 type  1   force =     0.00000000    0.00000000    0.00000000
     atom  133 type  1   force =     0.00000000    0.00000000    0.00000000
     atom  134 type  1   force =     0.00000000    0.00000000    0.00000000
     atom  135 type  1   force =     0.00000000    0.00000000    0.00000000
     atom  136 type  1   force =     0.00000000    0.00000000    0.00000000
     atom  137 type  2   force =     0.00000000    0.00000000    0.00000000
     atom  138 type  2   force =     0.00000000    0.00000000    0.00000000
     atom  139 type  2   force =     0.00000000    0.00000000    0.00000000
     atom  140 type  2   force =     0.00000000    0.00000000    0.00000000
     atom  141 type  2   force =     0.00000000    0.00000000    0.00000000
     atom  142 type  2   force =     0.00000000    0.00000000    0.00000000
     atom  143 type  2   force =     0.00000000    0.00000000    0.00000000
     atom  144 type  2   force =     0.00000000    0.00000000    0.00000000
     atom  145 type  2   force =     0.00000000    0.00000000    0.00000000
     atom  146 type  2   force =     0.00000000    0.00000000    0.00000000
     atom  147 type  2   force =     0.00000000    0.00000000    0.00000000
     atom  148 type  2   force =     0.00000000    0.00000000    0.00000000
     atom  149 type  2   force =     0.00000000    0.00000000    0.00000000
     atom  150 type  2   force =     0.00000000    0.00000000    0.00000000
     atom  151 type  2   force =     0.00000000    0.00000000    0.00000000
     atom  152 type  2   force =     0.00000000    0.00000000    0.00000000
     atom  153 type  2   force =     0.00000000    0.00000000    0.00000000
     atom  154 type  2   force =     0.00000000    0.00000000    0.00000000
     atom  155 type  2   force =     0.00000000    0.00000000    0.00000000
     atom  156 type  2   force =     0.00000000    0.00000000    0.00000000
     atom  157 type  2   force =     0.00000000    0.00000000    0.00000000
     atom  158 type  2   force =     0.00000000    0.00000000    0.00000000
     atom  159 type  2   force =     0.00000000    0.00000000    0.00000000
     atom  160 type  2   force =     0.00000000    0.00000000    0.00000000
     atom  161 type  3   force =     0.00000000    0.00000000    0.00000000
     atom  162 type  3   force =     0.00000000    0.00000000    0.00000000
     atom  163 type  3   force =     0.00000000    0.00000000    0.00000000
     atom  164 type  3   force =     0.00000000    0.00000000    0.00000000
     atom  165 type  3   force =     0.00000000    0.00000000    0.00000000
     atom  166 type  3   force =     0.00000000    0.00000000    0.00000000
     atom  167 type  3   force =     0.00000000    0.00000000    0.00000000
     atom  168 type  3   force =     0.00000000    0.00000000    0.00000000
     atom  169 type  2   force =     0.00000000    0.00000000    0.00000000
     atom  170 type  2   force =     0.00000000    0.00000000    0.00000000
     atom  171 type  2   force =     0.00000000    0.00000000    0.00000000
     atom  172 type  2   force =     0.00000000    0.00000000    0.00000000
     atom  173 type  2   force =     0.00000000    0.00000000    0.00000000
     atom  174 type  2   force =     0.00000000    0.00000000    0.00000000
     atom  175 type  2   force =     0.00000000    0.00000000    0.00000000
     atom  176 type  2   force =     0.00000000    0.00000000    0.00000000
     atom  177 type  3   force =     0.00000000    0.00000000    0.00000000
     atom  178 type  3   force =     0.00000000    0.00000000    0.00000000
     atom  179 type  3   force =     0.00000000    0.00000000    0.00000000
     atom  180 type  3   force =     0.00000000    0.00000000    0.00000000
     atom  181 type  3   force =     0.00000000    0.00000000    0.00000000
     atom  182 type  3   force =     0.00000000    0.00000000    0.00000000
     atom  183 type  3   force =     0.00000000    0.00000000    0.00000000
     atom  184 type  3   force =     0.00000000    0.00000000    0.00000000
     atom  185 type  1   force =     0.00000000    0.00000000    0.00000000
     atom  186 type  1   force =     0.00000000    0.00000000    0.00000000
     atom  187 type  1   force =     0.00000000    0.00000000    0.00000000
     atom  188 type  1   force =     0.00000000    0.00000000    0.00000000
     atom  189 type  1   force =     0.00000000    0.00000000    0.00000000
     atom  190 type  1   force =     0.00000000    0.00000000    0.00000000
     atom  191 type  1   force =     0.00000000    0.00000000    0.00000000
     atom  192 type  1   force =     0.00000000    0.00000000    0.00000000
     atom  193 type  1   force =     0.00000000    0.00000000    0.00000000
     atom  194 type  1   force =     0.00000000    0.00000000    0.00000000
     atom  195 type  1   force =     0.00000000    0.00000000    0.00000000
     atom  196 type  1   force =     0.00000000    0.00000000    0.00000000
     atom  197 type  1   force =     0.00000000    0.00000000    0.00000000
     atom  198 type  1   force =     0.00000000    0.00000000    0.00000000
     atom  199 type  1   force =     0.00000000    0.00000000    0.00000000
     atom  200 type  1   force =     0.00000000    0.00000000    0.00000000
     atom  201 type  2   force =     0.00000000    0.00000000    0.00000000
     atom  202 type  2   force =     0.00000000    0.00000000    0.00000000
     atom  203 type  2   force =     0.00000000    0.00000000    0.00000000
     atom  204 type  2   force =     0.00000000    0.00000000    0.00000000
     atom  205 type  2   force =     0.00000000    0.00000000    0.00000000
     atom  206 type  2   force =     0.00000000    0.00000000    0.00000000
     atom  207 type  2   force =     0.00000000    0.00000000    0.00000000
     atom  208 type  2   force =     0.00000000    0.00000000    0.00000000
     atom  209 type  3   force =     0.00000000    0.00000000    0.00000000
     atom  210 type  3   force =     0.00000000    0.00000000    0.00000000
     atom  211 type  3   force =     0.00000000    0.00000000    0.00000000
     atom  212 type  3   force =     0.00000000    0.00000000    0.00000000
     atom  213 type  3   force =     0.00000000    0.00000000    0.00000000
     atom  214 type  3   force =     0.00000000    0.00000000    0.00000000
     atom  215 type  3   force =     0.00000000    0.00000000    0.00000000
     atom  216 type  3   force =     0.00000000    0.00000000    0.00000000
     atom  217 type  1   force =     0.00000000    0.00000000    0.00000000
     atom  218 type  1   force =     0.00000000    0.00000000    0.00000000
     atom  219 type  1   force =     0.00000000    0.00000000    0.00000000
     atom  220 type  1   force =     0.00000000    0.00000000    0.00000000
     atom  221 type  1   force =     0.00000000    0.00000000    0.00000000
     atom  222 type  1   force =     0.00000000    0.00000000    0.00000000
     atom  223 type  1   force =     0.00000000    0.00000000    0.00000000
     atom  224 type  1   force =     0.00000000    0.00000000    0.00000000
     atom  225 type  2   force =     0.00000000    0.00000000    0.00000000
     atom  226 type  2   force =     0.00000000    0.00000000    0.00000000
     atom  227 type  2   force =     0.00000000    0.00000000    0.00000000
     atom  228 type  2   force =     0.00000000    0.00000000    0.00000000
     atom  229 type  2   force =     0.00000000    0.00000000    0.00000000
     atom  230 type  2   force =     0.00000000    0.00000000    0.00000000
     atom  231 type  2   force =     0.00000000    0.00000000    0.00000000
     atom  232 type  2   force =     0.00000000    0.00000000    0.00000000
     atom  233 type  3   force =     0.00000000    0.00000000    0.00000000
     atom  234 type  3   force =     0.00000000    0.00000000    0.00000000
     atom  235 type  3   force =     0.00000000    0.00000000    0.00000000
     atom  236 type  3   force =     0.00000000    0.00000000    0.00000000
     atom  237 type  3   force =     0.00000000    0.00000000    0.00000000
     atom  238 type  3   force =     0.00000000    0.00000000    0.00000000
     atom  239 type  3   force =     0.00000000    0.00000000    0.00000000
     atom  240 type  3   force =     0.00000000    0.00000000    0.00000000
     atom  241 type  1   force =     0.00000000    0.00000000    0.00000000
     atom  242 type  1   force =     0.00000000    0.00000000    0.00000000
     atom  243 type  1   force =     0.00000000    0.00000000    0.00000000
     atom  244 type  1   force =     0.00000000    0.00000000    0.00000000
     atom  245 type  1   force =     0.00000000    0.00000000    0.00000000
     atom  246 type  1   force =     0.00000000    0.00000000    0.00000000
     atom  247 type  1   force =     0.00000000    0.00000000    0.00000000
     atom  248 type  1   force =     0.00000000    0.00000000    0.00000000
     atom  249 type  1   force =     0.00000000    0.00000000    0.00000000
     atom  250 type  1   force =     0.00000000    0.00000000    0.00000000
     atom  251 type  1   force =     0.00000000    0.00000000    0.00000000
     atom  252 type  1   force =     0.00000000    0.00000000    0.00000000
     atom  253 type  1   force =     0.00000000    0.00000000    0.00000000
     atom  254 type  1   force =     0.00000000    0.00000000    0.00000000
     atom  255 type  1   force =     0.00000000    0.00000000    0.00000000
     atom  256 type  1   force =     0.00000000    0.00000000    0.00000000
     atom  257 type  2   force =     0.00000000    0.00000000    0.00000000
     atom  258 type  2   force =     0.00000000    0.00000000    0.00000000
     atom  259 type  2   force =     0.00000000    0.00000000    0.00000000
     atom  260 type  2   force =     0.00000000    0.00000000    0.00000000
     atom  261 type  2   force =     0.00000000    0.00000000    0.00000000
     atom  262 type  2   force =     0.00000000    0.00000000    0.00000000
     atom  263 type  2   force =     0.00000000    0.00000000    0.00000000
     atom  264 type  2   force =     0.00000000    0.00000000    0.00000000
     atom  265 type  2   force =     0.00000000    0.00000000    0.00000000
     atom  266 type  2   force =     0.00000000    0.00000000    0.00000000
     atom  267 type  2   force =     0.00000000    0.00000000    0.00000000
     atom  268 type  2   force =     0.00000000    0.00000000    0.00000000
     atom  269 type  2   force =     0.00000000    0.00000000    0.00000000
     atom  270 type  2   force =     0.00000000    0.00000000    0.00000000
     atom  271 type  2   force =     0.00000000    0.00000000    0.00000000
     atom  272 type  2   force =     0.00000000    0.00000000    0.00000000
     atom  273 type  2   force =     0.00000000    0.00000000    0.00000000
     atom  274 type  2   force =     0.00000000    0.00000000    0.00000000
     atom  275 type  2   force =     0.00000000    0.00000000    0.00000000
     atom  276 type  2   force =     0.00000000    0.00000000    0.00000000
     atom  277 type  2   force =     0.00000000    0.00000000    0.00000000
     atom  278 type  2   force =     0.00000000    0.00000000    0.00000000
     atom  279 type  2   force =     0.00000000    0.00000000    0.00000000
     atom  280 type  2   force =     0.00000000    0.00000000    0.00000000
     atom  281 type  3   force =     0.00000000    0.00000000    0.00000000
     atom  282 type  3   force =     0.00000000    0.00000000    0.00000000
     atom  283 type  3   force =     0.00000000    0.00000000    0.00000000
     atom  284 type  3   force =     0.00000000    0.00000000    0.00000000
     atom  285 type  3   force =     0.00000000    0.00000000    0.00000000
     atom  286 type  3   force =     0.00000000    0.00000000    0.00000000
     atom  287 type  3   force =     0.00000000    0.00000000    0.00000000
     atom  288 type  3   force =     0.00000000    0.00000000    0.00000000
     atom  289 type  2   force =     0.00000000    0.00000000    0.00000000
     atom  290 type  2   force =     0.00000000    0.00000000    0.00000000
     atom  291 type  2   force =     0.00000000    0.00000000    0.00000000
     atom  292 type  2   force =     0.00000000    0.00000000    0.00000000
     atom  293 type  2   force =     0.00000000    0.00000000    0.00000000
     atom  294 type  2   force =     0.00000000    0.00000000    0.00000000
     atom  295 type  2   force =     0.00000000    0.00000000    0.00000000
     atom  296 type  2   force =     0.00000000    0.00000000    0.00000000
     atom  297 type  3   force =     0.00000000    0.00000000    0.00000000
     atom  298 type  3   force =     0.00000000    0.00000000    0.00000000
     atom  299 type  3   force =     0.00000000    0.00000000    0.00000000
     atom  300 type  3   force =     0.00000000    0.00000000    0.00000000
     atom  301 type  3   force =     0.00000000    0.00000000    0.00000000
     atom  302 type  3   force =     0.00000000    0.00000000    0.00000000
     atom  303 type  3   force =     0.00000000    0.00000000    0.00000000
     atom  304 type  3   force =     0.00000000    0.00000000    0.00000000
     atom  305 type  1   force =     0.00000000    0.00000000    0.00000000
     atom  306 type  1   force =     0.00000000    0.00000000    0.00000000
     atom  307 type  1   force =     0.00000000    0.00000000    0.00000000
     atom  308 type  1   force =     0.00000000    0.00000000    0.00000000
     atom  309 type  1   force =     0.00000000    0.00000000    0.00000000
     atom  310 type  1   force =     0.00000000    0.00000000    0.00000000
     atom  311 type  1   force =     0.00000000    0.00000000    0.00000000
     atom  312 type  1   force =     0.00000000    0.00000000    0.00000000
     atom  313 type  1   force =     0.00000000    0.00000000    0.00000000
     atom  314 type  1   force =     0.00000000    0.00000000    0.00000000
     atom  315 type  1   force =     0.00000000    0.00000000    0.00000000
     atom  316 type  1   force =     0.00000000    0.00000000    0.00000000
     atom  317 type  1   force =     0.00000000    0.00000000    0.00000000
     atom  318 type  1   force =     0.00000000    0.00000000    0.00000000
     atom  319 type  1   force =     0.00000000    0.00000000    0.00000000
     atom  320 type  1   force =     0.00000000    0.00000000    0.00000000
     atom  321 type  2   force =     0.00000000    0.00000000    0.00000000
     atom  322 type  2   force =     0.00000000    0.00000000    0.00000000
     atom  323 type  2   force =     0.00000000    0.00000000    0.00000000
     atom  324 type  2   force =     0.00000000    0.00000000    0.00000000
     atom  325 type  2   force =     0.00000000    0.00000000    0.00000000
     atom  326 type  2   force =     0.00000000    0.00000000    0.00000000
     atom  327 type  2   force =     0.00000000    0.00000000    0.00000000
     atom  328 type  2   force =     0.00000000    0.00000000    0.00000000
     atom  329 type  3   force =     0.00000000    0.00000000    0.00000000
     atom  330 type  3   force =     0.00000000    0.00000000    0.00000000
     atom  331 type  3   force =     0.00000000    0.00000000    0.00000000
     atom  332 type  3   force =     0.00000000    0.00000000    0.00000000
     atom  333 type  3   force =     0.00000000    0.00000000    0.00000000
     atom  334 type  3   force =     0.00000000    0.00000000    0.00000000
     atom  335 type  3   force =     0.00000000    0.00000000    0.00000000
     atom  336 type  3   force =     0.00000000    0.00000000    0.00000000
     atom  337 type  1   force =     0.00000000    0.00000000    0.00000000
     atom  338 type  1   force =     0.00000000    0.00000000    0.00000000
     atom  339 type  1   force =     0.00000000    0.00000000    0.00000000
     atom  340 type  1   force =     0.00000000    0.00000000    0.00000000
     atom  341 type  1   force =     0.00000000    0.00000000    0.00000000
     atom  342 type  1   force =     0.00000000    0.00000000    0.00000000
     atom  343 type  1   force =     0.00000000    0.00000000    0.00000000
     atom  344 type  1   force =     0.00000000    0.00000000    0.00000000
     atom  345 type  2   force =     0.00000000    0.00000000    0.00000000
     atom  346 type  2   force =     0.00000000    0.00000000    0.00000000
     atom  347 type  2   force =     0.00000000    0.00000000    0.00000000
     atom  348 type  2   force =     0.00000000    0.00000000    0.00000000
     atom  349 type  2   force =     0.00000000    0.00000000    0.00000000
     atom  350 type  2   force =     0.00000000    0.00000000    0.00000000
     atom  351 type  2   force =     0.00000000    0.00000000    0.00000000
     atom  352 type  2   force =     0.00000000    0.00000000    0.00000000
     atom  353 type  3   force =     0.00000000    0.00000000    0.00000000
     atom  354 type  3   force =     0.00000000    0.00000000    0.00000000
     atom  355 type  3   force =     0.00000000    0.00000000    0.00000000
     atom  356 type  3   force =     0.00000000    0.00000000    0.00000000
     atom  357 type  3   force =     0.00000000    0.00000000    0.00000000
     atom  358 type  3   force =     0.00000000    0.00000000    0.00000000
     atom  359 type  3   force =     0.00000000    0.00000000    0.00000000
     atom  360 type  3   force =     0.00000000    0.00000000    0.00000000
     atom  361 type  1   force =     0.00000000    0.00000000    0.00000000
     atom  362 type  1   force =     0.00000000    0.00000000    0.00000000
     atom  363 type  1   force =     0.00000000    0.00000000    0.00000000
     atom  364 type  1   force =     0.00000000    0.00000000    0.00000000
     atom  365 type  1   force =     0.00000000    0.00000000    0.00000000
     atom  366 type  1   force =     0.00000000    0.00000000    0.00000000
     atom  367 type  1   force =     0.00000000    0.00000000    0.00000000
     atom  368 type  1   force =     0.00000000    0.00000000    0.00000000
     atom  369 type  1   force =     0.00000000    0.00000000    0.00000000
     atom  370 type  1   force =     0.00000000    0.00000000    0.00000000
     atom  371 type  1   force =     0.00000000    0.00000000    0.00000000
     atom  372 type  1   force =     0.00000000    0.00000000    0.00000000
     atom  373 type  1   force =     0.00000000    0.00000000    0.00000000
     atom  374 type  1   force =     0.00000000    0.00000000    0.00000000
     atom  375 type  1   force =     0.00000000    0.00000000    0.00000000
     atom  376 type  1   force =     0.00000000    0.00000000    0.00000000
     atom  377 type  2   force =     0.00000000    0.00000000    0.00000000
     atom  378 type  2   force =     0.00000000    0.00000000    0.00000000
     atom  379 type  2   force =     0.00000000    0.00000000    0.00000000
     atom  380 type  2   force =     0.00000000    0.00000000    0.00000000
     atom  381 type  2   force =     0.00000000    0.00000000    0.00000000
     atom  382 type  2   force =     0.00000000    0.00000000    0.00000000
     atom  383 type  2   force =     0.00000000    0.00000000    0.00000000
     atom  384 type  2   force =     0.00000000    0.00000000    0.00000000
     atom  385 type  2   force =     0.00000000    0.00000000    0.00000000
     atom  386 type  2   force =     0.00000000    0.00000000    0.00000000
     atom  387 type  2   force =     0.00000000    0.00000000    0.00000000
     atom  388 type  2   force =     0.00000000    0.00000000    0.00000000
     atom  389 type  2   force =     0.00000000    0.00000000    0.00000000
     atom  390 type  2   force =     0.00000000    0.00000000    0.00000000
     atom  391 type  2   force =     0.00000000    0.00000000    0.00000000
     atom  392 type  2   force =     0.00000000    0.00000000    0.00000000
     atom  393 type  2   force =     0.00000000    0.00000000    0.00000000
     atom  394 type  2   force =     0.00000000    0.00000000    0.00000000
     atom  395 type  2   force =     0.00000000    0.00000000    0.00000000
     atom  396 type  2   force =     0.00000000    0.00000000    0.00000000
     atom  397 type  2   force =     0.00000000    0.00000000    0.00000000
     atom  398 type  2   force =     0.00000000    0.00000000    0.00000000
     atom  399 type  2   force =     0.00000000    0.00000000    0.00000000
     atom  400 type  2   force =     0.00000000    0.00000000    0.00000000
     atom  401 type  3   force =     0.00000000    0.00000000    0.00000000
     atom  402 type  3   force =     0.00000000    0.00000000    0.00000000
     atom  403 type  3   force =     0.00000000    0.00000000    0.00000000
     atom  404 type  3   force =     0.00000000    0.00000000    0.00000000
     atom  405 type  3   force =     0.00000000    0.00000000    0.00000000
     atom  406 type  3   force =     0.00000000    0.00000000    0.00000000
     atom  407 type  3   force =     0.00000000    0.00000000    0.00000000
     atom  408 type  3   force =     0.00000000    0.00000000    0.00000000
     atom  409 type  2   force =     0.00000000    0.00000000    0.00000000
     atom  410 type  2   force =     0.00000000    0.00000000    0.00000000
     atom  411 type  2   force =     0.00000000    0.00000000    0.00000000
     atom  412 type  2   force =     0.00000000    0.00000000    0.00000000
     atom  413 type  2   force =     0.00000000    0.00000000    0.00000000
     atom  414 type  2   force =     0.00000000    0.00000000    0.00000000
     atom  415 type  2   force =     0.00000000    0.00000000    0.00000000
     atom  416 type  2   force =     0.00000000    0.00000000    0.00000000
     atom  417 type  3   force =     0.00000000    0.00000000    0.00000000
     atom  418 type  3   force =     0.00000000    0.00000000    0.00000000
     atom  419 type  3   force =     0.00000000    0.00000000    0.00000000
     atom  420 type  3   force =     0.00000000    0.00000000    0.00000000
     atom  421 type  3   force =     0.00000000    0.00000000    0.00000000
     atom  422 type  3   force =     0.00000000    0.00000000    0.00000000
     atom  423 type  3   force =     0.00000000    0.00000000    0.00000000
     atom  424 type  3   force =     0.00000000    0.00000000    0.00000000
     atom  425 type  1   force =     0.00000000    0.00000000    0.00000000
     atom  426 type  1   force =     0.00000000    0.00000000    0.00000000
     atom  427 type  1   force =     0.00000000    0.00000000    0.00000000
     atom  428 type  1   force =     0.00000000    0.00000000    0.00000000
     atom  429 type  1   force =     0.00000000    0.00000000    0.00000000
     atom  430 type  1   force =     0.00000000    0.00000000    0.00000000
     atom  431 type  1   force =     0.00000000    0.00000000    0.00000000
     atom  432 type  1   force =     0.00000000    0.00000000    0.00000000
     atom  433 type  1   force =     0.00000000    0.00000000    0.00000000
     atom  434 type  1   force =     0.00000000    0.00000000    0.00000000
     atom  435 type  1   force =     0.00000000    0.00000000    0.00000000
     atom  436 type  1   force =     0.00000000    0.00000000    0.00000000
     atom  437 type  1   force =     0.00000000    0.00000000    0.00000000
     atom  438 type  1   force =     0.00000000    0.00000000    0.00000000
     atom  439 type  1   force =     0.00000000    0.00000000    0.00000000
     atom  440 type  1   force =     0.00000000    0.00000000    0.00000000
     atom  441 type  2   force =     0.00000000    0.00000000    0.00000000
     atom  442 type  2   force =     0.00000000    0.00000000    0.00000000
     atom  443 type  2   force =     0.00000000    0.00000000    0.00000000
     atom  444 type  2   force =     0.00000000    0.00000000    0.00000000
     atom  445 type  2   force =     0.00000000    0.00000000    0.00000000
     atom  446 type  2   force =     0.00000000    0.00000000    0.00000000
     atom  447 type  2   force =     0.00000000    0.00000000    0.00000000
     atom  448 type  2   force =     0.00000000    0.00000000    0.00000000
     atom  449 type  3   force =     0.00000000    0.00000000    0.00000000
     atom  450 type  3   force =     0.00000000    0.00000000    0.00000000
     atom  451 type  3   force =     0.00000000    0.00000000    0.00000000
     atom  452 type  3   force =     0.00000000    0.00000000    0.00000000
     atom  453 type  3   force =     0.00000000    0.00000000    0.00000000
     atom  454 type  3   force =     0.00000000    0.00000000    0.00000000
     atom  455 type  3   force =     0.00000000    0.00000000    0.00000000
     atom  456 type  3   force =     0.00000000    0.00000000    0.00000000
     atom  457 type  1   force =     0.00000000    0.00000000    0.00000000
     atom  458 type  1   force =     0.00000000    0.00000000    0.00000000
     atom  459 type  1   force =     0.00000000    0.00000000    0.00000000
     atom  460 type  1   force =     0.00000000    0.00000000    0.00000000
     atom  461 type  1   force =     0.00000000    0.00000000    0.00000000
     atom  462 type  1   force =     0.00000000    0.00000000    0.00000000
     atom  463 type  1   force =     0.00000000    0.00000000    0.00000000
     atom  464 type  1   force =     0.00000000    0.00000000    0.00000000
     atom  465 type  2   force =     0.00000000    0.00000000    0.00000000
     atom  466 type  2   force =     0.00000000    0.00000000    0.00000000
     atom  467 type  2   force =     0.00000000    0.00000000    0.00000000
     atom  468 type  2   force =     0.00000000    0.00000000    0.00000000
     atom  469 type  2   force =     0.00000000    0.00000000    0.00000000
     atom  470 type  2   force =     0.00000000    0.00000000    0.00000000
     atom  471 type  2   force =     0.00000000    0.00000000    0.00000000
     atom  472 type  2   force =     0.00000000    0.00000000    0.00000000
     atom  473 type  3   force =     0.00000000    0.00000000    0.00000000
     atom  474 type  3   force =     0.00000000    0.00000000    0.00000000
     atom  475 type  3   force =     0.00000000    0.00000000    0.00000000
     atom  476 type  3   force =     0.00000000    0.00000000    0.00000000
     atom  477 type  3   force =     0.00000000    0.00000000    0.00000000
     atom  478 type  3   force =     0.00000000    0.00000000    0.00000000
     atom  479 type  3   force =     0.00000000    0.00000000    0.00000000
     atom  480 type  3   force =     0.00000000    0.00000000    0.00000000
     atom  481 type  4   force =     0.00000000    0.00000000    0.00000000
     atom  482 type  4   force =     0.00000000    0.00000000    0.00000000
     atom  483 type  4   force =     0.00000000    0.00000000    0.00000000
     atom  484 type  4   force =     0.00000000    0.00000000    0.00000000
     atom  485 type  4   force =     0.00000000    0.00000000    0.00000000
     atom  486 type  4   force =     0.00000000    0.00000000    0.00000000
     atom  487 type  4   force =     0.00000000    0.00000000    0.00000000
     atom  488 type  4   force =     0.00000000    0.00000000    0.00000000
     atom  489 type  4   force =     0.00000000    0.00000000    0.00000000
     atom  490 type  4   force =     0.00000000    0.00000000    0.00000000
     atom  491 type  4   force =     0.00000000    0.00000000    0.00000000
     atom  492 type  4   force =     0.00000000    0.00000000    0.00000000
     atom  493 type  4   force =     0.00000000    0.00000000    0.00000000
     atom  494 type  4   force =     0.00000000    0.00000000    0.00000000
     atom  495 type  4   force =     0.00000000    0.00000000    0.00000000
     atom  496 type  4   force =     0.00000000    0.00000000    0.00000000
     The SCF correction term to forces
     atom    1 type  1   force =    -0.00000752    0.00000123    0.00000082
     atom    2 type  1   force =    -0.00000530    0.00000653    0.00000364
     atom    3 type  1   force =    -0.00000587    0.00000470    0.00000161
     atom    4 type  1   force =    -0.00000653    0.00000204    0.00000030
     atom    5 type  1   force =     0.00000163    0.00000899    0.00000476
     atom    6 type  1   force =    -0.00000212    0.00000581    0.00000257
     atom    7 type  1   force =     0.00000017    0.00000520    0.00000238
     atom    8 type  1   force =     0.00000119    0.00000822    0.00000453
     atom    9 type  1   force =    -0.00001158    0.00000473    0.00000333
     atom   10 type  1   force =    -0.00000662   -0.00000305   -0.00000084
     atom   11 type  1   force =    -0.00000678   -0.00000180   -0.00000098
     atom   12 type  1   force =    -0.00000924    0.00000156    0.00000108
     atom   13 type  1   force =    -0.00000678    0.00000339    0.00000138
     atom   14 type  1   force =    -0.00000940    0.00000828    0.00000427
     atom   15 type  1   force =    -0.00000854    0.00000610    0.00000338
     atom   16 type  1   force =    -0.00000509    0.00000131    0.00000055
     atom   17 type  2   force =    -0.00000034   -0.00000410    0.00000003
     atom   18 type  2   force =    -0.00000070   -0.00000764   -0.00000106
     atom   19 type  2   force =    -0.00000121   -0.00000806   -0.00000149
     atom   20 type  2   force =    -0.00000070   -0.00000504   -0.00000118
     atom   21 type  2   force =    -0.00000077   -0.00000459   -0.00000049
     atom   22 type  2   force =    -0.00000147   -0.00000453    0.00000005
     atom   23 type  2   force =    -0.00000147   -0.00000496   -0.00000013
     atom   24 type  2   force =    -0.00000231   -0.00000563   -0.00000101
     atom   25 type  2   force =     0.00000165   -0.00000188   -0.00000081
     atom   26 type  2   force =     0.00000163   -0.00000868   -0.00000405
     atom   27 type  2   force =     0.00000137   -0.00000780   -0.00000414
     atom   28 type  2   force =     0.00000169   -0.00000446   -0.00000302
     atom   29 type  2   force =     0.00000228   -0.00000293   -0.00000176
     atom   30 type  2   force =     0.00000362    0.00000098    0.00000082
     atom   31 type  2   force =     0.00000345   -0.00000083   -0.00000020
     atom   32 type  2   force =     0.00000372   -0.00000482   -0.00000259
     atom   33 type  2   force =     0.00000346   -0.00000260   -0.00000181
     atom   34 type  2   force =     0.00000424   -0.00000245   -0.00000141
     atom   35 type  2   force =     0.00000479   -0.00000271   -0.00000148
     atom   36 type  2   force =     0.00000220   -0.00000355   -0.00000199
     atom   37 type  2   force =     0.00000592   -0.00000097   -0.00000137
     atom   38 type  2   force =     0.00000409   -0.00000297   -0.00000213
     atom   39 type  2   force =     0.00000429   -0.00000308   -0.00000251
     atom   40 type  2   force =     0.00000488   -0.00000128   -0.00000219
     atom   41 type  3   force =     0.00000026    0.00000074   -0.00000088
     atom   42 type  3   force =     0.00000008    0.00000107   -0.00000073
     atom   43 type  3   force =     0.00000022    0.00000104   -0.00000077
     atom   44 type  3   force =     0.00000011    0.00000056   -0.00000090
     atom   45 type  3   force =     0.00000057    0.00000128   -0.00000073
     atom   46 type  3   force =     0.00000049    0.00000099   -0.00000092
     atom   47 type  3   force =     0.00000039    0.00000120   -0.00000105
     atom   48 type  3   force =     0.00000047    0.00000123   -0.00000087
     atom   49 type  2   force =     0.00000054   -0.00000680    0.00000250
     atom   50 type  2   force =     0.00000068   -0.00000489    0.00000306
     atom   51 type  2   force =     0.00000060   -0.00000531    0.00000318
     atom   52 type  2   force =     0.00000029   -0.00000602    0.00000248
     atom   53 type  2   force =     0.00000102   -0.00000249    0.00000268
     atom   54 type  2   force =     0.00000029   -0.00000618    0.00000227
     atom   55 type  2   force =    -0.00000018   -0.00000652    0.00000211
     atom   56 type  2   force =     0.00000071   -0.00000291    0.00000190
     atom   57 type  3   force =    -0.00000117   -0.00000098    0.00000062
     atom   58 type  3   force =    -0.00000156   -0.00000065    0.00000083
     atom   59 type  3   force =    -0.00000168   -0.00000068    0.00000087
     atom   60 type  3   force =    -0.00000107   -0.00000090    0.00000065
     atom   61 type  3   force =    -0.00000143   -0.00000014    0.00000075
     atom   62 type  3   force =    -0.00000111   -0.00000075    0.00000061
     atom   63 type  3   force =    -0.00000125   -0.00000070    0.00000059
     atom   64 type  3   force =    -0.00000134   -0.00000017    0.00000061
     atom   65 type  1   force =    -0.00000172   -0.00000769   -0.00000573
     atom   66 type  1   force =     0.00000047   -0.00001113   -0.00000619
     atom   67 type  1   force =    -0.00000007   -0.00001066   -0.00000666
     atom   68 type  1   force =    -0.00000038   -0.00000848   -0.00000687
     atom   69 type  1   force =     0.00000085   -0.00000826   -0.00000607
     atom   70 type  1   force =     0.00000093   -0.00000662   -0.00000467
     atom   71 type  1   force =     0.00000200   -0.00000794   -0.00000533
     atom   72 type  1   force =     0.00000370   -0.00001016   -0.00000658
     atom   73 type  1   force =    -0.00001282   -0.00001115   -0.00000817
     atom   74 type  1   force =    -0.00001456   -0.00001815   -0.00001244
     atom   75 type  1   force =    -0.00001357   -0.00001654   -0.00001208
     atom   76 type  1   force =    -0.00001364   -0.00001366   -0.00001059
     atom   77 type  1   force =    -0.00000945   -0.00001019   -0.00000840
     atom   78 type  1   force =    -0.00000726   -0.00000587   -0.00000470
     atom   79 type  1   force =    -0.00000863   -0.00000776   -0.00000608
     atom   80 type  1   force =    -0.00000934   -0.00001174   -0.00000924
     atom   81 type  2   force =     0.00000659   -0.00000242    0.00000259
     atom   82 type  2   force =     0.00000557   -0.00000417    0.00000154
     atom   83 type  2   force =     0.00000640   -0.00000439    0.00000109
     atom   84 type  2   force =     0.00000544   -0.00000243    0.00000141
     atom   85 type  2   force =     0.00000722   -0.00000306    0.00000201
     atom   86 type  2   force =     0.00000748   -0.00000267    0.00000237
     atom   87 type  2   force =     0.00000798   -0.00000289    0.00000250
     atom   88 type  2   force =     0.00000464   -0.00000237    0.00000146
     atom   89 type  3   force =     0.00000088   -0.00000034    0.00000022
     atom   90 type  3   force =     0.00000117   -0.00000024    0.00000069
     atom   91 type  3   force =     0.00000096   -0.00000013    0.00000038
     atom   92 type  3   force =     0.00000098   -0.00000030    0.00000016
     atom   93 type  3   force =     0.00000155   -0.00000013    0.00000052
     atom   94 type  3   force =     0.00000124   -0.00000026    0.00000039
     atom   95 type  3   force =     0.00000100   -0.00000004    0.00000018
     atom   96 type  3   force =     0.00000157   -0.00000011    0.00000060
     atom   97 type  1   force =     0.00000719   -0.00000171    0.00000358
     atom   98 type  1   force =     0.00000999    0.00000109    0.00000423
     atom   99 type  1   force =     0.00000842    0.00000090    0.00000304
     atom  100 type  1   force =     0.00000745   -0.00000192    0.00000323
     atom  101 type  1   force =     0.00001054    0.00000060    0.00000453
     atom  102 type  1   force =     0.00001045   -0.00000110    0.00000380
     atom  103 type  1   force =     0.00000798   -0.00000063    0.00000392
     atom  104 type  1   force =     0.00001140    0.00000034    0.00000465
     atom  105 type  2   force =    -0.00000530    0.00000594    0.00000029
     atom  106 type  2   force =    -0.00000645    0.00000512    0.00000064
     atom  107 type  2   force =    -0.00000665    0.00000548    0.00000047
     atom  108 type  2   force =    -0.00000615    0.00000628    0.00000001
     atom  109 type  2   force =    -0.00000768    0.00000854    0.00000062
     atom  110 type  2   force =    -0.00000485    0.00000757   -0.00000042
     atom  111 type  2   force =    -0.00000356    0.00000699   -0.00000008
     atom  112 type  2   force =    -0.00000752    0.00000828    0.00000035
     atom  113 type  3   force =     0.00000037   -0.00000088   -0.00000000
     atom  114 type  3   force =     0.00000027   -0.00000114    0.00000014
     atom  115 type  3   force =     0.00000032   -0.00000118    0.00000016
     atom  116 type  3   force =     0.00000030   -0.00000089   -0.00000007
     atom  117 type  3   force =     0.00000026   -0.00000083    0.00000018
     atom  118 type  3   force =     0.00000058   -0.00000067   -0.00000012
     atom  119 type  3   force =     0.00000062   -0.00000073   -0.00000010
     atom  120 type  3   force =     0.00000038   -0.00000068    0.00000004
     atom  121 type  1   force =     0.00000068   -0.00000421    0.00000148
     atom  122 type  1   force =    -0.00000042   -0.00000900    0.00000385
     atom  123 type  1   force =    -0.00000104   -0.00000660    0.00000337
     atom  124 type  1   force =     0.00000042   -0.00000460    0.00000147
     atom  125 type  1   force =     0.00000605   -0.00000566    0.00000297
     atom  126 type  1   force =     0.00000350   -0.00000407    0.00000210
     atom  127 type  1   force =     0.00000481   -0.00000290    0.00000123
     atom  128 type  1   force =     0.00000430   -0.00000726    0.00000408
     atom  129 type  1   force =     0.00000404    0.00000016   -0.00000026
     atom  130 type  1   force =     0.00000940   -0.00000799    0.00000353
     atom  131 type  1   force =     0.00000762   -0.00000488    0.00000251
     atom  132 type  1   force =     0.00000457   -0.00000078    0.00000019
     atom  133 type  1   force =     0.00001062   -0.00000316    0.00000260
     atom  134 type  1   force =     0.00000795   -0.00000067    0.00000052
     atom  135 type  1   force =     0.00000667    0.00000130   -0.00000042
     atom  136 type  1   force =     0.00001190   -0.00000533    0.00000354
     atom  137 type  2   force =     0.00000171    0.00000577   -0.00000161
     atom  138 type  2   force =     0.00000102    0.00000394   -0.00000028
     atom  139 type  2   force =     0.00000137    0.00000572   -0.00000076
     atom  140 type  2   force =     0.00000222    0.00000603   -0.00000172
     atom  141 type  2   force =     0.00000067    0.00000411   -0.00000035
     atom  142 type  2   force =     0.00000135    0.00000548   -0.00000077
     atom  143 type  2   force =     0.00000125    0.00000582   -0.00000108
     atom  144 type  2   force =     0.00000089    0.00000357   -0.00000018
     atom  145 type  2   force =    -0.00000371    0.00000620   -0.00000376
     atom  146 type  2   force =    -0.00000272   -0.00000092   -0.00000008
     atom  147 type  2   force =    -0.00000300    0.00000222   -0.00000136
     atom  148 type  2   force =    -0.00000340    0.00000548   -0.00000347
     atom  149 type  2   force =    -0.00000177    0.00000297   -0.00000131
     atom  150 type  2   force =    -0.00000245    0.00000512   -0.00000230
     atom  151 type  2   force =    -0.00000268    0.00000662   -0.00000332
     atom  152 type  2   force =    -0.00000277    0.00000129   -0.00000034
     atom  153 type  2   force =    -0.00000525    0.00000127   -0.00000156
     atom  154 type  2   force =    -0.00000437    0.00000273   -0.00000189
     atom  155 type  2   force =    -0.00000387    0.00000298   -0.00000187
     atom  156 type  2   force =    -0.00000512    0.00000159   -0.00000159
     atom  157 type  2   force =    -0.00000165    0.00000355   -0.00000230
     atom  158 type  2   force =    -0.00000484    0.00000178   -0.00000170
     atom  159 type  2   force =    -0.00000514    0.00000276   -0.00000178
     atom  160 type  2   force =    -0.00000235    0.00000370   -0.00000260
     atom  161 type  3   force =    -0.00000053   -0.00000116   -0.00000073
     atom  162 type  3   force =    -0.00000051   -0.00000087   -0.00000085
     atom  163 type  3   force =    -0.00000051   -0.00000073   -0.00000088
     atom  164 type  3   force =    -0.00000056   -0.00000098   -0.00000081
     atom  165 type  3   force =    -0.00000014   -0.00000046   -0.00000091
     atom  166 type  3   force =    -0.00000005   -0.00000131   -0.00000072
     atom  167 type  3   force =    -0.00000021   -0.00000115   -0.00000080
     atom  168 type  3   force =    -0.00000009   -0.00000069   -0.00000102
     atom  169 type  2   force =    -0.00000071    0.00000444    0.00000236
     atom  170 type  2   force =    -0.00000129    0.00000123    0.00000263
     atom  171 type  2   force =    -0.00000123    0.00000210    0.00000224
     atom  172 type  2   force =    -0.00000117    0.00000444    0.00000204
     atom  173 type  2   force =    -0.00000040    0.00000544    0.00000269
     atom  174 type  2   force =     0.00000039    0.00000700    0.00000195
     atom  175 type  2   force =     0.00000017    0.00000640    0.00000233
     atom  176 type  2   force =    -0.00000025    0.00000580    0.00000260
     atom  177 type  3   force =     0.00000093    0.00000070    0.00000065
     atom  178 type  3   force =     0.00000125    0.00000007    0.00000078
     atom  179 type  3   force =     0.00000129    0.00000017    0.00000066
     atom  180 type  3   force =     0.00000100    0.00000073    0.00000060
     atom  181 type  3   force =     0.00000169    0.00000063    0.00000074
     atom  182 type  3   force =     0.00000134    0.00000101    0.00000055
     atom  183 type  3   force =     0.00000111    0.00000095    0.00000064
     atom  184 type  3   force =     0.00000177    0.00000066    0.00000074
     atom  185 type  1   force =    -0.00000382    0.00001040   -0.00000701
     atom  186 type  1   force =    -0.00000083    0.00000565   -0.00000534
     atom  187 type  1   force =    -0.00000166    0.00000785   -0.00000586
     atom  188 type  1   force =    -0.00000303    0.00000993   -0.00000690
     atom  189 type  1   force =     0.00000111    0.00000875   -0.00000532
     atom  190 type  1   force =    -0.00000131    0.00001029   -0.00000571
     atom  191 type  1   force =    -0.00000190    0.00001119   -0.00000649
     atom  192 type  1   force =     0.00000071    0.00000866   -0.00000568
     atom  193 type  1   force =     0.00001010    0.00001335   -0.00001047
     atom  194 type  1   force =     0.00000832    0.00000600   -0.00000598
     atom  195 type  1   force =     0.00000921    0.00000832   -0.00000686
     atom  196 type  1   force =     0.00000974    0.00001218   -0.00000988
     atom  197 type  1   force =     0.00001304    0.00001319   -0.00000866
     atom  198 type  1   force =     0.00001188    0.00001348   -0.00000955
     atom  199 type  1   force =     0.00001234    0.00001595   -0.00001134
     atom  200 type  1   force =     0.00001190    0.00001156   -0.00000804
     atom  201 type  2   force =    -0.00000431    0.00000261    0.00000100
     atom  202 type  2   force =    -0.00000946    0.00000323    0.00000227
     atom  203 type  2   force =    -0.00000803    0.00000367    0.00000175
     atom  204 type  2   force =    -0.00000563    0.00000304    0.00000078
     atom  205 type  2   force =    -0.00000524    0.00000180    0.00000206
     atom  206 type  2   force =    -0.00000506    0.00000256    0.00000151
     atom  207 type  2   force =    -0.00000433    0.00000247    0.00000143
     atom  208 type  2   force =    -0.00000476    0.00000111    0.00000237
     atom  209 type  3   force =    -0.00000096    0.00000011    0.00000004
     atom  210 type  3   force =    -0.00000166    0.00000028    0.00000057
     atom  211 type  3   force =    -0.00000146    0.00000031    0.00000032
     atom  212 type  3   force =    -0.00000102    0.00000022    0.00000004
     atom  213 type  3   force =    -0.00000092    0.00000016    0.00000062
     atom  214 type  3   force =    -0.00000088    0.00000028    0.00000034
     atom  215 type  3   force =    -0.00000074    0.00000024    0.00000027
     atom  216 type  3   force =    -0.00000096    0.00000009    0.00000066
     atom  217 type  1   force =    -0.00000688    0.00000115    0.00000358
     atom  218 type  1   force =    -0.00001264   -0.00000019    0.00000416
     atom  219 type  1   force =    -0.00001123   -0.00000005    0.00000402
     atom  220 type  1   force =    -0.00000844    0.00000158    0.00000302
     atom  221 type  1   force =    -0.00000950   -0.00000145    0.00000347
     atom  222 type  1   force =    -0.00000930    0.00000059    0.00000319
     atom  223 type  1   force =    -0.00000791    0.00000073    0.00000358
     atom  224 type  1   force =    -0.00000900   -0.00000170    0.00000421
     atom  225 type  2   force =     0.00000545   -0.00000714    0.00000036
     atom  226 type  2   force =     0.00000698   -0.00000790    0.00000085
     atom  227 type  2   force =     0.00000731   -0.00000821    0.00000093
     atom  228 type  2   force =     0.00000452   -0.00000727    0.00000016
     atom  229 type  2   force =     0.00000711   -0.00000569    0.00000080
     atom  230 type  2   force =     0.00000607   -0.00000669   -0.00000006
     atom  231 type  2   force =     0.00000693   -0.00000692   -0.00000020
     atom  232 type  2   force =     0.00000657   -0.00000559    0.00000004
     atom  233 type  3   force =    -0.00000034    0.00000076    0.00000003
     atom  234 type  3   force =    -0.00000021    0.00000082    0.00000016
     atom  235 type  3   force =    -0.00000025    0.00000079    0.00000012
     atom  236 type  3   force =    -0.00000039    0.00000084   -0.00000004
     atom  237 type  3   force =    -0.00000031    0.00000126    0.00000014
     atom  238 type  3   force =    -0.00000028    0.00000092   -0.00000017
     atom  239 type  3   force =    -0.00000026    0.00000076   -0.00000012
     atom  240 type  3   force =    -0.00000026    0.00000123    0.00000004
     atom  241 type  1   force =     0.00000420   -0.00000157   -0.00000294
     atom  242 type  1   force =     0.00000593   -0.00000011   -0.00000456
     atom  243 type  1   force =     0.00000467    0.00000262   -0.00000313
     atom  244 type  1   force =     0.00000304    0.00000076   -0.00000255
     atom  245 type  1   force =     0.00000714    0.00000173   -0.00000254
     atom  246 type  1   force =     0.00000798   -0.00000282   -0.00000502
     atom  247 type  1   force =     0.00000546   -0.00000047   -0.00000257
     atom  248 type  1   force =     0.00000752    0.00000217   -0.00000280
     atom  249 type  1   force =     0.00000130    0.00000637   -0.00000163
     atom  250 type  1   force =     0.00000364    0.00000828   -0.00000311
     atom  251 type  1   force =     0.00000213    0.00000819   -0.00000203
     atom  252 type  1   force =    -0.00000030    0.00000571   -0.00000119
     atom  253 type  1   force =     0.00000331    0.00000741   -0.00000149
     atom  254 type  1   force =     0.00000390    0.00000703   -0.00000328
     atom  255 type  1   force =     0.00000050    0.00000585   -0.00000067
     atom  256 type  1   force =     0.00000393    0.00000800   -0.00000176
     atom  257 type  2   force =    -0.00000803    0.00000242    0.00000062
     atom  258 type  2   force =    -0.00000573    0.00000035    0.00000015
     atom  259 type  2   force =    -0.00000578    0.00000052    0.00000041
     atom  260 type  2   force =    -0.00000875    0.00000201    0.00000069
     atom  261 type  2   force =    -0.00000419    0.00000243    0.00000154
     atom  262 type  2   force =    -0.00000296    0.00000451    0.00000033
     atom  263 type  2   force =    -0.00000528    0.00000405    0.00000143
     atom  264 type  2   force =    -0.00000369    0.00000177    0.00000134
     atom  265 type  2   force =    -0.00000457   -0.00000320    0.00000147
     atom  266 type  2   force =    -0.00000258   -0.00000271    0.00000051
     atom  267 type  2   force =    -0.00000395   -0.00000221    0.00000147
     atom  268 type  2   force =    -0.00000636   -0.00000221    0.00000245
     atom  269 type  2   force =    -0.00000367   -0.00000314    0.00000271
     atom  270 type  2   force =    -0.00000090   -0.00000469    0.00000007
     atom  271 type  2   force =    -0.00000426   -0.00000340    0.00000242
     atom  272 type  2   force =    -0.00000278   -0.00000289    0.00000231
     atom  273 type  2   force =    -0.00000424   -0.00000422    0.00000188
     atom  274 type  2   force =    -0.00000301   -0.00000573    0.00000182
     atom  275 type  2   force =    -0.00000298   -0.00000521    0.00000177
     atom  276 type  2   force =    -0.00000419   -0.00000496    0.00000185
     atom  277 type  2   force =    -0.00000269   -0.00000315    0.00000264
     atom  278 type  2   force =    -0.00000242   -0.00000103    0.00000146
     atom  279 type  2   force =    -0.00000297   -0.00000231    0.00000215
     atom  280 type  2   force =    -0.00000190   -0.00000425    0.00000249
     atom  281 type  3   force =     0.00000100   -0.00000013    0.00000092
     atom  282 type  3   force =     0.00000101   -0.00000055    0.00000094
     atom  283 type  3   force =     0.00000090   -0.00000053    0.00000091
     atom  284 type  3   force =     0.00000117   -0.00000020    0.00000094
     atom  285 type  3   force =     0.00000087   -0.00000019    0.00000103
     atom  286 type  3   force =     0.00000063    0.00000008    0.00000065
     atom  287 type  3   force =     0.00000087   -0.00000003    0.00000083
     atom  288 type  3   force =     0.00000108   -0.00000031    0.00000097
     atom  289 type  2   force =    -0.00000739    0.00000049   -0.00000295
     atom  290 type  2   force =    -0.00000664   -0.00000073   -0.00000264
     atom  291 type  2   force =    -0.00000680   -0.00000040   -0.00000292
     atom  292 type  2   force =    -0.00000767    0.00000036   -0.00000306
     atom  293 type  2   force =    -0.00000395    0.00000052   -0.00000188
     atom  294 type  2   force =    -0.00000158   -0.00000030   -0.00000186
     atom  295 type  2   force =    -0.00000369    0.00000012   -0.00000176
     atom  296 type  2   force =    -0.00000445    0.00000012   -0.00000195
     atom  297 type  3   force =    -0.00000088    0.00000186   -0.00000084
     atom  298 type  3   force =    -0.00000081    0.00000164   -0.00000067
     atom  299 type  3   force =    -0.00000083    0.00000152   -0.00000076
     atom  300 type  3   force =    -0.00000085    0.00000180   -0.00000079
     atom  301 type  3   force =    -0.00000059    0.00000135   -0.00000061
     atom  302 type  3   force =    -0.00000037    0.00000088   -0.00000057
     atom  303 type  3   force =    -0.00000059    0.00000109   -0.00000056
     atom  304 type  3   force =    -0.00000058    0.00000140   -0.00000058
     atom  305 type  1   force =    -0.00001015   -0.00000334    0.00000568
     atom  306 type  1   force =    -0.00000882   -0.00000167    0.00000535
     atom  307 type  1   force =    -0.00000973   -0.00000088    0.00000575
     atom  308 type  1   force =    -0.00001045   -0.00000222    0.00000569
     atom  309 type  1   force =    -0.00000958   -0.00000162    0.00000638
     atom  310 type  1   force =    -0.00000908   -0.00000484    0.00000533
     atom  311 type  1   force =    -0.00001020   -0.00000433    0.00000634
     atom  312 type  1   force =    -0.00000888   -0.00000148    0.00000630
     atom  313 type  1   force =    -0.00001051    0.00000882    0.00000744
     atom  314 type  1   force =    -0.00000922    0.00000938    0.00000659
     atom  315 type  1   force =    -0.00001205    0.00001106    0.00000833
     atom  316 type  1   force =    -0.00001264    0.00001045    0.00000855
     atom  317 type  1   force =    -0.00001181    0.00001143    0.00000918
     atom  318 type  1   force =    -0.00000815    0.00000660    0.00000565
     atom  319 type  1   force =    -0.00001164    0.00000895    0.00000845
     atom  320 type  1   force =    -0.00001126    0.00001137    0.00000895
     atom  321 type  2   force =    -0.00000476   -0.00000757   -0.00000172
     atom  322 type  2   force =    -0.00000384   -0.00000925   -0.00000242
     atom  323 type  2   force =    -0.00000401   -0.00000840   -0.00000218
     atom  324 type  2   force =    -0.00000524   -0.00000817   -0.00000190
     atom  325 type  2   force =    -0.00000102   -0.00000499   -0.00000122
     atom  326 type  2   force =     0.00000044   -0.00000134   -0.00000174
     atom  327 type  2   force =    -0.00000147   -0.00000316   -0.00000095
     atom  328 type  2   force =    -0.00000168   -0.00000685   -0.00000147
     atom  329 type  3   force =    -0.00000025   -0.00000135   -0.00000025
     atom  330 type  3   force =    -0.00000039   -0.00000155   -0.00000053
     atom  331 type  3   force =    -0.00000049   -0.00000128   -0.00000041
     atom  332 type  3   force =    -0.00000033   -0.00000131   -0.00000031
     atom  333 type  3   force =     0.00000008   -0.00000092   -0.00000035
     atom  334 type  3   force =     0.00000035   -0.00000058   -0.00000045
     atom  335 type  3   force =     0.00000013   -0.00000064   -0.00000023
     atom  336 type  3   force =    -0.00000013   -0.00000108   -0.00000042
     atom  337 type  1   force =    -0.00000098   -0.00000959   -0.00000417
     atom  338 type  1   force =    -0.00000061   -0.00001228   -0.00000383
     atom  339 type  1   force =    -0.00000124   -0.00001140   -0.00000409
     atom  340 type  1   force =    -0.00000117   -0.00001001   -0.00000438
     atom  341 type  1   force =     0.00000013   -0.00000853   -0.00000321
     atom  342 type  1   force =     0.00000132   -0.00000557   -0.00000365
     atom  343 type  1   force =     0.00000036   -0.00000693   -0.00000292
     atom  344 type  1   force =     0.00000026   -0.00001058   -0.00000309
     atom  345 type  2   force =     0.00000717    0.00000532    0.00000035
     atom  346 type  2   force =     0.00000635    0.00000596    0.00000005
     atom  347 type  2   force =     0.00000607    0.00000579   -0.00000017
     atom  348 type  2   force =     0.00000621    0.00000484    0.00000016
     atom  349 type  2   force =     0.00000834    0.00000754   -0.00000031
     atom  350 type  2   force =     0.00000858    0.00000696   -0.00000067
     atom  351 type  2   force =     0.00000858    0.00000697   -0.00000055
     atom  352 type  2   force =     0.00000853    0.00000800   -0.00000052
     atom  353 type  3   force =    -0.00000123   -0.00000052    0.00000003
     atom  354 type  3   force =    -0.00000104   -0.00000063   -0.00000005
     atom  355 type  3   force =    -0.00000094   -0.00000056   -0.00000007
     atom  356 type  3   force =    -0.00000127   -0.00000058   -0.00000005
     atom  357 type  3   force =    -0.00000080   -0.00000003    0.00000011
     atom  358 type  3   force =    -0.00000066    0.00000005   -0.00000000
     atom  359 type  3   force =    -0.00000080   -0.00000013    0.00000002
     atom  360 type  3   force =    -0.00000088   -0.00000009    0.00000003
     atom  361 type  1   force =    -0.00000490   -0.00000163   -0.00000150
     atom  362 type  1   force =    -0.00000753   -0.00000377   -0.00000316
     atom  363 type  1   force =    -0.00000618   -0.00000220   -0.00000193
     atom  364 type  1   force =    -0.00000484   -0.00000088   -0.00000245
     atom  365 type  1   force =    -0.00000481   -0.00000136   -0.00000346
     atom  366 type  1   force =    -0.00000515    0.00000107   -0.00000384
     atom  367 type  1   force =    -0.00000394    0.00000080   -0.00000315
     atom  368 type  1   force =    -0.00000571   -0.00000204   -0.00000356
     atom  369 type  1   force =    -0.00000186   -0.00000646   -0.00000064
     atom  370 type  1   force =    -0.00000004   -0.00000598   -0.00000113
     atom  371 type  1   force =     0.00000024   -0.00000639   -0.00000030
     atom  372 type  1   force =    -0.00000426   -0.00000881   -0.00000248
     atom  373 type  1   force =     0.00000022   -0.00000557   -0.00000087
     atom  374 type  1   force =    -0.00000291   -0.00000880   -0.00000195
     atom  375 type  1   force =    -0.00000204   -0.00000776   -0.00000174
     atom  376 type  1   force =    -0.00000157   -0.00000623   -0.00000177
     atom  377 type  2   force =     0.00000511   -0.00000206    0.00000180
     atom  378 type  2   force =     0.00000648   -0.00000389    0.00000141
     atom  379 type  2   force =     0.00000581   -0.00000348    0.00000180
     atom  380 type  2   force =     0.00000385   -0.00000138    0.00000090
     atom  381 type  2   force =     0.00000663   -0.00000200    0.00000050
     atom  382 type  2   force =     0.00000556   -0.00000072    0.00000036
     atom  383 type  2   force =     0.00000573   -0.00000044    0.00000048
     atom  384 type  2   force =     0.00000579   -0.00000162    0.00000005
     atom  385 type  2   force =     0.00000449    0.00000272    0.00000335
     atom  386 type  2   force =     0.00000510    0.00000270    0.00000269
     atom  387 type  2   force =     0.00000511    0.00000285    0.00000322
     atom  388 type  2   force =     0.00000246    0.00000233    0.00000188
     atom  389 type  2   force =     0.00000554    0.00000384    0.00000210
     atom  390 type  2   force =     0.00000368    0.00000275    0.00000149
     atom  391 type  2   force =     0.00000409    0.00000242    0.00000178
     atom  392 type  2   force =     0.00000401    0.00000363    0.00000118
     atom  393 type  2   force =     0.00000254    0.00000418    0.00000261
     atom  394 type  2   force =     0.00000320    0.00000196    0.00000227
     atom  395 type  2   force =     0.00000302    0.00000229    0.00000244
     atom  396 type  2   force =     0.00000206    0.00000442    0.00000218
     atom  397 type  2   force =     0.00000409    0.00000440    0.00000149
     atom  398 type  2   force =     0.00000281    0.00000527    0.00000188
     atom  399 type  2   force =     0.00000267    0.00000589    0.00000185
     atom  400 type  2   force =     0.00000354    0.00000462    0.00000139
     atom  401 type  3   force =    -0.00000110    0.00000030    0.00000103
     atom  402 type  3   force =    -0.00000105   -0.00000020    0.00000085
     atom  403 type  3   force =    -0.00000087    0.00000003    0.00000090
     atom  404 type  3   force =    -0.00000105    0.00000031    0.00000094
     atom  405 type  3   force =    -0.00000070    0.00000030    0.00000078
     atom  406 type  3   force =    -0.00000104    0.00000043    0.00000089
     atom  407 type  3   force =    -0.00000113    0.00000054    0.00000090
     atom  408 type  3   force =    -0.00000076    0.00000033    0.00000075
     atom  409 type  2   force =     0.00000483   -0.00000086   -0.00000171
     atom  410 type  2   force =     0.00000404   -0.00000016   -0.00000205
     atom  411 type  2   force =     0.00000367   -0.00000002   -0.00000240
     atom  412 type  2   force =     0.00000357   -0.00000084   -0.00000191
     atom  413 type  2   force =     0.00000691    0.00000068   -0.00000262
     atom  414 type  2   force =     0.00000484    0.00000125   -0.00000276
     atom  415 type  2   force =     0.00000539    0.00000106   -0.00000275
     atom  416 type  2   force =     0.00000734    0.00000054   -0.00000254
     atom  417 type  3   force =     0.00000062   -0.00000135   -0.00000053
     atom  418 type  3   force =     0.00000054   -0.00000144   -0.00000061
     atom  419 type  3   force =     0.00000047   -0.00000142   -0.00000068
     atom  420 type  3   force =     0.00000035   -0.00000130   -0.00000060
     atom  421 type  3   force =     0.00000087   -0.00000158   -0.00000069
     atom  422 type  3   force =     0.00000080   -0.00000133   -0.00000077
     atom  423 type  3   force =     0.00000082   -0.00000139   -0.00000073
     atom  424 type  3   force =     0.00000083   -0.00000172   -0.00000068
     atom  425 type  1   force =     0.00000951    0.00000207    0.00000695
     atom  426 type  1   force =     0.00000941    0.00000295    0.00000565
     atom  427 type  1   force =     0.00001013    0.00000296    0.00000645
     atom  428 type  1   force =     0.00000843    0.00000023    0.00000600
     atom  429 type  1   force =     0.00001068    0.00000471    0.00000612
     atom  430 type  1   force =     0.00000930    0.00000155    0.00000602
     atom  431 type  1   force =     0.00000926    0.00000197    0.00000603
     atom  432 type  1   force =     0.00001010    0.00000431    0.00000555
     atom  433 type  1   force =     0.00001265   -0.00001104    0.00001027
     atom  434 type  1   force =     0.00001211   -0.00001006    0.00000847
     atom  435 type  1   force =     0.00001321   -0.00001043    0.00000937
     atom  436 type  1   force =     0.00001158   -0.00001173    0.00000897
     atom  437 type  1   force =     0.00001222   -0.00000968    0.00000868
     atom  438 type  1   force =     0.00001155   -0.00001177    0.00000886
     atom  439 type  1   force =     0.00001101   -0.00001125    0.00000857
     atom  440 type  1   force =     0.00001073   -0.00000914    0.00000762
     atom  441 type  2   force =     0.00000176    0.00000564   -0.00000096
     atom  442 type  2   force =     0.00000222    0.00000389   -0.00000083
     atom  443 type  2   force =     0.00000151    0.00000333   -0.00000075
     atom  444 type  2   force =     0.00000120    0.00000637   -0.00000199
     atom  445 type  2   force =     0.00000284    0.00000528   -0.00000195
     atom  446 type  2   force =     0.00000379    0.00000886   -0.00000222
     atom  447 type  2   force =     0.00000433    0.00000976   -0.00000204
     atom  448 type  2   force =     0.00000276    0.00000675   -0.00000257
     atom  449 type  3   force =    -0.00000025    0.00000068   -0.00000021
     atom  450 type  3   force =    -0.00000001    0.00000103   -0.00000058
     atom  451 type  3   force =     0.00000005    0.00000095   -0.00000026
     atom  452 type  3   force =    -0.00000016    0.00000075   -0.00000018
     atom  453 type  3   force =     0.00000056    0.00000141   -0.00000043
     atom  454 type  3   force =     0.00000002    0.00000125   -0.00000065
     atom  455 type  3   force =     0.00000008    0.00000106   -0.00000037
     atom  456 type  3   force =     0.00000043    0.00000140   -0.00000050
     atom  457 type  1   force =    -0.00000095    0.00000561   -0.00000308
     atom  458 type  1   force =    -0.00000103    0.00001002   -0.00000386
     atom  459 type  1   force =    -0.00000034    0.00000921   -0.00000301
     atom  460 type  1   force =    -0.00000026    0.00000619   -0.00000287
     atom  461 type  1   force =     0.00000091    0.00001331   -0.00000335
     atom  462 type  1   force =    -0.00000042    0.00001092   -0.00000456
     atom  463 type  1   force =    -0.00000031    0.00000995   -0.00000420
     atom  464 type  1   force =     0.00000074    0.00001259   -0.00000388
     atom  465 type  2   force =    -0.00000981   -0.00000751   -0.00000042
     atom  466 type  2   force =    -0.00000838   -0.00000788   -0.00000057
     atom  467 type  2   force =    -0.00000771   -0.00000711   -0.00000070
     atom  468 type  2   force =    -0.00000991   -0.00000827   -0.00000065
     atom  469 type  2   force =    -0.00000590   -0.00000479    0.00000039
     atom  470 type  2   force =    -0.00000468   -0.00000378   -0.00000005
     atom  471 type  2   force =    -0.00000615   -0.00000513    0.00000012
     atom  472 type  2   force =    -0.00000623   -0.00000573    0.00000014
     atom  473 type  3   force =     0.00000087    0.00000017    0.00000013
     atom  474 type  3   force =     0.00000089    0.00000010    0.00000002
     atom  475 type  3   force =     0.00000089    0.00000007   -0.00000001
     atom  476 type  3   force =     0.00000077    0.00000010    0.00000004
     atom  477 type  3   force =     0.00000104    0.00000058    0.00000005
     atom  478 type  3   force =     0.00000127    0.00000045   -0.00000009
     atom  479 type  3   force =     0.00000127    0.00000040   -0.00000004
     atom  480 type  3   force =     0.00000103    0.00000064   -0.00000004
     atom  481 type  4   force =    -0.00000892   -0.00000379    0.00000509
     atom  482 type  4   force =    -0.00000818   -0.00000266   -0.00000511
     atom  483 type  4   force =    -0.00000966    0.00000294   -0.00000224
     atom  484 type  4   force =    -0.00000614   -0.00000028    0.00000040
     atom  485 type  4   force =     0.00001097   -0.00000270   -0.00000515
     atom  486 type  4   force =     0.00000112   -0.00000172    0.00000054
     atom  487 type  4   force =     0.00000549    0.00000066    0.00000088
     atom  488 type  4   force =     0.00000722    0.00000072   -0.00000342
     atom  489 type  4   force =    -0.00000171    0.00000196   -0.00000068
     atom  490 type  4   force =    -0.00000181    0.00000409    0.00000537
     atom  491 type  4   force =    -0.00000280    0.00000212    0.00000368
     atom  492 type  4   force =     0.00000251    0.00000568   -0.00000213
     atom  493 type  4   force =    -0.00000360   -0.00000087   -0.00000001
     atom  494 type  4   force =    -0.00000433   -0.00000315   -0.00000345
     atom  495 type  4   force =    -0.00000123   -0.00000179   -0.00000225
     atom  496 type  4   force =     0.00000099   -0.00000181    0.00000109

     Total force =     0.024199     Total SCF correction =     0.000180


     Computing stress (Cartesian axis) and pressure

          total   stress  (Ry/bohr**3)                   (kbar)     P=       -2.03
  -0.00001433  -0.00000045   0.00000004           -2.11       -0.07        0.01
  -0.00000045  -0.00001479   0.00000004           -0.07       -2.18        0.01
   0.00000004   0.00000004  -0.00001221            0.01        0.01       -1.80

     kinetic stress (kbar)  10030.36      0.04     -0.01
                                0.04  10030.34      0.01
                               -0.01      0.01  10716.54

     local   stress (kbar) -23378.34      0.08      0.33
                                0.08 -23378.48      0.99
                                0.33      0.99  -2297.22

     nonloc. stress (kbar)   2420.50     -0.02      0.00
                               -0.02   2420.50     -0.00
                                0.00     -0.00   2341.31

     hartree stress (kbar)  13178.24      0.10     -0.19
                                0.10  13178.37     -0.42
                               -0.19     -0.42   6149.23

     exc-cor stress (kbar)  -1776.01     -0.00      0.00
                               -0.00  -1776.02     -0.00
                                0.00     -0.00  -1797.58

     corecor stress (kbar)  -1052.43      0.00     -0.00
                                0.00  -1052.43      0.00
                               -0.00      0.00  -1036.21

     ewald   stress (kbar)    575.57     -0.27     -0.14
                               -0.27    575.54     -0.57
                               -0.14     -0.57 -14077.87

     hubbard stress (kbar)      0.00      0.00      0.00
                                0.00      0.00      0.00
                                0.00      0.00      0.00

     DFT-D   stress (kbar)      0.00      0.00      0.00
                                0.00      0.00      0.00
                                0.00      0.00      0.00

     XDM     stress (kbar)      0.00      0.00      0.00
                                0.00      0.00      0.00
                                0.00      0.00      0.00

     dft-nl  stress (kbar)      0.00      0.00      0.00
                                0.00      0.00      0.00
                                0.00      0.00      0.00

     TS-vdW  stress (kbar)      0.00      0.00      0.00
                                0.00      0.00      0.00
                                0.00      0.00      0.00

     MDB     stress (kbar)      0.00      0.00      0.00
                                0.00      0.00      0.00
                                0.00      0.00      0.00

     3D-RISM stress (kbar)      0.00      0.00      0.00
                                0.00      0.00      0.00
                                0.00      0.00      0.00


     init_run     :    157.82s CPU    162.18s WALL (       1 calls)
     electrons    :   6414.37s CPU   6561.19s WALL (       1 calls)
     forces       :     83.11s CPU     86.65s WALL (       1 calls)
     stress       :   1713.22s CPU   1731.07s WALL (       1 calls)

     Called by init_run:
     wfcinit      :    147.31s CPU    150.86s WALL (       1 calls)
     wfcinit:atom :      0.16s CPU      0.29s WALL (       1 calls)
     wfcinit:wfcr :    145.68s CPU    148.81s WALL (       1 calls)
     potinit      :      3.96s CPU      4.01s WALL (       1 calls)
     hinit0       :      3.56s CPU      3.58s WALL (       1 calls)

     Called by electrons:
     c_bands      :   5904.03s CPU   6013.82s WALL (      17 calls)
     sum_band     :    465.21s CPU    490.91s WALL (      17 calls)
     v_of_rho     :      5.60s CPU      5.87s WALL (      18 calls)
     v_h          :      0.38s CPU      0.41s WALL (      18 calls)
     v_xc         :      5.75s CPU      6.02s WALL (      20 calls)
     newd         :     26.04s CPU     37.53s WALL (      18 calls)
     PAW_pot      :     12.90s CPU     12.94s WALL (      18 calls)
     mix_rho      :      1.87s CPU      1.99s WALL (      17 calls)

     Called by c_bands:
     init_us_2    :     10.75s CPU     12.06s WALL (      35 calls)
     init_us_2:cp :     10.75s CPU     12.06s WALL (      35 calls)
     cegterg      :   5881.09s CPU   5989.02s WALL (      17 calls)

     Called by sum_band:
     sum_band:wei :      0.00s CPU      0.00s WALL (      17 calls)
     sum_band:loo :    441.38s CPU    453.71s WALL (      17 calls)
     sum_band:buf :      0.00s CPU      0.00s WALL (      17 calls)
     sum_band:ini :      5.18s CPU      5.85s WALL (      17 calls)
     sum_band:cal :    251.41s CPU    255.07s WALL (      17 calls)
     sum_band:bec :      0.85s CPU      0.86s WALL (      17 calls)
     addusdens    :     19.67s CPU     31.86s WALL (      17 calls)
                                        0.00s GPU  (      17 calls)
     addusd:skk   :      5.07s CPU     10.45s WALL (      68 calls)
                                        0.00s GPU  (      68 calls)

     Called by *egterg:
     cdiaghg      :    545.48s CPU    549.62s WALL (      97 calls)
     cegterg:over :    693.18s CPU    699.19s WALL (      80 calls)
     cegterg:upda :    364.81s CPU    369.74s WALL (      80 calls)
     cegterg:last :    850.61s CPU    860.04s WALL (      43 calls)
     cdiaghg:chol :     13.58s CPU     13.60s WALL (      97 calls)
     cdiaghg:inve :      2.26s CPU      2.27s WALL (      97 calls)
     cdiaghg:para :     47.78s CPU     49.56s WALL (     194 calls)
     h_psi        :   2664.59s CPU   2734.61s WALL (      98 calls)
     s_psi        :    695.85s CPU    701.65s WALL (      98 calls)
     g_psi        :      2.83s CPU      2.90s WALL (      80 calls)

     Called by h_psi:
     h_psi:calbec :    822.47s CPU    834.83s WALL (      98 calls)
     vloc_psi     :   1136.31s CPU   1185.62s WALL (      98 calls)
     add_vuspsi   :    702.84s CPU    708.82s WALL (      98 calls)

     General routines
     calbec       :   1150.48s CPU   1167.35s WALL (     120 calls)
     fft          :      8.92s CPU      9.27s WALL (     257 calls)
     ffts         :      0.71s CPU      0.78s WALL (      35 calls)
     fftw         :   1229.17s CPU   1284.63s WALL (  126600 calls)
     interpolate  :      0.75s CPU      0.80s WALL (      18 calls)

     Parallel routines

     PAW routines
     PAW_pot      :     12.90s CPU     12.94s WALL (      18 calls)

     PWSCF        :      2h19m CPU      2h22m WALL


   This run was terminated on:  10:34:10  19May2025            

=------------------------------------------------------------------------------=
   JOB DONE.
=------------------------------------------------------------------------------=
