
     Program PWSCF v.7.2 starts on 20May2025 at 12:32:25 

     This program is part of the open-source Quantum ESPRESSO suite
     for quantum simulation of materials; please cite
         "P. Giannozzi et al., J. Phys.:Condens. Matter 21 395502 (2009);
         "P. Giannozzi et al., J. Phys.:Condens. Matter 29 465901 (2017);
         "P. Giannozzi et al., J. Chem. Phys. 152 154105 (2020);
          URL http://www.quantum-espresso.org", 
     in publications or presentations arising from this work. More details at
     http://www.quantum-espresso.org/quote

     Parallel version (MPI), running on    32 processors

     MPI processes distributed on     1 nodes
     130226 MiB available memory on the printing compute node when the environment starts

     Waiting for input...
     Reading input from standard input

     Current dimensions of program PWSCF are:
     Max number of different atomic species (ntypx) = 10
     Max number of k-points (npk) =  40000
     Max angular momentum in pseudopotentials (lmaxx) =  4
     file C.pbesol-n-kjpaw_psl.1.0.0.UPF: wavefunction(s)  2S 2P renormalized

     R & G space division:  proc/nbgrp/npool/nimage =      32
     Subspace diagonalization in iterative solution of the eigenvalue problem:
     one sub-group per band group will be used
     custom distributed-memory algorithm (size of sub-group:  5*  5 procs)


     Parallelization info
     --------------------
     sticks:   dense  smooth     PW     G-vecs:    dense   smooth      PW
     Min         878     844    211                80117    75361    9423
     Max         882     845    212                80120    75364    9425
     Sum       28159   27021   6771              2563819  2411581  301561

     Using Slab Decomposition



     bravais-lattice index     =            0
     lattice parameter (alat)  =      37.6381  a.u.
     unit-cell volume          =   38409.3354 (a.u.)^3
     number of atoms/cell      =          496
     number of atomic types    =            4
     number of electrons       =      2016.00
     number of Kohn-Sham states=         1008
     kinetic-energy cutoff     =      60.0000  Ry
     charge density cutoff     =     250.0000  Ry
     scf convergence threshold =      1.2E-08
     mixing beta               =       0.4000
     number of iterations used =            8  plain     mixing
     Exchange-correlation= SLA  PW   PSX  PSC
                           (   1   4  10   8   0   0   0)

     celldm(1)=  37.638096  celldm(2)=   0.000000  celldm(3)=   0.000000
     celldm(4)=   0.000000  celldm(5)=   0.000000  celldm(6)=   0.000000

     crystal axes: (cart. coord. in units of alat)
               a(1) = (  -0.509774   0.509774   0.693009 )  
               a(2) = (   0.509774  -0.509774   0.693009 )  
               a(3) = (   0.509774   0.509774  -0.693009 )  

     reciprocal axes: (cart. coord. in units 2 pi/alat)
               b(1) = (  0.000000  0.980827  0.721491 )  
               b(2) = (  0.980827  0.000000  0.721491 )  
               b(3) = (  0.980827  0.980827  0.000000 )  


     PseudoPot. # 1 for N  read from file:
     ./pseudo/N.pbesol-theos.UPF
     MD5 check sum: 1b64827339d390a5a22afef3ff345c9d
     Pseudo is Ultrasoft + core correction, Zval =  5.0
     Generated using "atomic" code by A. Dal Corso  v.5.1
     Using radial grid of 1085 points,  4 beta functions with: 
                l(1) =   0
                l(2) =   0
                l(3) =   1
                l(4) =   1
     Q(r) pseudized with 0 coefficients 


     PseudoPot. # 2 for C  read from file:
     ./pseudo/C.pbesol-n-kjpaw_psl.1.0.0.UPF
     MD5 check sum: 5f3a56537b2bcef3348431d8311bb923
     Pseudo is Projector augmented-wave + core cor, Zval =  4.0
     Generated using "atomic" code by A. Dal Corso  v.6.0 svn rev. 13079
     Shape of augmentation charge: PSQ
     Using radial grid of 1073 points,  4 beta functions with: 
                l(1) =   0
                l(2) =   0
                l(3) =   1
                l(4) =   1
     Q(r) pseudized with 0 coefficients 


     PseudoPot. # 3 for H  read from file:
     ./pseudo/H.pbesol-rrkjus_psl.1.0.0.UPF
     MD5 check sum: 0324ed591cc0147dc3d88cad0d33f665
     Pseudo is Ultrasoft, Zval =  1.0
     Generated using "atomic" code by A. Dal Corso  v.6.0 svn rev. 13079
     Using radial grid of  929 points,  2 beta functions with: 
                l(1) =   0
                l(2) =   0
     Q(r) pseudized with 0 coefficients 


     PseudoPot. # 4 for Zn read from file:
     ./pseudo/zn_pbesol_v1.uspp.F.UPF
     MD5 check sum: 7d8615e52efe7c1e2b1899de8658bae2
     Pseudo is Ultrasoft, Zval = 20.0
     Generated by new atomic code, or converted to UPF format
     Using radial grid of  943 points,  6 beta functions with: 
                l(1) =   0
                l(2) =   0
                l(3) =   1
                l(4) =   1
                l(5) =   2
                l(6) =   2
     Q(r) pseudized with  8 coefficients,  rinner =    1.100   1.100   1.100
                                                       1.100   1.100

     atomic species   valence    mass     pseudopotential
        N              5.00    14.00670     N ( 1.00)
        C              4.00    12.01070     C ( 1.00)
        H              1.00     1.00794     H ( 1.00)
        Zn            20.00    65.38000     Zn( 1.00)

     No symmetry found


                                    s                        frac. trans.

      isym =  1     identity                                     

 cryst.   s( 1) = (     1          0          0      )
                  (     0          1          0      )
                  (     0          0          1      )

 cart.    s( 1) = (  1.0000000  0.0000000  0.0000000 )
                  (  0.0000000  1.0000000  0.0000000 )
                  (  0.0000000  0.0000000  1.0000000 )


   Cartesian axes

     site n.     atom                  positions (alat units)
         1           N   tau(   1) = (   0.2710468  -0.0829864   0.1173636  )
         2           N   tau(   2) = (   0.0161599   0.1719005   0.4638680  )
         3           N   tau(   3) = (   0.5259337  -0.3378733   0.4638680  )
         4           N   tau(   4) = (   0.2710468  -0.0829864   0.8103725  )
         5           N   tau(   5) = (   0.5259337   0.1719005  -0.2291408  )
         6           N   tau(   6) = (   0.2710468   0.4267874   0.1173636  )
         7           N   tau(   7) = (   0.7808206  -0.0829864   0.1173636  )
         8           N   tau(   8) = (   0.5259337   0.1719005   0.4638680  )
         9           N   tau(   9) = (   0.0792892   0.1480962   0.4576515  )
        10           N   tau(  10) = (  -0.1755977   0.4029831   0.8041559  )
        11           N   tau(  11) = (   0.3341761  -0.1067907   0.8041559  )
        12           N   tau(  12) = (   0.0792892   0.1480962   1.1506604  )
        13           N   tau(  13) = (   0.3341761   0.4029831   0.1111471  )
        14           N   tau(  14) = (   0.0792892   0.6578701   0.4576515  )
        15           N   tau(  15) = (   0.5890630   0.1480962   0.4576515  )
        16           N   tau(  16) = (   0.3341761   0.4029831   0.8041559  )
        17           C   tau(  17) = (  -0.0968335   0.1355948   0.4273593  )
        18           C   tau(  18) = (  -0.3517204   0.3904817   0.7738637  )
        19           C   tau(  19) = (   0.1580534  -0.1192921   0.7738637  )
        20           C   tau(  20) = (  -0.0968335   0.1355948   1.1203682  )
        21           C   tau(  21) = (   0.1580534   0.3904817   0.0808549  )
        22           C   tau(  22) = (  -0.0968335   0.6453687   0.4273593  )
        23           C   tau(  23) = (   0.4129403   0.1355948   0.4273593  )
        24           C   tau(  24) = (   0.1580534   0.3904817   0.7738637  )
        25           C   tau(  25) = (  -0.0244840   0.1283983   0.4318794  )
        26           C   tau(  26) = (  -0.2793710   0.3832852   0.7783839  )
        27           C   tau(  27) = (   0.2304029  -0.1264886   0.7783839  )
        28           C   tau(  28) = (  -0.0244840   0.1283983   1.1248883  )
        29           C   tau(  29) = (   0.2304029   0.3832852   0.0853750  )
        30           C   tau(  30) = (  -0.0244840   0.6381721   0.4318794  )
        31           C   tau(  31) = (   0.4852898   0.1283983   0.4318794  )
        32           C   tau(  32) = (   0.2304029   0.3832852   0.7783839  )
        33           C   tau(  33) = (   0.1135697   0.3364209   0.0858899  )
        34           C   tau(  34) = (  -0.1413172   0.5913078   0.4323944  )
        35           C   tau(  35) = (   0.3684566   0.0815340   0.4323944  )
        36           C   tau(  36) = (   0.1135697   0.3364209   0.7788988  )
        37           C   tau(  37) = (   0.3684566   0.5913078  -0.2606145  )
        38           C   tau(  38) = (   0.1135697   0.8461947   0.0858899  )
        39           C   tau(  39) = (   0.6233435   0.3364209   0.0858899  )
        40           C   tau(  40) = (   0.3684566   0.5913078   0.4323944  )
        41           H   tau(  41) = (   0.1320089   0.2848859   0.0919123  )
        42           H   tau(  42) = (  -0.1228780   0.5397728   0.4384168  )
        43           H   tau(  43) = (   0.3868958   0.0299990   0.4384168  )
        44           H   tau(  44) = (   0.1320089   0.2848859   0.7849212  )
        45           H   tau(  45) = (   0.3868958   0.5397728  -0.2545921  )
        46           H   tau(  46) = (   0.1320089   0.7946597   0.0919123  )
        47           H   tau(  47) = (   0.6417827   0.2848859   0.0919123  )
        48           H   tau(  48) = (   0.3868958   0.5397728   0.4384168  )
        49           C   tau(  49) = (   0.0231364   0.4163326   0.0807640  )
        50           C   tau(  50) = (  -0.2314797   0.6714904   0.4269002  )
        51           C   tau(  51) = (   0.2782941   0.1617165   0.4269002  )
        52           C   tau(  52) = (   0.0234072   0.4166034   0.7734046  )
        53           C   tau(  53) = (   0.2782941   0.6714904  -0.2661087  )
        54           C   tau(  54) = (   0.0234072   0.9263773   0.0803957  )
        55           C   tau(  55) = (   0.5331811   0.4166034   0.0803957  )
        56           C   tau(  56) = (   0.2782941   0.6714904   0.4269002  )
        57           H   tau(  57) = (  -0.0300067   0.4299903   0.0814174  )
        58           H   tau(  58) = (  -0.2848936   0.6848772   0.4279218  )
        59           H   tau(  59) = (   0.2248802   0.1751034   0.4279218  )
        60           H   tau(  60) = (  -0.0300067   0.4299903   0.7744263  )
        61           H   tau(  61) = (   0.2248802   0.6848772  -0.2650870  )
        62           H   tau(  62) = (  -0.0300067   0.9397641   0.0814174  )
        63           H   tau(  63) = (   0.4797671   0.4299903   0.0814174  )
        64           H   tau(  64) = (   0.2248802   0.6848772   0.4279218  )
        65           N   tau(  65) = (   0.0137429   0.0791523   0.4063605  )
        66           N   tau(  66) = (  -0.2411440   0.3340392   0.7528650  )
        67           N   tau(  67) = (   0.2686298  -0.1757347   0.7528650  )
        68           N   tau(  68) = (   0.0137429   0.0791523   1.0993694  )
        69           N   tau(  69) = (   0.2686298   0.3340392   0.0598561  )
        70           N   tau(  70) = (   0.0137429   0.5889261   0.4063605  )
        71           N   tau(  71) = (   0.5235167   0.0791523   0.4063605  )
        72           N   tau(  72) = (   0.2686298   0.3340392   0.7528650  )
        73           N   tau(  73) = (   0.0778636   0.0929680   0.4236992  )
        74           N   tau(  74) = (  -0.1770233   0.3478549   0.7702037  )
        75           N   tau(  75) = (   0.3327505  -0.1619189   0.7702037  )
        76           N   tau(  76) = (   0.0778636   0.0929680   1.1167081  )
        77           N   tau(  77) = (   0.3327505   0.3478549   0.0771948  )
        78           N   tau(  78) = (   0.0778636   0.6027418   0.4236992  )
        79           N   tau(  79) = (   0.5876374   0.0929680   0.4236992  )
        80           N   tau(  80) = (   0.3327505   0.3478549   0.7702037  )
        81           C   tau(  81) = (  -0.1238286   0.2001118   0.4205514  )
        82           C   tau(  82) = (  -0.3787155   0.4549987   0.7670558  )
        83           C   tau(  83) = (   0.1310583  -0.0547751   0.7670558  )
        84           C   tau(  84) = (  -0.1238286   0.2001118   1.1135603  )
        85           C   tau(  85) = (   0.1310583   0.4549987   0.0740469  )
        86           C   tau(  86) = (  -0.1238286   0.7098857   0.4205514  )
        87           C   tau(  87) = (   0.3859452   0.2001118   0.4205514  )
        88           C   tau(  88) = (   0.1310583   0.4549987   0.7670558  )
        89           H   tau(  89) = (   0.1645114  -0.0114933   0.0672613  )
        90           H   tau(  90) = (  -0.0903755   0.2433936   0.4137658  )
        91           H   tau(  91) = (   0.4193983  -0.2663802   0.4137658  )
        92           H   tau(  92) = (   0.1645114  -0.0114933   0.7602702  )
        93           H   tau(  93) = (   0.4193983   0.2433936  -0.2792431  )
        94           H   tau(  94) = (   0.1645114   0.4982805   0.0672613  )
        95           H   tau(  95) = (   0.6742852  -0.0114933   0.0672613  )
        96           H   tau(  96) = (   0.4193983   0.2433936   0.4137658  )
        97           N   tau(  97) = (   0.0658052  -0.0414701   0.0746064  )
        98           N   tau(  98) = (  -0.1890817   0.2134168   0.4211109  )
        99           N   tau(  99) = (   0.3206921  -0.2963571   0.4211109  )
       100           N   tau( 100) = (   0.0658052  -0.0414701   0.7676153  )
       101           N   tau( 101) = (   0.3206921   0.2134168  -0.2718980  )
       102           N   tau( 102) = (   0.0658052   0.4683037   0.0746064  )
       103           N   tau( 103) = (   0.5755790  -0.0414701   0.0746064  )
       104           N   tau( 104) = (   0.3206921   0.2134168   0.4211109  )
       105           C   tau( 105) = (  -0.0451994   0.1596322   0.0850839  )
       106           C   tau( 106) = (  -0.3000863   0.4145191   0.4315883  )
       107           C   tau( 107) = (   0.2096875  -0.0952547   0.4315883  )
       108           C   tau( 108) = (  -0.0451994   0.1596322   0.7780928  )
       109           C   tau( 109) = (   0.2096875   0.4145191  -0.2614205  )
       110           C   tau( 110) = (  -0.0451994   0.6694060   0.0850839  )
       111           C   tau( 111) = (   0.4645744   0.1596322   0.0850839  )
       112           C   tau( 112) = (   0.2096875   0.4145191   0.4315883  )
       113           H   tau( 113) = (   0.0082067   0.3098036   0.0895138  )
       114           H   tau( 114) = (  -0.2466802   0.5646905   0.4360182  )
       115           H   tau( 115) = (   0.2630936   0.0549167   0.4360182  )
       116           H   tau( 116) = (   0.0082067   0.3098036   0.7825226  )
       117           H   tau( 117) = (   0.2630936   0.5646905  -0.2569907  )
       118           H   tau( 118) = (   0.0082067   0.8195774   0.0895138  )
       119           H   tau( 119) = (   0.5179805   0.3098036   0.0895138  )
       120           H   tau( 120) = (   0.2630936   0.5646905   0.4360182  )
       121           N   tau( 121) = (   0.2387270   0.0829864   0.1173636  )
       122           N   tau( 122) = (  -0.0161599   0.3378733   0.4638680  )
       123           N   tau( 123) = (   0.4936139  -0.1719005   0.4638680  )
       124           N   tau( 124) = (   0.2387270   0.0829864   0.8103725  )
       125           N   tau( 125) = (   0.4936139   0.3378733  -0.2291408  )
       126           N   tau( 126) = (   0.2387270   0.5927603   0.1173636  )
       127           N   tau( 127) = (   0.7485008   0.0829864   0.1173636  )
       128           N   tau( 128) = (   0.4936139   0.3378733   0.4638680  )
       129           N   tau( 129) = (   0.1755977   0.1067907   0.1111471  )
       130           N   tau( 130) = (  -0.0792892   0.3616776   0.4576515  )
       131           N   tau( 131) = (   0.4304846  -0.1480962   0.4576515  )
       132           N   tau( 132) = (   0.1755977   0.1067907   0.8041559  )
       133           N   tau( 133) = (   0.4304846   0.3616776  -0.2353574  )
       134           N   tau( 134) = (   0.1755977   0.6165645   0.1111471  )
       135           N   tau( 135) = (   0.6853715   0.1067907   0.1111471  )
       136           N   tau( 136) = (   0.4304846   0.3616776   0.4576515  )
       137           C   tau( 137) = (   0.3517204   0.1192921   0.0808549  )
       138           C   tau( 138) = (   0.0968335   0.3741790   0.4273593  )
       139           C   tau( 139) = (   0.6066073  -0.1355948   0.4273593  )
       140           C   tau( 140) = (   0.3517204   0.1192921   0.7738637  )
       141           C   tau( 141) = (   0.6066073   0.3741790  -0.2656496  )
       142           C   tau( 142) = (   0.3517204   0.6290659   0.0808549  )
       143           C   tau( 143) = (   0.8614942   0.1192921   0.0808549  )
       144           C   tau( 144) = (   0.6066073   0.3741790   0.4273593  )
       145           C   tau( 145) = (   0.2793710   0.1264886   0.0853750  )
       146           C   tau( 146) = (   0.0244840   0.3813755   0.4318794  )
       147           C   tau( 147) = (   0.5342579  -0.1283983   0.4318794  )
       148           C   tau( 148) = (   0.2793710   0.1264886   0.7783839  )
       149           C   tau( 149) = (   0.5342579   0.3813755  -0.2611294  )
       150           C   tau( 150) = (   0.2793710   0.6362624   0.0853750  )
       151           C   tau( 151) = (   0.7891448   0.1264886   0.0853750  )
       152           C   tau( 152) = (   0.5342579   0.3813755   0.4318794  )
       153           C   tau( 153) = (   0.1413172  -0.0815340   0.4323944  )
       154           C   tau( 154) = (  -0.1135697   0.1733530   0.7788988  )
       155           C   tau( 155) = (   0.3962041  -0.3364209   0.7788988  )
       156           C   tau( 156) = (   0.1413172  -0.0815340   1.1254033  )
       157           C   tau( 157) = (   0.3962041   0.1733530   0.0858899  )
       158           C   tau( 158) = (   0.1413172   0.4282399   0.4323944  )
       159           C   tau( 159) = (   0.6510910  -0.0815340   0.4323944  )
       160           C   tau( 160) = (   0.3962041   0.1733530   0.7788988  )
       161           H   tau( 161) = (   0.1228780  -0.0299990   0.4384168  )
       162           H   tau( 162) = (  -0.1320089   0.2248879   0.7849212  )
       163           H   tau( 163) = (   0.3777649  -0.2848859   0.7849212  )
       164           H   tau( 164) = (   0.1228780  -0.0299990   1.1314256  )
       165           H   tau( 165) = (   0.3777649   0.2248879   0.0919123  )
       166           H   tau( 166) = (   0.1228780   0.4797748   0.4384168  )
       167           H   tau( 167) = (   0.6326518  -0.0299990   0.4384168  )
       168           H   tau( 168) = (   0.3777649   0.2248879   0.7849212  )
       169           C   tau( 169) = (  -0.0234072   0.0931704   0.0803957  )
       170           C   tau( 170) = (  -0.2782942   0.3480573   0.4269002  )
       171           C   tau( 171) = (   0.2314797  -0.1617165   0.4269002  )
       172           C   tau( 172) = (  -0.0234072   0.0931704   0.7734046  )
       173           C   tau( 173) = (   0.2314797   0.3480573  -0.2661087  )
       174           C   tau( 174) = (  -0.0234072   0.6029442   0.0803957  )
       175           C   tau( 175) = (   0.4863666   0.0931704   0.0803957  )
       176           C   tau( 176) = (   0.2314797   0.3480573   0.4269002  )
       177           H   tau( 177) = (   0.0300067   0.0797836   0.0814174  )
       178           H   tau( 178) = (  -0.2248802   0.3346705   0.4279218  )
       179           H   tau( 179) = (   0.2848936  -0.1751034   0.4279218  )
       180           H   tau( 180) = (   0.0300067   0.0797836   0.7744263  )
       181           H   tau( 181) = (   0.2848936   0.3346705  -0.2650870  )
       182           H   tau( 182) = (   0.0300067   0.5895574   0.0814174  )
       183           H   tau( 183) = (   0.5397805   0.0797836   0.0814174  )
       184           H   tau( 184) = (   0.2848936   0.3346705   0.4279218  )
       185           N   tau( 185) = (   0.2411440   0.1757347   0.0598561  )
       186           N   tau( 186) = (  -0.0137429   0.4306216   0.4063605  )
       187           N   tau( 187) = (   0.4960309  -0.0791523   0.4063605  )
       188           N   tau( 188) = (   0.2411440   0.1757347   0.7528650  )
       189           N   tau( 189) = (   0.4960309   0.4306216  -0.2866484  )
       190           N   tau( 190) = (   0.2411440   0.6855085   0.0598561  )
       191           N   tau( 191) = (   0.7509178   0.1757347   0.0598561  )
       192           N   tau( 192) = (   0.4960309   0.4306216   0.4063605  )
       193           N   tau( 193) = (   0.1770233   0.1619189   0.0771948  )
       194           N   tau( 194) = (  -0.0778636   0.4168059   0.4236992  )
       195           N   tau( 195) = (   0.4319102  -0.0929680   0.4236992  )
       196           N   tau( 196) = (   0.1770233   0.1619189   0.7702037  )
       197           N   tau( 197) = (   0.4319102   0.4168059  -0.2693096  )
       198           N   tau( 198) = (   0.1770233   0.6716928   0.0771948  )
       199           N   tau( 199) = (   0.6867971   0.1619189   0.0771948  )
       200           N   tau( 200) = (   0.4319102   0.4168059   0.4236992  )
       201           C   tau( 201) = (   0.3787155   0.0547751   0.0740469  )
       202           C   tau( 202) = (   0.1238286   0.3096620   0.4205514  )
       203           C   tau( 203) = (   0.6336024  -0.2001118   0.4205514  )
       204           C   tau( 204) = (   0.3787155   0.0547751   0.7670558  )
       205           C   tau( 205) = (   0.6336024   0.3096620  -0.2724575  )
       206           C   tau( 206) = (   0.3787155   0.5645489   0.0740469  )
       207           C   tau( 207) = (   0.8884893   0.0547751   0.0740469  )
       208           C   tau( 208) = (   0.6336024   0.3096620   0.4205514  )
       209           H   tau( 209) = (   0.3452624   0.0114933   0.0672613  )
       210           H   tau( 210) = (   0.0903755   0.2663802   0.4137658  )
       211           H   tau( 211) = (   0.6001493  -0.2433936   0.4137658  )
       212           H   tau( 212) = (   0.3452624   0.0114933   0.7602702  )
       213           H   tau( 213) = (   0.6001493   0.2663802  -0.2792431  )
       214           H   tau( 214) = (   0.3452624   0.5212672   0.0672613  )
       215           H   tau( 215) = (   0.8550362   0.0114933   0.0672613  )
       216           H   tau( 216) = (   0.6001493   0.2663802   0.4137658  )
       217           N   tau( 217) = (   0.4439686   0.0414701   0.0746064  )
       218           N   tau( 218) = (   0.1890817   0.2963571   0.4211109  )
       219           N   tau( 219) = (   0.6988555  -0.2134168   0.4211109  )
       220           N   tau( 220) = (   0.4439686   0.0414701   0.7676153  )
       221           N   tau( 221) = (   0.6988555   0.2963571  -0.2718980  )
       222           N   tau( 222) = (   0.4439686   0.5512440   0.0746064  )
       223           N   tau( 223) = (   0.9537424   0.0414701   0.0746064  )
       224           N   tau( 224) = (   0.6988555   0.2963571   0.4211109  )
       225           C   tau( 225) = (   0.0451994   0.3501416   0.0850839  )
       226           C   tau( 226) = (  -0.2096875   0.6050285   0.4315883  )
       227           C   tau( 227) = (   0.3000863   0.0952547   0.4315883  )
       228           C   tau( 228) = (   0.0451994   0.3501416   0.7780928  )
       229           C   tau( 229) = (   0.3000863   0.6050285  -0.2614205  )
       230           C   tau( 230) = (   0.0451994   0.8599154   0.0850839  )
       231           C   tau( 231) = (   0.5549732   0.3501416   0.0850839  )
       232           C   tau( 232) = (   0.3000863   0.6050285   0.4315883  )
       233           H   tau( 233) = (  -0.0082067   0.1999702   0.0895138  )
       234           H   tau( 234) = (  -0.2630936   0.4548571   0.4360182  )
       235           H   tau( 235) = (   0.2466802  -0.0549167   0.4360182  )
       236           H   tau( 236) = (  -0.0082067   0.1999702   0.7825226  )
       237           H   tau( 237) = (   0.2466802   0.4548571  -0.2569907  )
       238           H   tau( 238) = (  -0.0082067   0.7097440   0.0895138  )
       239           H   tau( 239) = (   0.5015671   0.1999702   0.0895138  )
       240           H   tau( 240) = (   0.2466802   0.4548571   0.4360182  )
       241           N   tau( 241) = (   0.1719005  -0.0161599   0.2291408  )
       242           N   tau( 242) = (  -0.0829864   0.2387270   0.5756453  )
       243           N   tau( 243) = (   0.4267874  -0.2710468   0.5756453  )
       244           N   tau( 244) = (   0.1719005  -0.0161599   0.9221497  )
       245           N   tau( 245) = (   0.4267874   0.2387270  -0.1173636  )
       246           N   tau( 246) = (   0.1719005   0.4936139   0.2291408  )
       247           N   tau( 247) = (   0.6816743  -0.0161599   0.2291408  )
       248           N   tau( 248) = (   0.4267874   0.2387270   0.5756453  )
       249           N   tau( 249) = (   0.1480962  -0.0792892   0.2353574  )
       250           N   tau( 250) = (  -0.1067907   0.1755977   0.5818618  )
       251           N   tau( 251) = (   0.4029831  -0.3341761   0.5818618  )
       252           N   tau( 252) = (   0.1480962  -0.0792892   0.9283662  )
       253           N   tau( 253) = (   0.4029831   0.1755977  -0.1111471  )
       254           N   tau( 254) = (   0.1480962   0.4304846   0.2353574  )
       255           N   tau( 255) = (   0.6578701  -0.0792892   0.2353574  )
       256           N   tau( 256) = (   0.4029831   0.1755977   0.5818618  )
       257           C   tau( 257) = (   0.1355948   0.0968335   0.2656496  )
       258           C   tau( 258) = (  -0.1192921   0.3517204   0.6121540  )
       259           C   tau( 259) = (   0.3904817  -0.1580534   0.6121540  )
       260           C   tau( 260) = (   0.1355948   0.0968335   0.9586584  )
       261           C   tau( 261) = (   0.3904817   0.3517204  -0.0808549  )
       262           C   tau( 262) = (   0.1355948   0.6066073   0.2656496  )
       263           C   tau( 263) = (   0.6453687   0.0968335   0.2656496  )
       264           C   tau( 264) = (   0.3904817   0.3517204   0.6121540  )
       265           C   tau( 265) = (   0.1283983   0.0244840   0.2611294  )
       266           C   tau( 266) = (  -0.1264886   0.2793710   0.6076339  )
       267           C   tau( 267) = (   0.3832852  -0.2304029   0.6076339  )
       268           C   tau( 268) = (   0.1283983   0.0244840   0.9541383  )
       269           C   tau( 269) = (   0.3832852   0.2793710  -0.0853750  )
       270           C   tau( 270) = (   0.1283983   0.5342579   0.2611294  )
       271           C   tau( 271) = (   0.6381721   0.0244840   0.2611294  )
       272           C   tau( 272) = (   0.3832852   0.2793710   0.6076339  )
       273           C   tau( 273) = (   0.0815340   0.1413172   0.2606145  )
       274           C   tau( 274) = (  -0.1733530   0.3962041   0.6071189  )
       275           C   tau( 275) = (   0.3364209  -0.1135697   0.6071189  )
       276           C   tau( 276) = (   0.0815340   0.1413172   0.9536234  )
       277           C   tau( 277) = (   0.3364209   0.3962041  -0.0858899  )
       278           C   tau( 278) = (   0.0815340   0.6510910   0.2606145  )
       279           C   tau( 279) = (   0.5913078   0.1413172   0.2606145  )
       280           C   tau( 280) = (   0.3364209   0.3962041   0.6071189  )
       281           H   tau( 281) = (   0.0299990   0.1228780   0.2545921  )
       282           H   tau( 282) = (  -0.2248879   0.3777649   0.6010965  )
       283           H   tau( 283) = (   0.2848859  -0.1320089   0.6010965  )
       284           H   tau( 284) = (   0.0299990   0.1228780   0.9476010  )
       285           H   tau( 285) = (   0.2848859   0.3777649  -0.0919123  )
       286           H   tau( 286) = (   0.0299990   0.6326518   0.2545921  )
       287           H   tau( 287) = (   0.5397728   0.1228780   0.2545921  )
       288           H   tau( 288) = (   0.2848859   0.3777649   0.6010965  )
       289           C   tau( 289) = (   0.1617165   0.2314797   0.2661087  )
       290           C   tau( 290) = (  -0.0931704   0.4863666   0.6126131  )
       291           C   tau( 291) = (   0.4166034  -0.0234072   0.6126131  )
       292           C   tau( 292) = (   0.1617165   0.2314797   0.9591176  )
       293           C   tau( 293) = (   0.4166034   0.4863666  -0.0803957  )
       294           C   tau( 294) = (   0.1617165   0.7412535   0.2661087  )
       295           C   tau( 295) = (   0.6714904   0.2314797   0.2661087  )
       296           C   tau( 296) = (   0.4166034   0.4863666   0.6126131  )
       297           H   tau( 297) = (   0.1751034   0.2848936   0.2650870  )
       298           H   tau( 298) = (  -0.0797836   0.5397805   0.6115915  )
       299           H   tau( 299) = (   0.4299903   0.0300067   0.6115915  )
       300           H   tau( 300) = (   0.1751034   0.2848936   0.9580959  )
       301           H   tau( 301) = (   0.4299903   0.5397805  -0.0814174  )
       302           H   tau( 302) = (   0.1751034   0.7946674   0.2650870  )
       303           H   tau( 303) = (   0.6848772   0.2848936   0.2650870  )
       304           H   tau( 304) = (   0.4299903   0.5397805   0.6115915  )
       305           N   tau( 305) = (   0.0791523  -0.0137429   0.2866484  )
       306           N   tau( 306) = (  -0.1757347   0.2411440   0.6331528  )
       307           N   tau( 307) = (   0.3340392  -0.2686298   0.6331528  )
       308           N   tau( 308) = (   0.0791523  -0.0137429   0.9796572  )
       309           N   tau( 309) = (   0.3340392   0.2411440  -0.0598561  )
       310           N   tau( 310) = (   0.0791523   0.4960309   0.2866484  )
       311           N   tau( 311) = (   0.5889261  -0.0137429   0.2866484  )
       312           N   tau( 312) = (   0.3340392   0.2411440   0.6331528  )
       313           N   tau( 313) = (   0.0929680  -0.0778636   0.2693096  )
       314           N   tau( 314) = (  -0.1619189   0.1770233   0.6158141  )
       315           N   tau( 315) = (   0.3478549  -0.3327505   0.6158141  )
       316           N   tau( 316) = (   0.0929680  -0.0778636   0.9623185  )
       317           N   tau( 317) = (   0.3478549   0.1770233  -0.0771948  )
       318           N   tau( 318) = (   0.0929680   0.4319102   0.2693096  )
       319           N   tau( 319) = (   0.6027418  -0.0778636   0.2693096  )
       320           N   tau( 320) = (   0.3478549   0.1770233   0.6158141  )
       321           C   tau( 321) = (   0.2001118   0.1238286   0.2724575  )
       322           C   tau( 322) = (  -0.0547751   0.3787155   0.6189619  )
       323           C   tau( 323) = (   0.4549987  -0.1310583   0.6189619  )
       324           C   tau( 324) = (   0.2001118   0.1238286   0.9654664  )
       325           C   tau( 325) = (   0.4549987   0.3787155  -0.0740469  )
       326           C   tau( 326) = (   0.2001118   0.6336024   0.2724575  )
       327           C   tau( 327) = (   0.7098857   0.1238286   0.2724575  )
       328           C   tau( 328) = (   0.4549987   0.3787155   0.6189619  )
       329           H   tau( 329) = (   0.2433936   0.0903755   0.2792431  )
       330           H   tau( 330) = (  -0.0114933   0.3452624   0.6257475  )
       331           H   tau( 331) = (   0.4982805  -0.1645114   0.6257475  )
       332           H   tau( 332) = (   0.2433936   0.0903755   0.9722520  )
       333           H   tau( 333) = (   0.4982805   0.3452624  -0.0672613  )
       334           H   tau( 334) = (   0.2433936   0.6001493   0.2792431  )
       335           H   tau( 335) = (   0.7531674   0.0903755   0.2792431  )
       336           H   tau( 336) = (   0.4982805   0.3452624   0.6257475  )
       337           N   tau( 337) = (   0.2134168   0.1890817   0.2718980  )
       338           N   tau( 338) = (  -0.0414701   0.4439686   0.6184024  )
       339           N   tau( 339) = (   0.4683037  -0.0658052   0.6184024  )
       340           N   tau( 340) = (   0.2134168   0.1890817   0.9649069  )
       341           N   tau( 341) = (   0.4683037   0.4439686  -0.0746064  )
       342           N   tau( 342) = (   0.2134168   0.6988555   0.2718980  )
       343           N   tau( 343) = (   0.7231906   0.1890817   0.2718980  )
       344           N   tau( 344) = (   0.4683037   0.4439686   0.6184024  )
       345           C   tau( 345) = (  -0.0952547   0.3000863   0.2614205  )
       346           C   tau( 346) = (  -0.3501416   0.5549732   0.6079250  )
       347           C   tau( 347) = (   0.1596322   0.0451994   0.6079250  )
       348           C   tau( 348) = (  -0.0952547   0.3000863   0.9544294  )
       349           C   tau( 349) = (   0.1596322   0.5549732  -0.0850839  )
       350           C   tau( 350) = (  -0.0952547   0.8098601   0.2614205  )
       351           C   tau( 351) = (   0.4145191   0.3000863   0.2614205  )
       352           C   tau( 352) = (   0.1596322   0.5549732   0.6079250  )
       353           H   tau( 353) = (   0.0549167   0.2466802   0.2569907  )
       354           H   tau( 354) = (  -0.1999702   0.5015671   0.6034951  )
       355           H   tau( 355) = (   0.3098036  -0.0082067   0.6034951  )
       356           H   tau( 356) = (   0.0549167   0.2466802   0.9499995  )
       357           H   tau( 357) = (   0.3098036   0.5015671  -0.0895138  )
       358           H   tau( 358) = (   0.0549167   0.7564540   0.2569907  )
       359           H   tau( 359) = (   0.5646905   0.2466802   0.2569907  )
       360           H   tau( 360) = (   0.3098036   0.5015671   0.6034951  )
       361           N   tau( 361) = (   0.3378733   0.0161599   0.2291408  )
       362           N   tau( 362) = (   0.0829864   0.2710468   0.5756453  )
       363           N   tau( 363) = (   0.5927603  -0.2387270   0.5756453  )
       364           N   tau( 364) = (   0.3378733   0.0161599   0.9221497  )
       365           N   tau( 365) = (   0.5927603   0.2710468  -0.1173636  )
       366           N   tau( 366) = (   0.3378733   0.5259337   0.2291408  )
       367           N   tau( 367) = (   0.8476472   0.0161599   0.2291408  )
       368           N   tau( 368) = (   0.5927603   0.2710468   0.5756453  )
       369           N   tau( 369) = (   0.1067907   0.3341761  -0.1111471  )
       370           N   tau( 370) = (  -0.1480962   0.5890630   0.2353574  )
       371           N   tau( 371) = (   0.3616776   0.0792892   0.2353574  )
       372           N   tau( 372) = (   0.1067907   0.3341761   0.5818618  )
       373           N   tau( 373) = (   0.3616776   0.5890630  -0.4576515  )
       374           N   tau( 374) = (   0.1067907   0.8439499  -0.1111471  )
       375           N   tau( 375) = (   0.6165645   0.3341761  -0.1111471  )
       376           N   tau( 376) = (   0.3616776   0.5890630   0.2353574  )
       377           C   tau( 377) = (   0.1192921   0.1580534  -0.0808549  )
       378           C   tau( 378) = (  -0.1355948   0.4129403   0.2656496  )
       379           C   tau( 379) = (   0.3741790  -0.0968335   0.2656496  )
       380           C   tau( 380) = (   0.1192921   0.1580534   0.6121540  )
       381           C   tau( 381) = (   0.3741790   0.4129403  -0.4273593  )
       382           C   tau( 382) = (   0.1192921   0.6678273  -0.0808549  )
       383           C   tau( 383) = (   0.6290659   0.1580534  -0.0808549  )
       384           C   tau( 384) = (   0.3741790   0.4129403   0.2656496  )
       385           C   tau( 385) = (   0.1264886   0.2304029  -0.0853750  )
       386           C   tau( 386) = (  -0.1283983   0.4852898   0.2611294  )
       387           C   tau( 387) = (   0.3813755  -0.0244840   0.2611294  )
       388           C   tau( 388) = (   0.1264886   0.2304029   0.6076339  )
       389           C   tau( 389) = (   0.3813755   0.4852898  -0.4318794  )
       390           C   tau( 390) = (   0.1264886   0.7401767  -0.0853750  )
       391           C   tau( 391) = (   0.6362624   0.2304029  -0.0853750  )
       392           C   tau( 392) = (   0.3813755   0.4852898   0.2611294  )
       393           C   tau( 393) = (   0.1733530   0.1135697  -0.0858899  )
       394           C   tau( 394) = (  -0.0815340   0.3684566   0.2606145  )
       395           C   tau( 395) = (   0.4282399  -0.1413172   0.2606145  )
       396           C   tau( 396) = (   0.1733530   0.1135697   0.6071189  )
       397           C   tau( 397) = (   0.4282399   0.3684566  -0.4323944  )
       398           C   tau( 398) = (   0.1733530   0.6233435  -0.0858899  )
       399           C   tau( 399) = (   0.6831268   0.1135697  -0.0858899  )
       400           C   tau( 400) = (   0.4282399   0.3684566   0.2606145  )
       401           H   tau( 401) = (   0.2248879   0.1320089  -0.0919123  )
       402           H   tau( 402) = (  -0.0299990   0.3868958   0.2545921  )
       403           H   tau( 403) = (   0.4797748  -0.1228780   0.2545921  )
       404           H   tau( 404) = (   0.2248879   0.1320089   0.6010965  )
       405           H   tau( 405) = (   0.4797748   0.3868958  -0.4384168  )
       406           H   tau( 406) = (   0.2248879   0.6417827  -0.0919123  )
       407           H   tau( 407) = (   0.7346617   0.1320089  -0.0919123  )
       408           H   tau( 408) = (   0.4797748   0.3868958   0.2545921  )
       409           C   tau( 409) = (  -0.1617165   0.2782942   0.2661087  )
       410           C   tau( 410) = (  -0.4166034   0.5331811   0.6126131  )
       411           C   tau( 411) = (   0.0931704   0.0234072   0.6126131  )
       412           C   tau( 412) = (  -0.1617165   0.2782942   0.9591176  )
       413           C   tau( 413) = (   0.0931704   0.5331811  -0.0803957  )
       414           C   tau( 414) = (  -0.1617165   0.7880680   0.2661087  )
       415           C   tau( 415) = (   0.3480573   0.2782942   0.2661087  )
       416           C   tau( 416) = (   0.0931704   0.5331811   0.6126131  )
       417           H   tau( 417) = (  -0.1751034   0.2248802   0.2650870  )
       418           H   tau( 418) = (  -0.4299903   0.4797671   0.6115915  )
       419           H   tau( 419) = (   0.0797836  -0.0300067   0.6115915  )
       420           H   tau( 420) = (  -0.1751034   0.2248802   0.9580959  )
       421           H   tau( 421) = (   0.0797836   0.4797671  -0.0814174  )
       422           H   tau( 422) = (  -0.1751034   0.7346540   0.2650870  )
       423           H   tau( 423) = (   0.3346705   0.2248802   0.2650870  )
       424           H   tau( 424) = (   0.0797836   0.4797671   0.6115915  )
       425           N   tau( 425) = (   0.1757347   0.2686298  -0.0598561  )
       426           N   tau( 426) = (  -0.0791523   0.5235167   0.2866484  )
       427           N   tau( 427) = (   0.4306216   0.0137429   0.2866484  )
       428           N   tau( 428) = (   0.1757347   0.2686298   0.6331528  )
       429           N   tau( 429) = (   0.4306216   0.5235167  -0.4063605  )
       430           N   tau( 430) = (   0.1757347   0.7784037  -0.0598561  )
       431           N   tau( 431) = (   0.6855085   0.2686298  -0.0598561  )
       432           N   tau( 432) = (   0.4306216   0.5235167   0.2866484  )
       433           N   tau( 433) = (   0.1619189   0.3327505  -0.0771948  )
       434           N   tau( 434) = (  -0.0929680   0.5876374   0.2693096  )
       435           N   tau( 435) = (   0.4168059   0.0778636   0.2693096  )
       436           N   tau( 436) = (   0.1619189   0.3327505   0.6158141  )
       437           N   tau( 437) = (   0.4168059   0.5876374  -0.4236992  )
       438           N   tau( 438) = (   0.1619189   0.8425243  -0.0771948  )
       439           N   tau( 439) = (   0.6716928   0.3327505  -0.0771948  )
       440           N   tau( 440) = (   0.4168059   0.5876374   0.2693096  )
       441           C   tau( 441) = (   0.0547751   0.1310583  -0.0740469  )
       442           C   tau( 442) = (  -0.2001118   0.3859452   0.2724575  )
       443           C   tau( 443) = (   0.3096620  -0.1238286   0.2724575  )
       444           C   tau( 444) = (   0.0547751   0.1310583   0.6189619  )
       445           C   tau( 445) = (   0.3096620   0.3859452  -0.4205514  )
       446           C   tau( 446) = (   0.0547751   0.6408321  -0.0740469  )
       447           C   tau( 447) = (   0.5645489   0.1310583  -0.0740469  )
       448           C   tau( 448) = (   0.3096620   0.3859452   0.2724575  )
       449           H   tau( 449) = (   0.2663802  -0.0903755   0.2792431  )
       450           H   tau( 450) = (   0.0114933   0.1645114   0.6257475  )
       451           H   tau( 451) = (   0.5212672  -0.3452624   0.6257475  )
       452           H   tau( 452) = (   0.2663802  -0.0903755   0.9722520  )
       453           H   tau( 453) = (   0.5212672   0.1645114  -0.0672613  )
       454           H   tau( 454) = (   0.2663802   0.4193983   0.2792431  )
       455           H   tau( 455) = (   0.7761541  -0.0903755   0.2792431  )
       456           H   tau( 456) = (   0.5212672   0.1645114   0.6257475  )
       457           N   tau( 457) = (   0.2963571  -0.1890817   0.2718980  )
       458           N   tau( 458) = (   0.0414701   0.0658052   0.6184024  )
       459           N   tau( 459) = (   0.5512440  -0.4439686   0.6184024  )
       460           N   tau( 460) = (   0.2963571  -0.1890817   0.9649069  )
       461           N   tau( 461) = (   0.5512440   0.0658052  -0.0746064  )
       462           N   tau( 462) = (   0.2963571   0.3206921   0.2718980  )
       463           N   tau( 463) = (   0.8061309  -0.1890817   0.2718980  )
       464           N   tau( 464) = (   0.5512440   0.0658052   0.6184024  )
       465           C   tau( 465) = (   0.0952547   0.2096875   0.2614205  )
       466           C   tau( 466) = (  -0.1596322   0.4645744   0.6079250  )
       467           C   tau( 467) = (   0.3501416  -0.0451994   0.6079250  )
       468           C   tau( 468) = (   0.0952547   0.2096875   0.9544294  )
       469           C   tau( 469) = (   0.3501416   0.4645744  -0.0850839  )
       470           C   tau( 470) = (   0.0952547   0.7194613   0.2614205  )
       471           C   tau( 471) = (   0.6050285   0.2096875   0.2614205  )
       472           C   tau( 472) = (   0.3501416   0.4645744   0.6079250  )
       473           H   tau( 473) = (  -0.0549167   0.2630936   0.2569907  )
       474           H   tau( 474) = (  -0.3098036   0.5179805   0.6034951  )
       475           H   tau( 475) = (   0.1999702   0.0082067   0.6034951  )
       476           H   tau( 476) = (  -0.0549167   0.2630936   0.9499995  )
       477           H   tau( 477) = (   0.1999702   0.5179805  -0.0895138  )
       478           H   tau( 478) = (  -0.0549167   0.7728675   0.2569907  )
       479           H   tau( 479) = (   0.4548571   0.2630936   0.2569907  )
       480           H   tau( 480) = (   0.1999702   0.5179805   0.6034951  )
       481           Zn  tau( 481) = (   0.2548869   0.0000000   0.1732522  )
       482           Zn  tau( 482) = (   0.0000000   0.2548869   0.5197567  )
       483           Zn  tau( 483) = (   0.5097738  -0.2548869   0.5197567  )
       484           Zn  tau( 484) = (   0.2548869   0.0000000   0.8662611  )
       485           Zn  tau( 485) = (   0.5097738   0.2548869  -0.1732522  )
       486           Zn  tau( 486) = (   0.2548869   0.5097738   0.1732522  )
       487           Zn  tau( 487) = (   0.7646607   0.0000000   0.1732522  )
       488           Zn  tau( 488) = (   0.5097738   0.2548869   0.5197567  )
       489           Zn  tau( 489) = (   0.0000000   0.0000000   0.3465044  )
       490           Zn  tau( 490) = (  -0.2548869   0.2548869   0.6930089  )
       491           Zn  tau( 491) = (   0.2548869  -0.2548869   0.6930089  )
       492           Zn  tau( 492) = (   0.0000000   0.0000000   1.0395133  )
       493           Zn  tau( 493) = (   0.2548869   0.2548869   0.0000000  )
       494           Zn  tau( 494) = (   0.0000000   0.5097738   0.3465044  )
       495           Zn  tau( 495) = (   0.5097738   0.0000000   0.3465044  )
       496           Zn  tau( 496) = (   0.2548869   0.2548869   0.6930089  )

   Crystallographic axes

     site n.     atom                  positions (cryst. coord.)
         1           N   tau(   1) = (  0.0032815  0.3505269  0.1844547  )
         2           N   tau(   2) = (  0.5032815  0.3505269  0.1844547  )
         3           N   tau(   3) = (  0.0032815  0.8505269  0.1844547  )
         4           N   tau(   4) = (  0.5032815  0.8505269  0.1844547  )
         5           N   tau(   5) = (  0.0032815  0.3505269  0.6844547  )
         6           N   tau(   6) = (  0.5032815  0.3505269  0.6844547  )
         7           N   tau(   7) = (  0.0032815  0.8505269  0.6844547  )
         8           N   tau(   8) = (  0.5032815  0.8505269  0.6844547  )
         9           N   tau(   9) = (  0.4754485  0.4079607  0.2230258  )
        10           N   tau(  10) = (  0.9754485  0.4079607  0.2230258  )
        11           N   tau(  11) = (  0.4754485  0.9079607  0.2230258  )
        12           N   tau(  12) = (  0.9754485  0.9079607  0.2230258  )
        13           N   tau(  13) = (  0.4754485  0.4079607  0.7230258  )
        14           N   tau(  14) = (  0.9754485  0.4079607  0.7230258  )
        15           N   tau(  15) = (  0.4754485  0.9079607  0.7230258  )
        16           N   tau(  16) = (  0.9754485  0.9079607  0.7230258  )
        17           C   tau(  17) = (  0.4413312  0.2133592  0.0380182  )
        18           C   tau(  18) = (  0.9413312  0.2133592  0.0380182  )
        19           C   tau(  19) = (  0.4413312  0.7133592  0.0380182  )
        20           C   tau(  20) = (  0.9413312  0.7133592  0.0380182  )
        21           C   tau(  21) = (  0.4413312  0.2133592  0.5380182  )
        22           C   tau(  22) = (  0.9413312  0.2133592  0.5380182  )
        23           C   tau(  23) = (  0.4413312  0.7133592  0.5380182  )
        24           C   tau(  24) = (  0.9413312  0.7133592  0.5380182  )
        25           C   tau(  25) = (  0.4375339  0.2875827  0.1019219  )
        26           C   tau(  26) = (  0.9375339  0.2875827  0.1019219  )
        27           C   tau(  27) = (  0.4375339  0.7875827  0.1019219  )
        28           C   tau(  28) = (  0.9375339  0.7875827  0.1019219  )
        29           C   tau(  29) = (  0.4375339  0.2875827  0.6019219  )
        30           C   tau(  30) = (  0.9375339  0.2875827  0.6019219  )
        31           C   tau(  31) = (  0.4375339  0.7875827  0.6019219  )
        32           C   tau(  32) = (  0.9375339  0.7875827  0.6019219  )
        33           C   tau(  33) = (  0.3919396  0.1733611  0.4413630  )
        34           C   tau(  34) = (  0.8919396  0.1733611  0.4413630  )
        35           C   tau(  35) = (  0.3919396  0.6733611  0.4413630  )
        36           C   tau(  36) = (  0.8919396  0.6733611  0.4413630  )
        37           C   tau(  37) = (  0.3919396  0.1733611  0.9413630  )
        38           C   tau(  38) = (  0.8919396  0.1733611  0.9413630  )
        39           C   tau(  39) = (  0.3919396  0.6733611  0.9413630  )
        40           C   tau(  40) = (  0.8919396  0.6733611  0.9413630  )
        41           H   tau(  41) = (  0.3457378  0.1957919  0.4089018  )
        42           H   tau(  42) = (  0.8457378  0.1957919  0.4089018  )
        43           H   tau(  43) = (  0.3457378  0.6957919  0.4089018  )
        44           H   tau(  44) = (  0.8457378  0.6957919  0.4089018  )
        45           H   tau(  45) = (  0.3457378  0.1957919  0.9089018  )
        46           H   tau(  46) = (  0.8457378  0.1957919  0.9089018  )
        47           H   tau(  47) = (  0.3457378  0.6957919  0.9089018  )
        48           H   tau(  48) = (  0.8457378  0.6957919  0.9089018  )
        49           C   tau(  49) = (  0.4666208  0.0809633  0.4310430  )
        50           C   tau(  50) = (  0.9666208  0.0809633  0.4315744  )
        51           C   tau(  51) = (  0.4666208  0.5809633  0.4315744  )
        52           C   tau(  52) = (  0.9666208  0.5809633  0.4315744  )
        53           C   tau(  53) = (  0.4666208  0.0809633  0.9315744  )
        54           C   tau(  54) = (  0.9666208  0.0809633  0.9315744  )
        55           C   tau(  55) = (  0.4666208  0.5809633  0.9315744  )
        56           C   tau(  56) = (  0.9666208  0.5809633  0.9315744  )
        57           H   tau(  57) = (  0.4804881  0.0293106  0.3923147  )
        58           H   tau(  58) = (  0.9804881  0.0293106  0.3923147  )
        59           H   tau(  59) = (  0.4804881  0.5293106  0.3923147  )
        60           H   tau(  60) = (  0.9804881  0.5293106  0.3923147  )
        61           H   tau(  61) = (  0.4804881  0.0293106  0.8923147  )
        62           H   tau(  62) = (  0.9804881  0.0293106  0.8923147  )
        63           H   tau(  63) = (  0.4804881  0.5293106  0.8923147  )
        64           H   tau(  64) = (  0.9804881  0.5293106  0.8923147  )
        65           N   tau(  65) = (  0.3708203  0.3066651  0.0911141  )
        66           N   tau(  66) = (  0.8708203  0.3066651  0.0911141  )
        67           N   tau(  67) = (  0.3708203  0.8066651  0.0911141  )
        68           N   tau(  68) = (  0.8708203  0.8066651  0.0911141  )
        69           N   tau(  69) = (  0.3708203  0.3066651  0.5911141  )
        70           N   tau(  70) = (  0.8708203  0.3066651  0.5911141  )
        71           N   tau(  71) = (  0.3708203  0.8066651  0.5911141  )
        72           N   tau(  72) = (  0.8708203  0.8066651  0.5911141  )
        73           N   tau(  73) = (  0.3968809  0.3820661  0.1675562  )
        74           N   tau(  74) = (  0.8968809  0.3820661  0.1675562  )
        75           N   tau(  75) = (  0.3968809  0.8820661  0.1675562  )
        76           N   tau(  76) = (  0.8968809  0.8820661  0.1675562  )
        77           N   tau(  77) = (  0.3968809  0.3820661  0.6675562  )
        78           N   tau(  78) = (  0.8968809  0.3820661  0.6675562  )
        79           N   tau(  79) = (  0.3968809  0.8820661  0.6675562  )
        80           N   tau(  80) = (  0.8968809  0.8820661  0.6675562  )
        81           C   tau(  81) = (  0.4996994  0.1819698  0.0748207  )
        82           C   tau(  82) = (  0.9996994  0.1819698  0.0748207  )
        83           C   tau(  83) = (  0.4996994  0.6819698  0.0748207  )
        84           C   tau(  84) = (  0.9996994  0.6819698  0.0748207  )
        85           C   tau(  85) = (  0.4996994  0.1819698  0.5748207  )
        86           C   tau(  86) = (  0.9996994  0.1819698  0.5748207  )
        87           C   tau(  87) = (  0.4996994  0.6819698  0.5748207  )
        88           C   tau(  88) = (  0.9996994  0.6819698  0.5748207  )
        89           H   tau(  89) = (  0.0372555  0.2098857  0.1500843  )
        90           H   tau(  90) = (  0.5372555  0.2098857  0.1500843  )
        91           H   tau(  91) = (  0.0372555  0.7098857  0.1500843  )
        92           H   tau(  92) = (  0.5372555  0.7098857  0.1500843  )
        93           H   tau(  93) = (  0.0372555  0.2098857  0.6500843  )
        94           H   tau(  94) = (  0.5372555  0.2098857  0.6500843  )
        95           H   tau(  95) = (  0.0372555  0.7098857  0.6500843  )
        96           H   tau(  96) = (  0.5372555  0.7098857  0.6500843  )
        97           N   tau(  97) = (  0.0131529  0.1183715  0.0238685  )
        98           N   tau(  98) = (  0.5131529  0.1183715  0.0238685  )
        99           N   tau(  99) = (  0.0131529  0.6183715  0.0238685  )
       100           N   tau( 100) = (  0.5131529  0.6183715  0.0238685  )
       101           N   tau( 101) = (  0.0131529  0.1183715  0.5238685  )
       102           N   tau( 102) = (  0.5131529  0.1183715  0.5238685  )
       103           N   tau( 103) = (  0.0131529  0.6183715  0.5238685  )
       104           N   tau( 104) = (  0.5131529  0.6183715  0.5238685  )
       105           C   tau( 105) = (  0.2179589  0.0170545  0.1122388  )
       106           C   tau( 106) = (  0.7179589  0.0170545  0.1122388  )
       107           C   tau( 107) = (  0.2179589  0.5170545  0.1122388  )
       108           C   tau( 108) = (  0.7179589  0.5170545  0.1122388  )
       109           C   tau( 109) = (  0.2179589  0.0170545  0.6122388  )
       110           C   tau( 110) = (  0.7179589  0.0170545  0.6122388  )
       111           C   tau( 111) = (  0.2179589  0.5170545  0.6122388  )
       112           C   tau( 112) = (  0.7179589  0.5170545  0.6122388  )
       113           H   tau( 113) = (  0.3684472  0.0726328  0.3119132  )
       114           H   tau( 114) = (  0.8684472  0.0726328  0.3119132  )
       115           H   tau( 115) = (  0.3684472  0.5726328  0.3119132  )
       116           H   tau( 116) = (  0.8684472  0.5726328  0.3119132  )
       117           H   tau( 117) = (  0.3684472  0.0726328  0.8119132  )
       118           H   tau( 118) = (  0.8684472  0.0726328  0.8119132  )
       119           H   tau( 119) = (  0.3684472  0.5726328  0.8119132  )
       120           H   tau( 120) = (  0.8684472  0.5726328  0.8119132  )
       121           N   tau( 121) = (  0.1660722  0.3188268  0.3155453  )
       122           N   tau( 122) = (  0.6660722  0.3188268  0.3155453  )
       123           N   tau( 123) = (  0.1660722  0.8188268  0.3155453  )
       124           N   tau( 124) = (  0.6660722  0.8188268  0.3155453  )
       125           N   tau( 125) = (  0.1660722  0.3188268  0.8155453  )
       126           N   tau( 126) = (  0.6660722  0.3188268  0.8155453  )
       127           N   tau( 127) = (  0.1660722  0.8188268  0.8155453  )
       128           N   tau( 128) = (  0.6660722  0.8188268  0.8155453  )
       129           N   tau( 129) = (  0.1849349  0.2524227  0.2769742  )
       130           N   tau( 130) = (  0.6849349  0.2524227  0.2769742  )
       131           N   tau( 131) = (  0.1849349  0.7524227  0.2769742  )
       132           N   tau( 132) = (  0.6849349  0.7524227  0.2769742  )
       133           N   tau( 133) = (  0.1849349  0.2524227  0.7769742  )
       134           N   tau( 134) = (  0.6849349  0.2524227  0.7769742  )
       135           N   tau( 135) = (  0.1849349  0.7524227  0.7769742  )
       136           N   tau( 136) = (  0.6849349  0.7524227  0.7769742  )
       137           C   tau( 137) = (  0.1753410  0.4033130  0.4619818  )
       138           C   tau( 138) = (  0.6753410  0.4033130  0.4619818  )
       139           C   tau( 139) = (  0.1753410  0.9033130  0.4619818  )
       140           C   tau( 140) = (  0.6753410  0.9033130  0.4619818  )
       141           C   tau( 141) = (  0.1753410  0.4033130  0.9619818  )
       142           C   tau( 142) = (  0.6753410  0.4033130  0.9619818  )
       143           C   tau( 143) = (  0.1753410  0.9033130  0.9619818  )
       144           C   tau( 144) = (  0.6753410  0.9033130  0.9619818  )
       145           C   tau( 145) = (  0.1856608  0.3356120  0.3980781  )
       146           C   tau( 146) = (  0.6856608  0.3356120  0.3980781  )
       147           C   tau( 147) = (  0.1856608  0.8356120  0.3980781  )
       148           C   tau( 148) = (  0.6856608  0.8356120  0.3980781  )
       149           C   tau( 149) = (  0.1856608  0.3356120  0.8980781  )
       150           C   tau( 150) = (  0.6856608  0.3356120  0.8980781  )
       151           C   tau( 151) = (  0.1856608  0.8356120  0.8980781  )
       152           C   tau( 152) = (  0.6856608  0.8356120  0.8980781  )
       153           C   tau( 153) = (  0.2319981  0.4505766  0.0586370  )
       154           C   tau( 154) = (  0.7319981  0.4505766  0.0586370  )
       155           C   tau( 155) = (  0.2319981  0.9505766  0.0586370  )
       156           C   tau( 156) = (  0.7319981  0.9505766  0.0586370  )
       157           C   tau( 157) = (  0.2319981  0.4505766  0.5586370  )
       158           C   tau( 158) = (  0.7319981  0.4505766  0.5586370  )
       159           C   tau( 159) = (  0.2319981  0.9505766  0.5586370  )
       160           C   tau( 160) = (  0.7319981  0.9505766  0.5586370  )
       161           H   tau( 161) = (  0.2868901  0.4368360  0.0910982  )
       162           H   tau( 162) = (  0.7868901  0.4368360  0.0910982  )
       163           H   tau( 163) = (  0.2868901  0.9368360  0.0910982  )
       164           H   tau( 164) = (  0.7868901  0.9368360  0.0910982  )
       165           H   tau( 165) = (  0.2868901  0.4368360  0.5910982  )
       166           H   tau( 166) = (  0.7868901  0.4368360  0.5910982  )
       167           H   tau( 167) = (  0.2868901  0.9368360  0.5910982  )
       168           H   tau( 168) = (  0.7868901  0.9368360  0.5910982  )
       169           C   tau( 169) = (  0.1493889  0.0350464  0.0684256  )
       170           C   tau( 170) = (  0.6493889  0.0350464  0.0684256  )
       171           C   tau( 171) = (  0.1493889  0.5350464  0.0684256  )
       172           C   tau( 172) = (  0.6493889  0.5350464  0.0684256  )
       173           C   tau( 173) = (  0.1493889  0.0350464  0.5684256  )
       174           C   tau( 174) = (  0.6493889  0.0350464  0.5684256  )
       175           C   tau( 175) = (  0.1493889  0.5350464  0.5684256  )
       176           C   tau( 176) = (  0.6493889  0.5350464  0.5684256  )
       177           H   tau( 177) = (  0.1369958  0.0881734  0.1076853  )
       178           H   tau( 178) = (  0.6369958  0.0881734  0.1076853  )
       179           H   tau( 179) = (  0.1369958  0.5881734  0.1076853  )
       180           H   tau( 180) = (  0.6369958  0.5881734  0.1076853  )
       181           H   tau( 181) = (  0.1369958  0.0881734  0.6076853  )
       182           H   tau( 182) = (  0.6369958  0.0881734  0.6076853  )
       183           H   tau( 183) = (  0.1369958  0.5881734  0.6076853  )
       184           H   tau( 184) = (  0.6369958  0.5881734  0.6076853  )
       185           N   tau( 185) = (  0.2155510  0.2797062  0.4088859  )
       186           N   tau( 186) = (  0.7155510  0.2797062  0.4088859  )
       187           N   tau( 187) = (  0.2155510  0.7797062  0.4088859  )
       188           N   tau( 188) = (  0.7155510  0.7797062  0.4088859  )
       189           N   tau( 189) = (  0.2155510  0.2797062  0.9088859  )
       190           N   tau( 190) = (  0.7155510  0.2797062  0.9088859  )
       191           N   tau( 191) = (  0.2155510  0.7797062  0.9088859  )
       192           N   tau( 192) = (  0.7155510  0.7797062  0.9088859  )
       193           N   tau( 193) = (  0.2145099  0.2293247  0.3324438  )
       194           N   tau( 194) = (  0.7145099  0.2293247  0.3324438  )
       195           N   tau( 195) = (  0.2145099  0.7293247  0.3324438  )
       196           N   tau( 196) = (  0.7145099  0.7293247  0.3324438  )
       197           N   tau( 197) = (  0.2145099  0.2293247  0.8324438  )
       198           N   tau( 198) = (  0.7145099  0.2293247  0.8324438  )
       199           N   tau( 199) = (  0.2145099  0.7293247  0.8324438  )
       200           N   tau( 200) = (  0.7145099  0.7293247  0.8324438  )
       201           C   tau( 201) = (  0.1071491  0.4248787  0.4251793  )
       202           C   tau( 202) = (  0.6071491  0.4248787  0.4251793  )
       203           C   tau( 203) = (  0.1071491  0.9248787  0.4251793  )
       204           C   tau( 204) = (  0.6071491  0.9248787  0.4251793  )
       205           C   tau( 205) = (  0.1071491  0.4248787  0.9251793  )
       206           C   tau( 206) = (  0.6071491  0.4248787  0.9251793  )
       207           C   tau( 207) = (  0.1071491  0.9248787  0.9251793  )
       208           C   tau( 208) = (  0.6071491  0.9248787  0.9251793  )
       209           H   tau( 209) = (  0.0598014  0.3871712  0.3499157  )
       210           H   tau( 210) = (  0.5598014  0.3871712  0.3499157  )
       211           H   tau( 211) = (  0.0598014  0.8871712  0.3499157  )
       212           H   tau( 212) = (  0.5598014  0.8871712  0.3499157  )
       213           H   tau( 213) = (  0.0598014  0.3871712  0.8499157  )
       214           H   tau( 214) = (  0.5598014  0.3871712  0.8499157  )
       215           H   tau( 215) = (  0.0598014  0.8871712  0.8499157  )
       216           H   tau( 216) = (  0.5598014  0.8871712  0.8499157  )
       217           N   tau( 217) = (  0.0945030  0.4892844  0.4761315  )
       218           N   tau( 218) = (  0.5945030  0.4892844  0.4761315  )
       219           N   tau( 219) = (  0.0945030  0.9892844  0.4761315  )
       220           N   tau( 220) = (  0.5945030  0.9892844  0.4761315  )
       221           N   tau( 221) = (  0.0945030  0.4892844  0.9761315  )
       222           N   tau( 222) = (  0.5945030  0.4892844  0.9761315  )
       223           N   tau( 223) = (  0.0945030  0.9892844  0.9761315  )
       224           N   tau( 224) = (  0.5945030  0.9892844  0.9761315  )
       225           C   tau( 225) = (  0.4048157  0.1057201  0.3877612  )
       226           C   tau( 226) = (  0.9048157  0.1057201  0.3877612  )
       227           C   tau( 227) = (  0.4048157  0.6057201  0.3877612  )
       228           C   tau( 228) = (  0.9048157  0.6057201  0.3877612  )
       229           C   tau( 229) = (  0.4048157  0.1057201  0.8877612  )
       230           C   tau( 230) = (  0.9048157  0.1057201  0.8877612  )
       231           C   tau( 231) = (  0.4048157  0.6057201  0.8877612  )
       232           C   tau( 232) = (  0.9048157  0.6057201  0.8877612  )
       233           H   tau( 233) = (  0.2607196  0.0565340  0.1880868  )
       234           H   tau( 234) = (  0.7607196  0.0565340  0.1880868  )
       235           H   tau( 235) = (  0.2607196  0.5565340  0.1880868  )
       236           H   tau( 236) = (  0.7607196  0.5565340  0.1880868  )
       237           H   tau( 237) = (  0.2607196  0.0565340  0.6880868  )
       238           H   tau( 238) = (  0.7607196  0.0565340  0.6880868  )
       239           H   tau( 239) = (  0.2607196  0.5565340  0.6880868  )
       240           H   tau( 240) = (  0.7607196  0.5565340  0.6880868  )
       241           N   tau( 241) = (  0.1494731  0.3339278  0.1527546  )
       242           N   tau( 242) = (  0.6494731  0.3339278  0.1527546  )
       243           N   tau( 243) = (  0.1494731  0.8339278  0.1527546  )
       244           N   tau( 244) = (  0.6494731  0.8339278  0.1527546  )
       245           N   tau( 245) = (  0.1494731  0.3339278  0.6527546  )
       246           N   tau( 246) = (  0.6494731  0.3339278  0.6527546  )
       247           N   tau( 247) = (  0.1494731  0.8339278  0.6527546  )
       248           N   tau( 248) = (  0.6494731  0.8339278  0.6527546  )
       249           N   tau( 249) = (  0.0920393  0.3150651  0.0674878  )
       250           N   tau( 250) = (  0.5920393  0.3150651  0.0674878  )
       251           N   tau( 251) = (  0.0920393  0.8150651  0.0674878  )
       252           N   tau( 252) = (  0.5920393  0.8150651  0.0674878  )
       253           N   tau( 253) = (  0.0920393  0.3150651  0.5674878  )
       254           N   tau( 254) = (  0.5920393  0.3150651  0.5674878  )
       255           N   tau( 255) = (  0.0920393  0.8150651  0.5674878  )
       256           N   tau( 256) = (  0.5920393  0.8150651  0.5674878  )
       257           C   tau( 257) = (  0.2866408  0.3246590  0.2279720  )
       258           C   tau( 258) = (  0.7866408  0.3246590  0.2279720  )
       259           C   tau( 259) = (  0.2866408  0.8246590  0.2279720  )
       260           C   tau( 260) = (  0.7866408  0.8246590  0.2279720  )
       261           C   tau( 261) = (  0.2866408  0.3246590  0.7279720  )
       262           C   tau( 262) = (  0.7866408  0.3246590  0.7279720  )
       263           C   tau( 263) = (  0.2866408  0.8246590  0.7279720  )
       264           C   tau( 264) = (  0.7866408  0.8246590  0.7279720  )
       265           C   tau( 265) = (  0.2124173  0.3143392  0.1499511  )
       266           C   tau( 266) = (  0.7124173  0.3143392  0.1499511  )
       267           C   tau( 267) = (  0.2124173  0.8143392  0.1499511  )
       268           C   tau( 268) = (  0.7124173  0.8143392  0.1499511  )
       269           C   tau( 269) = (  0.2124173  0.3143392  0.6499511  )
       270           C   tau( 270) = (  0.7124173  0.3143392  0.6499511  )
       271           C   tau( 271) = (  0.2124173  0.8143392  0.6499511  )
       272           C   tau( 272) = (  0.7124173  0.8143392  0.6499511  )
       273           C   tau( 273) = (  0.3266389  0.2680019  0.2185785  )
       274           C   tau( 274) = (  0.8266389  0.2680019  0.2185785  )
       275           C   tau( 275) = (  0.3266389  0.7680019  0.2185785  )
       276           C   tau( 276) = (  0.8266389  0.7680019  0.2185785  )
       277           C   tau( 277) = (  0.3266389  0.2680019  0.7185785  )
       278           C   tau( 278) = (  0.8266389  0.2680019  0.7185785  )
       279           C   tau( 279) = (  0.3266389  0.7680019  0.7185785  )
       280           C   tau( 280) = (  0.8266389  0.7680019  0.7185785  )
       281           H   tau( 281) = (  0.3042081  0.2131099  0.1499459  )
       282           H   tau( 282) = (  0.8042081  0.2131099  0.1499459  )
       283           H   tau( 283) = (  0.3042081  0.7131099  0.1499459  )
       284           H   tau( 284) = (  0.8042081  0.7131099  0.1499459  )
       285           H   tau( 285) = (  0.3042081  0.2131099  0.6499459  )
       286           H   tau( 286) = (  0.8042081  0.2131099  0.6499459  )
       287           H   tau( 287) = (  0.3042081  0.7131099  0.6499459  )
       288           H   tau( 288) = (  0.8042081  0.7131099  0.6499459  )
       289           C   tau( 289) = (  0.4190367  0.3506111  0.3856575  )
       290           C   tau( 290) = (  0.9190367  0.3506111  0.3856575  )
       291           C   tau( 291) = (  0.4190367  0.8506111  0.3856575  )
       292           C   tau( 292) = (  0.9190367  0.8506111  0.3856575  )
       293           C   tau( 293) = (  0.4190367  0.3506111  0.8856575  )
       294           C   tau( 294) = (  0.9190367  0.3506111  0.8856575  )
       295           C   tau( 295) = (  0.4190367  0.8506111  0.8856575  )
       296           C   tau( 296) = (  0.9190367  0.8506111  0.8856575  )
       297           H   tau( 297) = (  0.4706894  0.3630042  0.4511775  )
       298           H   tau( 298) = (  0.9706894  0.3630042  0.4511775  )
       299           H   tau( 299) = (  0.4706894  0.8630042  0.4511775  )
       300           H   tau( 300) = (  0.9706894  0.8630042  0.4511775  )
       301           H   tau( 301) = (  0.4706894  0.3630042  0.9511775  )
       302           H   tau( 302) = (  0.9706894  0.3630042  0.9511775  )
       303           H   tau( 303) = (  0.4706894  0.8630042  0.9511775  )
       304           H   tau( 304) = (  0.9706894  0.8630042  0.9511775  )
       305           N   tau( 305) = (  0.1933349  0.2844490  0.0641553  )
       306           N   tau( 306) = (  0.6933349  0.2844490  0.0641553  )
       307           N   tau( 307) = (  0.1933349  0.7844490  0.0641553  )
       308           N   tau( 308) = (  0.6933349  0.7844490  0.0641553  )
       309           N   tau( 309) = (  0.1933349  0.2844490  0.5641553  )
       310           N   tau( 310) = (  0.6933349  0.2844490  0.5641553  )
       311           N   tau( 311) = (  0.1933349  0.7844490  0.5641553  )
       312           N   tau( 312) = (  0.6933349  0.7844490  0.5641553  )
       313           N   tau( 313) = (  0.1179339  0.2854901  0.0148148  )
       314           N   tau( 314) = (  0.6179339  0.2854901  0.0148148  )
       315           N   tau( 315) = (  0.1179339  0.7854901  0.0148148  )
       316           N   tau( 316) = (  0.6179339  0.7854901  0.0148148  )
       317           N   tau( 317) = (  0.1179339  0.2854901  0.5148148  )
       318           N   tau( 318) = (  0.6179339  0.2854901  0.5148148  )
       319           N   tau( 319) = (  0.1179339  0.7854901  0.5148148  )
       320           N   tau( 320) = (  0.6179339  0.7854901  0.5148148  )
       321           C   tau( 321) = (  0.3180302  0.3928509  0.3177296  )
       322           C   tau( 322) = (  0.8180302  0.3928509  0.3177296  )
       323           C   tau( 323) = (  0.3180302  0.8928509  0.3177296  )
       324           C   tau( 324) = (  0.8180302  0.8928509  0.3177296  )
       325           C   tau( 325) = (  0.3180302  0.3928509  0.8177296  )
       326           C   tau( 326) = (  0.8180302  0.3928509  0.8177296  )
       327           C   tau( 327) = (  0.3180302  0.8928509  0.8177296  )
       328           C   tau( 328) = (  0.8180302  0.8928509  0.8177296  )
       329           H   tau( 329) = (  0.2901143  0.4401986  0.3273698  )
       330           H   tau( 330) = (  0.7901143  0.4401986  0.3273698  )
       331           H   tau( 331) = (  0.2901143  0.9401986  0.3273698  )
       332           H   tau( 332) = (  0.7901143  0.9401986  0.3273698  )
       333           H   tau( 333) = (  0.2901143  0.4401986  0.8273698  )
       334           H   tau( 334) = (  0.7901143  0.4401986  0.8273698  )
       335           H   tau( 335) = (  0.2901143  0.9401986  0.8273698  )
       336           H   tau( 336) = (  0.7901143  0.9401986  0.8273698  )
       337           N   tau( 337) = (  0.3816285  0.4054970  0.3947814  )
       338           N   tau( 338) = (  0.8816285  0.4054970  0.3947814  )
       339           N   tau( 339) = (  0.3816285  0.9054970  0.3947814  )
       340           N   tau( 340) = (  0.8816285  0.9054970  0.3947814  )
       341           N   tau( 341) = (  0.3816285  0.4054970  0.8947814  )
       342           N   tau( 342) = (  0.8816285  0.4054970  0.8947814  )
       343           N   tau( 343) = (  0.3816285  0.9054970  0.8947814  )
       344           N   tau( 344) = (  0.8816285  0.9054970  0.8947814  )
       345           C   tau( 345) = (  0.4829455  0.0951843  0.2009044  )
       346           C   tau( 346) = (  0.9829455  0.0951843  0.2009044  )
       347           C   tau( 347) = (  0.4829455  0.5951843  0.2009044  )
       348           C   tau( 348) = (  0.9829455  0.5951843  0.2009044  )
       349           C   tau( 349) = (  0.4829455  0.0951843  0.7009044  )
       350           C   tau( 350) = (  0.9829455  0.0951843  0.7009044  )
       351           C   tau( 351) = (  0.4829455  0.5951843  0.7009044  )
       352           C   tau( 352) = (  0.9829455  0.5951843  0.7009044  )
       353           H   tau( 353) = (  0.4273672  0.2392804  0.2958144  )
       354           H   tau( 354) = (  0.9273672  0.2392804  0.2958144  )
       355           H   tau( 355) = (  0.4273672  0.7392804  0.2958144  )
       356           H   tau( 356) = (  0.9273672  0.7392804  0.2958144  )
       357           H   tau( 357) = (  0.4273672  0.2392804  0.7958144  )
       358           H   tau( 358) = (  0.9273672  0.2392804  0.7958144  )
       359           H   tau( 359) = (  0.4273672  0.7392804  0.7958144  )
       360           H   tau( 360) = (  0.9273672  0.7392804  0.7958144  )
       361           N   tau( 361) = (  0.1811732  0.4967185  0.3472454  )
       362           N   tau( 362) = (  0.6811732  0.4967185  0.3472454  )
       363           N   tau( 363) = (  0.1811732  0.9967185  0.3472454  )
       364           N   tau( 364) = (  0.6811732  0.9967185  0.3472454  )
       365           N   tau( 365) = (  0.1811732  0.4967185  0.8472454  )
       366           N   tau( 366) = (  0.6811732  0.4967185  0.8472454  )
       367           N   tau( 367) = (  0.1811732  0.9967185  0.8472454  )
       368           N   tau( 368) = (  0.6811732  0.9967185  0.8472454  )
       369           N   tau( 369) = (  0.2475773  0.0245515  0.4325122  )
       370           N   tau( 370) = (  0.7475773  0.0245515  0.4325122  )
       371           N   tau( 371) = (  0.2475773  0.5245515  0.4325122  )
       372           N   tau( 372) = (  0.7475773  0.5245515  0.4325122  )
       373           N   tau( 373) = (  0.2475773  0.0245515  0.9325122  )
       374           N   tau( 374) = (  0.7475773  0.0245515  0.9325122  )
       375           N   tau( 375) = (  0.2475773  0.5245515  0.9325122  )
       376           N   tau( 376) = (  0.7475773  0.5245515  0.9325122  )
       377           C   tau( 377) = (  0.0966870  0.0586688  0.2720280  )
       378           C   tau( 378) = (  0.5966870  0.0586688  0.2720280  )
       379           C   tau( 379) = (  0.0966870  0.5586688  0.2720280  )
       380           C   tau( 380) = (  0.5966870  0.5586688  0.2720280  )
       381           C   tau( 381) = (  0.0966870  0.0586688  0.7720280  )
       382           C   tau( 382) = (  0.5966870  0.0586688  0.7720280  )
       383           C   tau( 383) = (  0.0966870  0.5586688  0.7720280  )
       384           C   tau( 384) = (  0.5966870  0.5586688  0.7720280  )
       385           C   tau( 385) = (  0.1643880  0.0624661  0.3500489  )
       386           C   tau( 386) = (  0.6643880  0.0624661  0.3500489  )
       387           C   tau( 387) = (  0.1643880  0.5624661  0.3500489  )
       388           C   tau( 388) = (  0.6643880  0.5624661  0.3500489  )
       389           C   tau( 389) = (  0.1643880  0.0624661  0.8500489  )
       390           C   tau( 390) = (  0.6643880  0.0624661  0.8500489  )
       391           C   tau( 391) = (  0.1643880  0.5624661  0.8500489  )
       392           C   tau( 392) = (  0.6643880  0.5624661  0.8500489  )
       393           C   tau( 393) = (  0.0494234  0.1080604  0.2814215  )
       394           C   tau( 394) = (  0.5494234  0.1080604  0.2814215  )
       395           C   tau( 395) = (  0.0494234  0.6080604  0.2814215  )
       396           C   tau( 396) = (  0.5494234  0.6080604  0.2814215  )
       397           C   tau( 397) = (  0.0494234  0.1080604  0.7814215  )
       398           C   tau( 398) = (  0.5494234  0.1080604  0.7814215  )
       399           C   tau( 399) = (  0.0494234  0.6080604  0.7814215  )
       400           C   tau( 400) = (  0.5494234  0.6080604  0.7814215  )
       401           H   tau( 401) = (  0.0631640  0.1542622  0.3500541  )
       402           H   tau( 402) = (  0.5631640  0.1542622  0.3500541  )
       403           H   tau( 403) = (  0.0631640  0.6542622  0.3500541  )
       404           H   tau( 404) = (  0.5631640  0.6542622  0.3500541  )
       405           H   tau( 405) = (  0.0631640  0.1542622  0.8500541  )
       406           H   tau( 406) = (  0.5631640  0.1542622  0.8500541  )
       407           H   tau( 407) = (  0.0631640  0.6542622  0.8500541  )
       408           H   tau( 408) = (  0.5631640  0.6542622  0.8500541  )
       409           C   tau( 409) = (  0.4649536  0.0333792  0.1143425  )
       410           C   tau( 410) = (  0.9649536  0.0333792  0.1143425  )
       411           C   tau( 411) = (  0.4649536  0.5333792  0.1143425  )
       412           C   tau( 412) = (  0.9649536  0.5333792  0.1143425  )
       413           C   tau( 413) = (  0.4649536  0.0333792  0.6143425  )
       414           C   tau( 414) = (  0.9649536  0.0333792  0.6143425  )
       415           C   tau( 415) = (  0.4649536  0.5333792  0.6143425  )
       416           C   tau( 416) = (  0.9649536  0.5333792  0.6143425  )
       417           H   tau( 417) = (  0.4118266  0.0195119  0.0488225  )
       418           H   tau( 418) = (  0.9118266  0.0195119  0.0488225  )
       419           H   tau( 419) = (  0.4118266  0.5195119  0.0488225  )
       420           H   tau( 420) = (  0.9118266  0.5195119  0.0488225  )
       421           H   tau( 421) = (  0.4118266  0.0195119  0.5488225  )
       422           H   tau( 422) = (  0.9118266  0.0195119  0.5488225  )
       423           H   tau( 423) = (  0.4118266  0.5195119  0.5488225  )
       424           H   tau( 424) = (  0.9118266  0.5195119  0.5488225  )
       425           N   tau( 425) = (  0.2202938  0.1291797  0.4358447  )
       426           N   tau( 426) = (  0.7202938  0.1291797  0.4358447  )
       427           N   tau( 427) = (  0.2202938  0.6291797  0.4358447  )
       428           N   tau( 428) = (  0.7202938  0.6291797  0.4358447  )
       429           N   tau( 429) = (  0.2202938  0.1291797  0.9358447  )
       430           N   tau( 430) = (  0.7202938  0.1291797  0.9358447  )
       431           N   tau( 431) = (  0.2202938  0.6291797  0.9358447  )
       432           N   tau( 432) = (  0.7202938  0.6291797  0.9358447  )
       433           N   tau( 433) = (  0.2706753  0.1031191  0.4851852  )
       434           N   tau( 434) = (  0.7706753  0.1031191  0.4851852  )
       435           N   tau( 435) = (  0.2706753  0.6031191  0.4851852  )
       436           N   tau( 436) = (  0.7706753  0.6031191  0.4851852  )
       437           N   tau( 437) = (  0.2706753  0.1031191  0.9851852  )
       438           N   tau( 438) = (  0.7706753  0.1031191  0.9851852  )
       439           N   tau( 439) = (  0.2706753  0.6031191  0.9851852  )
       440           N   tau( 440) = (  0.7706753  0.6031191  0.9851852  )
       441           C   tau( 441) = (  0.0751213  0.0003006  0.1822704  )
       442           C   tau( 442) = (  0.5751213  0.0003006  0.1822704  )
       443           C   tau( 443) = (  0.0751213  0.5003006  0.1822704  )
       444           C   tau( 444) = (  0.5751213  0.5003006  0.1822704  )
       445           C   tau( 445) = (  0.0751213  0.0003006  0.6822704  )
       446           C   tau( 446) = (  0.5751213  0.0003006  0.6822704  )
       447           C   tau( 447) = (  0.0751213  0.5003006  0.6822704  )
       448           C   tau( 448) = (  0.5751213  0.5003006  0.6822704  )
       449           H   tau( 449) = (  0.1128288  0.4627445  0.1726302  )
       450           H   tau( 450) = (  0.6128288  0.4627445  0.1726302  )
       451           H   tau( 451) = (  0.1128288  0.9627445  0.1726302  )
       452           H   tau( 452) = (  0.6128288  0.9627445  0.1726302  )
       453           H   tau( 453) = (  0.1128288  0.4627445  0.6726302  )
       454           H   tau( 454) = (  0.6128288  0.4627445  0.6726302  )
       455           H   tau( 455) = (  0.1128288  0.9627445  0.6726302  )
       456           H   tau( 456) = (  0.6128288  0.9627445  0.6726302  )
       457           N   tau( 457) = (  0.0107156  0.4868471  0.1052186  )
       458           N   tau( 458) = (  0.5107156  0.4868471  0.1052186  )
       459           N   tau( 459) = (  0.0107156  0.9868471  0.1052186  )
       460           N   tau( 460) = (  0.5107156  0.9868471  0.1052186  )
       461           N   tau( 461) = (  0.0107156  0.4868471  0.6052186  )
       462           N   tau( 462) = (  0.5107156  0.4868471  0.6052186  )
       463           N   tau( 463) = (  0.0107156  0.9868471  0.6052186  )
       464           N   tau( 464) = (  0.5107156  0.9868471  0.6052186  )
       465           C   tau( 465) = (  0.3942799  0.2820411  0.2990956  )
       466           C   tau( 466) = (  0.8942799  0.2820411  0.2990956  )
       467           C   tau( 467) = (  0.3942799  0.7820411  0.2990956  )
       468           C   tau( 468) = (  0.8942799  0.7820411  0.2990956  )
       469           C   tau( 469) = (  0.3942799  0.2820411  0.7990956  )
       470           C   tau( 470) = (  0.8942799  0.2820411  0.7990956  )
       471           C   tau( 471) = (  0.3942799  0.7820411  0.7990956  )
       472           C   tau( 472) = (  0.8942799  0.7820411  0.7990956  )
       473           H   tau( 473) = (  0.4434660  0.1315528  0.2041856  )
       474           H   tau( 474) = (  0.9434660  0.1315528  0.2041856  )
       475           H   tau( 475) = (  0.4434660  0.6315528  0.2041856  )
       476           H   tau( 476) = (  0.9434660  0.6315528  0.2041856  )
       477           H   tau( 477) = (  0.4434660  0.1315528  0.7041856  )
       478           H   tau( 478) = (  0.9434660  0.1315528  0.7041856  )
       479           H   tau( 479) = (  0.4434660  0.6315528  0.7041856  )
       480           H   tau( 480) = (  0.9434660  0.6315528  0.7041856  )
       481           Zn  tau( 481) = (  0.1250000  0.3750000  0.2500000  )
       482           Zn  tau( 482) = (  0.6250000  0.3750000  0.2500000  )
       483           Zn  tau( 483) = (  0.1250000  0.8750000  0.2500000  )
       484           Zn  tau( 484) = (  0.6250000  0.8750000  0.2500000  )
       485           Zn  tau( 485) = (  0.1250000  0.3750000  0.7500000  )
       486           Zn  tau( 486) = (  0.6250000  0.3750000  0.7500000  )
       487           Zn  tau( 487) = (  0.1250000  0.8750000  0.7500000  )
       488           Zn  tau( 488) = (  0.6250000  0.8750000  0.7500000  )
       489           Zn  tau( 489) = (  0.2500000  0.2500000  0.0000000  )
       490           Zn  tau( 490) = (  0.7500000  0.2500000  0.0000000  )
       491           Zn  tau( 491) = (  0.2500000  0.7500000  0.0000000  )
       492           Zn  tau( 492) = (  0.7500000  0.7500000  0.0000000  )
       493           Zn  tau( 493) = (  0.2500000  0.2500000  0.5000000  )
       494           Zn  tau( 494) = (  0.7500000  0.2500000  0.5000000  )
       495           Zn  tau( 495) = (  0.2500000  0.7500000  0.5000000  )
       496           Zn  tau( 496) = (  0.7500000  0.7500000  0.5000000  )

     number of k points=     1
                       cart. coord. in units 2pi/alat
        k(    1) = (   0.0000000   0.0000000   0.0000000), wk =   2.0000000

                       cryst. coord.
        k(    1) = (   0.0000000   0.0000000   0.0000000), wk =   2.0000000

     Dense  grid:  2563819 G-vectors     FFT dimensions: ( 192, 192, 192)

     Smooth grid:  2411581 G-vectors     FFT dimensions: ( 192, 192, 192)

     Dynamical RAM for                 wfc:     144.89 MB

     Dynamical RAM for     wfc (w. buffer):     144.89 MB

     Dynamical RAM for           str. fact:       4.89 MB

     Dynamical RAM for           local pot:       0.00 MB

     Dynamical RAM for          nlocal pot:     482.96 MB

     Dynamical RAM for                qrad:       5.08 MB

     Dynamical RAM for          rho,v,vnew:       8.73 MB

     Dynamical RAM for               rhoin:       2.91 MB

     Dynamical RAM for            rho*nmix:      19.56 MB

     Dynamical RAM for           G-vectors:       5.16 MB

     Dynamical RAM for          h,s,v(r/c):       7.43 MB

     Dynamical RAM for          <psi|beta>:      51.68 MB

     Dynamical RAM for                 psi:     289.78 MB

     Dynamical RAM for                hpsi:     289.78 MB

     Dynamical RAM for                spsi:     289.78 MB

     Dynamical RAM for      wfcinit/wfcrot:     570.99 MB

     Dynamical RAM for           addusdens:     462.11 MB

     Dynamical RAM for          addusforce:     930.48 MB

     Dynamical RAM for         addusstress:     245.73 MB

     Estimated static dynamical RAM per process >     669.17 MB

     Estimated max dynamical RAM per process >       1.58 GB

     Estimated total dynamical RAM >      50.60 GB

     Check: negative core charge=   -0.000014

     Initial potential from superposition of free atoms

     starting charge    2015.9874, renormalised to    2016.0000
     Starting wfcs are 1744 randomized atomic wfcs
     Checking if some PAW data can be deallocated... 
       PAW data deallocated on   10 nodes for type:  2

     total cpu time spent up to now is      155.5 secs

     Self-consistent Calculation

     iteration #  1     ecut=    60.00 Ry     beta= 0.40
     Davidson diagonalization with overlap

---- Real-time Memory Report at c_bands before calling an iterative solver
          1345 MiB given to the printing process from OS
             0 MiB allocation reported by mallinfo(arena+hblkhd)
        103741 MiB available memory on the node where the printing process lives
------------------
     ethr =  1.00E-02,  avg # of iterations =  3.0

     total cpu time spent up to now is      487.9 secs

     total energy              =  -14223.11900284 Ry
     estimated scf accuracy    <      42.09182233 Ry

     iteration #  2     ecut=    60.00 Ry     beta= 0.40
     Davidson diagonalization with overlap

---- Real-time Memory Report at c_bands before calling an iterative solver
          1727 MiB given to the printing process from OS
             0 MiB allocation reported by mallinfo(arena+hblkhd)
        112788 MiB available memory on the node where the printing process lives
------------------
     ethr =  2.09E-03,  avg # of iterations =  2.0

     total cpu time spent up to now is      762.0 secs

     total energy              =  -14223.75181287 Ry
     estimated scf accuracy    <       7.72070916 Ry

     iteration #  3     ecut=    60.00 Ry     beta= 0.40
     Davidson diagonalization with overlap

---- Real-time Memory Report at c_bands before calling an iterative solver
          1746 MiB given to the printing process from OS
             0 MiB allocation reported by mallinfo(arena+hblkhd)
        109254 MiB available memory on the node where the printing process lives
------------------
     ethr =  3.83E-04,  avg # of iterations =  4.0

     total cpu time spent up to now is     1113.8 secs

     total energy              =  -14225.17404870 Ry
     estimated scf accuracy    <       0.85035723 Ry

     iteration #  4     ecut=    60.00 Ry     beta= 0.40
     Davidson diagonalization with overlap

---- Real-time Memory Report at c_bands before calling an iterative solver
          1750 MiB given to the printing process from OS
             0 MiB allocation reported by mallinfo(arena+hblkhd)
        111876 MiB available memory on the node where the printing process lives
------------------
     ethr =  4.22E-05,  avg # of iterations =  4.0

     total cpu time spent up to now is     1430.8 secs

     total energy              =  -14225.24886157 Ry
     estimated scf accuracy    <       0.17080072 Ry

     iteration #  5     ecut=    60.00 Ry     beta= 0.40
     Davidson diagonalization with overlap

---- Real-time Memory Report at c_bands before calling an iterative solver
          1753 MiB given to the printing process from OS
             0 MiB allocation reported by mallinfo(arena+hblkhd)
        106791 MiB available memory on the node where the printing process lives
------------------
     ethr =  8.47E-06,  avg # of iterations =  5.0

     total cpu time spent up to now is     1786.2 secs

     total energy              =  -14225.27760820 Ry
     estimated scf accuracy    <       0.03027420 Ry

     iteration #  6     ecut=    60.00 Ry     beta= 0.40
     Davidson diagonalization with overlap

---- Real-time Memory Report at c_bands before calling an iterative solver
          1764 MiB given to the printing process from OS
             0 MiB allocation reported by mallinfo(arena+hblkhd)
        108090 MiB available memory on the node where the printing process lives
------------------
     ethr =  1.50E-06,  avg # of iterations =  5.0

     total cpu time spent up to now is     2168.7 secs

     total energy              =  -14225.28448001 Ry
     estimated scf accuracy    <       0.00824756 Ry

     iteration #  7     ecut=    60.00 Ry     beta= 0.40
     Davidson diagonalization with overlap

---- Real-time Memory Report at c_bands before calling an iterative solver
          1764 MiB given to the printing process from OS
             0 MiB allocation reported by mallinfo(arena+hblkhd)
        105373 MiB available memory on the node where the printing process lives
------------------
     ethr =  4.09E-07,  avg # of iterations =  6.0

     total cpu time spent up to now is     2552.4 secs

     total energy              =  -14225.28683281 Ry
     estimated scf accuracy    <       0.00175793 Ry

     iteration #  8     ecut=    60.00 Ry     beta= 0.40
     Davidson diagonalization with overlap

---- Real-time Memory Report at c_bands before calling an iterative solver
          1764 MiB given to the printing process from OS
             0 MiB allocation reported by mallinfo(arena+hblkhd)
        105646 MiB available memory on the node where the printing process lives
------------------
     ethr =  8.72E-08,  avg # of iterations =  5.0

     total cpu time spent up to now is     2885.4 secs

     total energy              =  -14225.28724953 Ry
     estimated scf accuracy    <       0.00013427 Ry

     iteration #  9     ecut=    60.00 Ry     beta= 0.40
     Davidson diagonalization with overlap

---- Real-time Memory Report at c_bands before calling an iterative solver
          1768 MiB given to the printing process from OS
             0 MiB allocation reported by mallinfo(arena+hblkhd)
        104241 MiB available memory on the node where the printing process lives
------------------
     ethr =  6.66E-09,  avg # of iterations =  6.0

     total cpu time spent up to now is     3342.4 secs

     total energy              =  -14225.28731240 Ry
     estimated scf accuracy    <       0.00005120 Ry

     iteration # 10     ecut=    60.00 Ry     beta= 0.40
     Davidson diagonalization with overlap

---- Real-time Memory Report at c_bands before calling an iterative solver
          1771 MiB given to the printing process from OS
             0 MiB allocation reported by mallinfo(arena+hblkhd)
        105716 MiB available memory on the node where the printing process lives
------------------
     ethr =  2.54E-09,  avg # of iterations =  4.0

     total cpu time spent up to now is     3616.5 secs

     total energy              =  -14225.28731081 Ry
     estimated scf accuracy    <       0.00001346 Ry

     iteration # 11     ecut=    60.00 Ry     beta= 0.40
     Davidson diagonalization with overlap

---- Real-time Memory Report at c_bands before calling an iterative solver
          1775 MiB given to the printing process from OS
             0 MiB allocation reported by mallinfo(arena+hblkhd)
        113193 MiB available memory on the node where the printing process lives
------------------
     ethr =  6.68E-10,  avg # of iterations =  6.0

     total cpu time spent up to now is     4091.0 secs

     total energy              =  -14225.28731849 Ry
     estimated scf accuracy    <       0.00001626 Ry

     iteration # 12     ecut=    60.00 Ry     beta= 0.40
     Davidson diagonalization with overlap

---- Real-time Memory Report at c_bands before calling an iterative solver
          1775 MiB given to the printing process from OS
             0 MiB allocation reported by mallinfo(arena+hblkhd)
         86807 MiB available memory on the node where the printing process lives
------------------
     ethr =  6.68E-10,  avg # of iterations =  2.0

     total cpu time spent up to now is     4337.4 secs

     total energy              =  -14225.28731536 Ry
     estimated scf accuracy    <       0.00000663 Ry

     iteration # 13     ecut=    60.00 Ry     beta= 0.40
     Davidson diagonalization with overlap

---- Real-time Memory Report at c_bands before calling an iterative solver
          1775 MiB given to the printing process from OS
             0 MiB allocation reported by mallinfo(arena+hblkhd)
         96066 MiB available memory on the node where the printing process lives
------------------
     ethr =  3.29E-10,  avg # of iterations =  6.0

     total cpu time spent up to now is     4766.6 secs

     total energy              =  -14225.28731813 Ry
     estimated scf accuracy    <       0.00000418 Ry

     iteration # 14     ecut=    60.00 Ry     beta= 0.40
     Davidson diagonalization with overlap

---- Real-time Memory Report at c_bands before calling an iterative solver
          1775 MiB given to the printing process from OS
             0 MiB allocation reported by mallinfo(arena+hblkhd)
         90994 MiB available memory on the node where the printing process lives
------------------
     ethr =  2.07E-10,  avg # of iterations =  5.0

     total cpu time spent up to now is     5047.7 secs

     total energy              =  -14225.28731857 Ry
     estimated scf accuracy    <       0.00000030 Ry

     iteration # 15     ecut=    60.00 Ry     beta= 0.40
     Davidson diagonalization with overlap

---- Real-time Memory Report at c_bands before calling an iterative solver
          1775 MiB given to the printing process from OS
             0 MiB allocation reported by mallinfo(arena+hblkhd)
         83105 MiB available memory on the node where the printing process lives
------------------
     ethr =  1.47E-11,  avg # of iterations =  6.0

     total cpu time spent up to now is     5487.7 secs

     total energy              =  -14225.28731876 Ry
     estimated scf accuracy    <       0.00000006 Ry

     iteration # 16     ecut=    60.00 Ry     beta= 0.40
     Davidson diagonalization with overlap

---- Real-time Memory Report at c_bands before calling an iterative solver
          1775 MiB given to the printing process from OS
             0 MiB allocation reported by mallinfo(arena+hblkhd)
         85365 MiB available memory on the node where the printing process lives
------------------
     ethr =  2.95E-12,  avg # of iterations =  5.0

     total cpu time spent up to now is     5799.6 secs

     total energy              =  -14225.28731874 Ry
     estimated scf accuracy    <       0.00000009 Ry

     iteration # 17     ecut=    60.00 Ry     beta= 0.40
     Davidson diagonalization with overlap

---- Real-time Memory Report at c_bands before calling an iterative solver
          1775 MiB given to the printing process from OS
             0 MiB allocation reported by mallinfo(arena+hblkhd)
         86000 MiB available memory on the node where the printing process lives
------------------
     ethr =  2.95E-12,  avg # of iterations =  4.0

     total cpu time spent up to now is     6071.3 secs

     total energy              =  -14225.28731873 Ry
     estimated scf accuracy    <       0.00000003 Ry

     iteration # 18     ecut=    60.00 Ry     beta= 0.40
     Davidson diagonalization with overlap

---- Real-time Memory Report at c_bands before calling an iterative solver
          1775 MiB given to the printing process from OS
             0 MiB allocation reported by mallinfo(arena+hblkhd)
         86600 MiB available memory on the node where the printing process lives
------------------
     ethr =  1.30E-12,  avg # of iterations =  6.0

     total cpu time spent up to now is     6535.0 secs

     total energy              =  -14225.28731874 Ry
     estimated scf accuracy    <       0.00000002 Ry

     iteration # 19     ecut=    60.00 Ry     beta= 0.40
     Davidson diagonalization with overlap

---- Real-time Memory Report at c_bands before calling an iterative solver
          1775 MiB given to the printing process from OS
             0 MiB allocation reported by mallinfo(arena+hblkhd)
         89187 MiB available memory on the node where the printing process lives
------------------
     ethr =  1.19E-12,  avg # of iterations =  2.0

     total cpu time spent up to now is     6777.7 secs

     End of self-consistent calculation

          k = 0.0000 0.0000 0.0000 (301561 PWs)   bands (ev):

  -122.8790-122.8788-122.8788-122.8787-122.8787-122.8787-122.8787-122.8785
  -122.8415-122.8413-122.8412-122.8412-122.8412-122.8412-122.8411-122.8410
   -77.2239 -77.2238 -77.2237 -77.2237 -77.2236 -77.2236 -77.2236 -77.2234
   -77.2192 -77.2192 -77.2190 -77.2190 -77.2189 -77.2189 -77.2189 -77.2189
   -77.2189 -77.2189 -77.2188 -77.2188 -77.2188 -77.2188 -77.2187 -77.2187
   -77.1925 -77.1925 -77.1924 -77.1924 -77.1923 -77.1923 -77.1923 -77.1923
   -77.1923 -77.1923 -77.1923 -77.1923 -77.1922 -77.1922 -77.1921 -77.1921
   -77.1651 -77.1650 -77.1649 -77.1649 -77.1648 -77.1648 -77.1648 -77.1647
   -21.8270 -21.8201 -21.8201 -21.8200 -21.8200 -21.8143 -21.8142 -21.8136
   -21.8135 -21.8119 -21.8098 -21.8060 -21.8059 -21.8059 -21.8059 -21.8008
   -21.8008 -21.8007 -21.8006 -21.8006 -21.8006 -21.8006 -21.8005 -21.7990
   -21.7990 -21.7964 -21.7964 -21.7963 -21.7963 -21.7962 -21.7961 -21.7945
   -16.7491 -16.7476 -16.7473 -16.7466 -16.7466 -16.7465 -16.7435 -16.7392
   -16.7137 -16.7071 -16.7071 -16.7070 -16.7050 -16.7002 -16.6995 -16.6975
   -16.6922 -16.6911 -16.6852 -16.6852 -16.6851 -16.6839 -16.6821 -16.6814
   -16.6802 -16.6797 -16.6785 -16.6785 -16.6784 -16.6784 -16.6782 -16.6540
   -16.5789 -16.5402 -16.5401 -16.5400 -16.5395 -16.5181 -16.5180 -16.5063
   -16.4942 -16.4940 -16.4919 -16.4683 -16.4682 -16.4682 -16.4680 -16.4374
   -16.4374 -16.4365 -16.4364 -16.4364 -16.4363 -16.4349 -16.4348 -16.4335
   -16.4334 -16.4248 -16.4248 -16.4247 -16.4247 -16.4232 -16.4231 -16.4199
   -15.4995 -15.4987 -15.4969 -15.4938 -15.4937 -15.4936 -15.4933 -15.4916
   -15.4878 -15.4877 -15.4877 -15.4876 -15.4874 -15.4872 -15.4870 -15.4866
   -15.4810 -15.4810 -15.4802 -15.4801 -15.4800 -15.4800 -15.4799 -15.4796
   -15.4788 -15.4787 -15.4787 -15.4781 -15.4763 -15.4760 -15.4748 -15.4744
   -13.2304 -13.2195 -13.2122 -13.2122 -13.2122 -13.2115 -13.2096 -13.2091
   -13.2071 -13.2042 -13.2041 -13.2034 -13.2034 -13.2034 -13.2019 -13.1948
   -13.1917 -13.1915 -13.1908 -13.1907 -13.1907 -13.1892 -13.1795 -13.1794
   -13.1794 -13.1790 -13.1781 -13.1780 -13.1778 -13.1778 -13.1777 -13.1746
   -12.1921 -12.1896 -12.1896 -12.1896 -12.1885 -12.1882 -12.1843 -12.1806
   -12.1799 -12.1725 -12.1701 -12.1690 -12.1689 -12.1689 -12.1543 -12.1524
   -12.1522 -12.1520 -12.1510 -12.1501 -12.1500 -12.1500 -12.1498 -12.1496
   -12.1338 -12.1259 -12.1253 -12.1213 -12.1187 -12.1178 -12.1178 -12.1177
    -9.9198  -9.9012  -9.8902  -9.8863  -9.8862  -9.8861  -9.8856  -9.8769
    -9.8610  -9.8609  -9.8608  -9.8607  -9.8573  -9.8570  -9.8498  -9.8497
    -9.8266  -9.8265  -9.8265  -9.8262  -9.8244  -9.8243  -9.8063  -9.8061
    -9.8055  -9.8052  -9.7973  -9.7973  -9.7973  -9.7968  -9.7956  -9.7955
    -9.6803  -9.6659  -9.6658  -9.6646  -9.6644  -9.6643  -9.6642  -9.6488
    -9.6484  -9.6473  -9.6469  -9.6469  -9.6469  -9.6448  -9.6448  -9.6387
    -9.6385  -9.6156  -9.6152  -9.6152  -9.6151  -9.6024  -9.6021  -9.5862
    -9.5826  -9.5597  -9.5595  -9.5457  -9.5456  -9.5455  -9.5454  -9.5260
    -8.5891  -8.5632  -8.5509  -8.5504  -8.5479  -8.5385  -8.5384  -8.5384
    -8.5375  -8.5297  -8.5296  -8.5296  -8.5282  -8.5118  -8.5116  -8.5106
    -8.4957  -8.4956  -8.4956  -8.4946  -8.4928  -8.4922  -8.4628  -8.4627
    -8.4623  -8.4622  -8.4622  -8.4610  -8.4497  -8.4496  -8.4495  -8.4477
    -8.4238  -8.4176  -8.4174  -8.4129  -8.4121  -8.4120  -8.4116  -8.3751
    -8.3710  -8.3698  -8.3698  -8.3696  -8.3640  -8.3631  -8.3625  -8.3624
    -8.3613  -8.3598  -8.3594  -8.3575  -8.3572  -8.3324  -8.3317  -8.3316
    -8.3314  -8.3231  -8.3225  -8.3222  -8.3221  -8.3220  -8.3127  -8.3124
    -7.0584  -6.9055  -6.8984  -6.8981  -6.8980  -6.8979  -6.8979  -6.7919
    -6.7919  -6.7583  -6.7583  -6.7138  -6.7138  -6.7138  -6.7137  -6.6757
    -6.6018  -6.6018  -6.5983  -6.5982  -6.5982  -6.5981  -6.5709  -6.5708
    -6.5610  -6.5609  -6.5609  -6.5608  -6.4881  -6.4881  -6.4859  -6.4859
    -5.8777  -5.8312  -5.8311  -5.8310  -5.8309  -5.8291  -5.7986  -5.7984
    -5.7837  -5.7835  -5.7760  -5.7759  -5.7759  -5.7758  -5.7634  -5.7634
    -5.7377  -5.7373  -5.7373  -5.7372  -5.7301  -5.7301  -5.7278  -5.7245
    -5.6859  -5.6855  -5.6855  -5.6854  -5.6452  -5.6451  -5.6350  -5.6325
    -5.6323  -5.6094  -5.6047  -5.6046  -5.5958  -5.5957  -5.5957  -5.5956
    -5.5810  -5.5603  -5.5455  -5.5453  -5.5427  -5.5421  -5.5421  -5.5420
    -5.5377  -5.5374  -5.5364  -5.5364  -5.5123  -5.5122  -5.5032  -5.5029
    -5.5014  -5.5011  -5.5011  -5.5010  -5.4828  -5.4825  -5.4825  -5.4823
    -5.0614  -5.0612  -5.0475  -5.0474  -5.0474  -5.0472  -5.0443  -5.0441
    -5.0302  -5.0301  -5.0299  -5.0297  -5.0297  -5.0294  -5.0258  -5.0179
    -5.0178  -5.0032  -4.9990  -4.9948  -4.9947  -4.9947  -4.9943  -4.9786
    -4.9784  -4.9661  -4.9660  -4.9659  -4.9654  -4.9568  -4.9534  -4.9530
    -4.9456  -4.8942  -4.8915  -4.8912  -4.8681  -4.8679  -4.8679  -4.8674
    -4.8623  -4.8522  -4.8518  -4.8443  -4.8441  -4.8440  -4.8439  -4.8342
    -4.8340  -4.8301  -4.8298  -4.8298  -4.8296  -4.8268  -4.8261  -4.8260
    -4.8038  -4.8035  -4.7993  -4.7990  -4.7928  -4.7925  -4.7925  -4.7924
    -4.7802  -4.7802  -4.7580  -4.7580  -4.7580  -4.7578  -4.7434  -4.7432
    -4.7410  -4.7409  -4.7218  -4.7217  -4.7216  -4.7215  -4.7133  -4.7132
    -4.7116  -4.7115  -4.7114  -4.7114  -4.6864  -4.6863  -4.6691  -4.6690
    -4.6478  -4.6133  -4.6132  -4.5881  -4.5880  -4.5880  -4.5879  -4.5016
    -4.3230  -4.2811  -4.2810  -4.2810  -4.2809  -4.2188  -4.2127  -4.2079
    -4.2077  -4.1877  -4.1876  -4.1413  -4.1413  -4.1412  -4.1412  -4.1410
    -4.1409  -4.1365  -4.1138  -4.1078  -4.1077  -4.1077  -4.1077  -4.1034
    -4.0976  -4.0976  -4.0854  -4.0854  -4.0853  -4.0853  -4.0653  -4.0572
    -3.9878  -3.9559  -3.9556  -3.8261  -3.8258  -3.8257  -3.8257  -3.7668
    -3.7663  -3.7662  -3.7662  -3.7311  -3.7109  -3.7101  -3.7100  -3.7099
    -3.6719  -3.6562  -3.6557  -3.6270  -3.5758  -3.5755  -3.5734  -3.5732
    -3.5597  -3.5595  -3.5042  -3.5039  -3.4263  -3.4254  -3.4254  -3.4253
    -3.4239  -3.4234  -3.3750  -3.3744  -3.3649  -3.3646  -3.3646  -3.3645
    -3.3626  -3.2782  -3.2779  -3.2778  -3.2774  -3.2413  -3.2411  -3.2409
    -3.2402  -3.2340  -3.2308  -3.2306  -3.2300  -3.2289  -3.2287  -3.2103
    -3.2098  -3.1854  -3.1765  -3.1761  -3.1761  -3.1752  -3.1709  -3.0956
    -3.0953  -3.0948  -3.0940  -3.0899  -3.0894  -3.0868  -3.0868  -3.0868
    -3.0853  -3.0455  -3.0452  -3.0452  -3.0443  -3.0179  -3.0057  -3.0055
    -2.9781  -2.9742  -2.9740  -2.9740  -2.9735  -2.9688  -2.9381  -2.9376
    -2.9351  -2.9349  -2.9349  -2.9344  -2.9294  -2.9292  -2.8985  -2.8835
    -2.8834  -2.7760  -2.7757  -2.7614  -2.7611  -2.7611  -2.7609  -2.7262
    -2.7261  -2.7175  -2.7174  -2.7029  -2.7026  -2.7012  -2.7008  -2.7008
    -2.7007  -2.6125  -2.6119  -2.6119  -2.6117  -2.5574  -2.4828  -2.4417
    -2.4415  -2.3683  -2.3678  -2.2683  -2.2681  -2.2680  -2.2678  -2.1968
    -2.1961  -2.1601  -2.0958  -2.0766  -2.0614  -2.0609  -2.0608  -2.0606
    -2.0145  -2.0133  -2.0133  -2.0132  -2.0063  -2.0061  -2.0058  -1.9947
    -1.9944  -1.9544  -1.9538  -1.9537  -1.9537  -1.9486  -1.9482  -1.9182
    -1.9179  -1.8920  -1.8917  -1.8711  -1.8709  -1.8708  -1.8706  -1.7602
    -1.7602  -1.6296  -1.6296  -1.6296  -1.6292  -1.5898  -1.5895  -1.5190
    -1.4438  -1.4437  -1.4437  -1.4431  -1.4242  -1.4236  -1.4185  -1.4183
    -1.4152  -1.4089  -1.4088  -1.3811  -1.3745  -1.3745  -1.3745  -1.3741
    -1.3635  -1.3635  -1.3634  -1.3629  -1.3625  -1.3619  -1.3484  -1.3482
    -1.3471  -1.3471  -1.3470  -1.3468  -1.3403  -1.3400  -1.3374  -1.3332
    -1.2996  -1.2994  -1.2967  -1.2813  -1.2813  -1.2813  -1.2809  -1.2535
    -1.2532  -1.2417  -1.2416  -1.2416  -1.2407  -1.2337  -1.2300  -1.2298
    -1.2201  -1.2197  -1.2098  -1.2096  -1.2091  -1.2090  -1.2090  -1.2087
    -1.1526  -1.1525  -1.1525  -1.1522  -1.1478  -1.1476  -1.0927  -1.0682
    -1.0405  -0.9019  -0.9019  -0.9019  -0.9019  -0.9013  -0.9012  -0.8037
    -0.8036  -0.8018  -0.7826  -0.7826  -0.7826  -0.7825  -0.7796  -0.7795
    -0.7695  -0.7626  -0.7625  -0.7286  -0.7285  -0.7285  -0.7285  -0.7178
    -0.7178  -0.7144  -0.7124  -0.7124  -0.7123  -0.7123  -0.6637  -0.6637
    -0.6294  -0.6294  -0.5996  -0.5995  -0.5995  -0.5995  -0.5722  -0.5722
    -0.4877  -0.4241  -0.4241  -0.4240  -0.4237  -0.4158  -0.4157  -0.4004
    -0.3838  -0.3838  -0.3633  -0.3633  -0.3633  -0.3631  -0.3471  -0.3407
    -0.3406  -0.3362  -0.3361  -0.3361  -0.3360  -0.3313  -0.3311  -0.3287
    -0.3287  -0.3268  -0.2970  -0.2968  -0.2848  -0.2846  -0.2846  -0.2845
    -0.2801  -0.2799  -0.2761  -0.2760  -0.2760  -0.2759  -0.2728  -0.2433
    -0.2431  -0.2431  -0.2431  -0.2402  -0.2400  -0.2400  -0.2215  -0.2214
    -0.2209  -0.2209  -0.2209  -0.2207  -0.2185  -0.2081  -0.2081  -0.2076
    -0.2036  -0.2035  -0.1909  -0.1908  -0.1908  -0.1907  -0.1906  -0.1906
     0.3864   0.4184   0.4185   0.4185   0.4186   0.4350   0.4350   0.4858
     0.4860   0.4867   0.4945   0.4948   0.4948   0.4950   0.5125   0.5127
     0.5143   0.5146   0.5238   0.5268   0.5272   0.5272   0.5274   0.5734
     0.5738   0.5759   0.5763   0.6094   0.6100   0.6101   0.6101   0.6261
     1.0984   1.0987   1.1047   1.1051   1.1159   1.1159   1.1161   1.1168
     1.1374   1.1374   1.1376   1.1385   1.1541   1.1618   1.1622   1.1636
     1.1639   1.1642   1.1718   1.1737   1.1737   1.1737   1.1838   1.1846
     1.2165   1.2203   1.2407   1.2421   1.2421   1.2421   1.2425   1.2426

     occupation numbers 
     1.0000   1.0000   1.0000   1.0000   1.0000   1.0000   1.0000   1.0000
     1.0000   1.0000   1.0000   1.0000   1.0000   1.0000   1.0000   1.0000
     1.0000   1.0000   1.0000   1.0000   1.0000   1.0000   1.0000   1.0000
     1.0000   1.0000   1.0000   1.0000   1.0000   1.0000   1.0000   1.0000
     1.0000   1.0000   1.0000   1.0000   1.0000   1.0000   1.0000   1.0000
     1.0000   1.0000   1.0000   1.0000   1.0000   1.0000   1.0000   1.0000
     1.0000   1.0000   1.0000   1.0000   1.0000   1.0000   1.0000   1.0000
     1.0000   1.0000   1.0000   1.0000   1.0000   1.0000   1.0000   1.0000
     1.0000   1.0000   1.0000   1.0000   1.0000   1.0000   1.0000   1.0000
     1.0000   1.0000   1.0000   1.0000   1.0000   1.0000   1.0000   1.0000
     1.0000   1.0000   1.0000   1.0000   1.0000   1.0000   1.0000   1.0000
     1.0000   1.0000   1.0000   1.0000   1.0000   1.0000   1.0000   1.0000
     1.0000   1.0000   1.0000   1.0000   1.0000   1.0000   1.0000   1.0000
     1.0000   1.0000   1.0000   1.0000   1.0000   1.0000   1.0000   1.0000
     1.0000   1.0000   1.0000   1.0000   1.0000   1.0000   1.0000   1.0000
     1.0000   1.0000   1.0000   1.0000   1.0000   1.0000   1.0000   1.0000
     1.0000   1.0000   1.0000   1.0000   1.0000   1.0000   1.0000   1.0000
     1.0000   1.0000   1.0000   1.0000   1.0000   1.0000   1.0000   1.0000
     1.0000   1.0000   1.0000   1.0000   1.0000   1.0000   1.0000   1.0000
     1.0000   1.0000   1.0000   1.0000   1.0000   1.0000   1.0000   1.0000
     1.0000   1.0000   1.0000   1.0000   1.0000   1.0000   1.0000   1.0000
     1.0000   1.0000   1.0000   1.0000   1.0000   1.0000   1.0000   1.0000
     1.0000   1.0000   1.0000   1.0000   1.0000   1.0000   1.0000   1.0000
     1.0000   1.0000   1.0000   1.0000   1.0000   1.0000   1.0000   1.0000
     1.0000   1.0000   1.0000   1.0000   1.0000   1.0000   1.0000   1.0000
     1.0000   1.0000   1.0000   1.0000   1.0000   1.0000   1.0000   1.0000
     1.0000   1.0000   1.0000   1.0000   1.0000   1.0000   1.0000   1.0000
     1.0000   1.0000   1.0000   1.0000   1.0000   1.0000   1.0000   1.0000
     1.0000   1.0000   1.0000   1.0000   1.0000   1.0000   1.0000   1.0000
     1.0000   1.0000   1.0000   1.0000   1.0000   1.0000   1.0000   1.0000
     1.0000   1.0000   1.0000   1.0000   1.0000   1.0000   1.0000   1.0000
     1.0000   1.0000   1.0000   1.0000   1.0000   1.0000   1.0000   1.0000
     1.0000   1.0000   1.0000   1.0000   1.0000   1.0000   1.0000   1.0000
     1.0000   1.0000   1.0000   1.0000   1.0000   1.0000   1.0000   1.0000
     1.0000   1.0000   1.0000   1.0000   1.0000   1.0000   1.0000   1.0000
     1.0000   1.0000   1.0000   1.0000   1.0000   1.0000   1.0000   1.0000
     1.0000   1.0000   1.0000   1.0000   1.0000   1.0000   1.0000   1.0000
     1.0000   1.0000   1.0000   1.0000   1.0000   1.0000   1.0000   1.0000
     1.0000   1.0000   1.0000   1.0000   1.0000   1.0000   1.0000   1.0000
     1.0000   1.0000   1.0000   1.0000   1.0000   1.0000   1.0000   1.0000
     1.0000   1.0000   1.0000   1.0000   1.0000   1.0000   1.0000   1.0000
     1.0000   1.0000   1.0000   1.0000   1.0000   1.0000   1.0000   1.0000
     1.0000   1.0000   1.0000   1.0000   1.0000   1.0000   1.0000   1.0000
     1.0000   1.0000   1.0000   1.0000   1.0000   1.0000   1.0000   1.0000
     1.0000   1.0000   1.0000   1.0000   1.0000   1.0000   1.0000   1.0000
     1.0000   1.0000   1.0000   1.0000   1.0000   1.0000   1.0000   1.0000
     1.0000   1.0000   1.0000   1.0000   1.0000   1.0000   1.0000   1.0000
     1.0000   1.0000   1.0000   1.0000   1.0000   1.0000   1.0000   1.0000
     1.0000   1.0000   1.0000   1.0000   1.0000   1.0000   1.0000   1.0000
     1.0000   1.0000   1.0000   1.0000   1.0000   1.0000   1.0000   1.0000
     1.0000   1.0000   1.0000   1.0000   1.0000   1.0000   1.0000   1.0000
     1.0000   1.0000   1.0000   1.0000   1.0000   1.0000   1.0000   1.0000
     1.0000   1.0000   1.0000   1.0000   1.0000   1.0000   1.0000   1.0000
     1.0000   1.0000   1.0000   1.0000   1.0000   1.0000   1.0000   1.0000
     1.0000   1.0000   1.0000   1.0000   1.0000   1.0000   1.0000   1.0000
     1.0000   1.0000   1.0000   1.0000   1.0000   1.0000   1.0000   1.0000
     1.0000   1.0000   1.0000   1.0000   1.0000   1.0000   1.0000   1.0000
     1.0000   1.0000   1.0000   1.0000   1.0000   1.0000   1.0000   1.0000
     1.0000   1.0000   1.0000   1.0000   1.0000   1.0000   1.0000   1.0000
     1.0000   1.0000   1.0000   1.0000   1.0000   1.0000   1.0000   1.0000
     1.0000   1.0000   1.0000   1.0000   1.0000   1.0000   1.0000   1.0000
     1.0000   1.0000   1.0000   1.0000   1.0000   1.0000   1.0000   1.0000
     1.0000   1.0000   1.0000   1.0000   1.0000   1.0000   1.0000   1.0000
     1.0000   1.0000   1.0000   1.0000   1.0000   1.0000   1.0000   1.0000
     1.0000   1.0000   1.0000   1.0000   1.0000   1.0000   1.0000   1.0000
     1.0000   1.0000   1.0000   1.0000   1.0000   1.0000   1.0000   1.0000
     1.0000   1.0000   1.0000   1.0000   1.0000   1.0000   1.0000   1.0000
     1.0000   1.0000   1.0000   1.0000   1.0000   1.0000   1.0000   1.0000
     1.0000   1.0000   1.0000   1.0000   1.0000   1.0000   1.0000   1.0000
     1.0000   1.0000   1.0000   1.0000   1.0000   1.0000   1.0000   1.0000
     1.0000   1.0000   1.0000   1.0000   1.0000   1.0000   1.0000   1.0000
     1.0000   1.0000   1.0000   1.0000   1.0000   1.0000   1.0000   1.0000
     1.0000   1.0000   1.0000   1.0000   1.0000   1.0000   1.0000   1.0000
     1.0000   1.0000   1.0000   1.0000   1.0000   1.0000   1.0000   1.0000
     1.0000   1.0000   1.0000   1.0000   1.0000   1.0000   1.0000   1.0000
     1.0000   1.0000   1.0000   1.0000   1.0000   1.0000   1.0000   1.0000
     1.0000   1.0000   1.0000   1.0000   1.0000   1.0000   1.0000   1.0000
     1.0000   1.0000   1.0000   1.0000   1.0000   1.0000   1.0000   1.0000
     1.0000   1.0000   1.0000   1.0000   1.0000   1.0000   1.0000   1.0000
     1.0000   1.0000   1.0000   1.0000   1.0000   1.0000   1.0000   1.0000
     1.0000   1.0000   1.0000   1.0000   1.0000   1.0000   1.0000   1.0000
     1.0000   1.0000   1.0000   1.0000   1.0000   1.0000   1.0000   1.0000
     1.0000   1.0000   1.0000   1.0000   1.0000   1.0000   1.0000   1.0000
     1.0000   1.0000   1.0000   1.0000   1.0000   1.0000   1.0000   1.0000
     1.0000   1.0000   1.0000   1.0000   1.0000   1.0000   1.0000   1.0000
     1.0000   1.0000   1.0000   1.0000   1.0000   1.0000   1.0000   1.0000
     1.0000   1.0000   1.0000   1.0000   1.0000   1.0000   1.0000   1.0000
     1.0000   1.0000   1.0000   1.0000   1.0000   1.0000   1.0000   1.0000
     1.0000   1.0000   1.0000   1.0000   1.0000   1.0000   1.0000   1.0000
     1.0000   1.0000   1.0000   1.0000   1.0000   1.0000   1.0000   1.0000
     1.0000   1.0000   1.0000   1.0000   1.0000   1.0000   1.0000   1.0000
     1.0000   1.0000   1.0000   1.0000   1.0000   1.0000   1.0000   1.0000
     1.0000   1.0000   1.0000   1.0000   1.0000   1.0000   1.0000   1.0000
     1.0000   1.0000   1.0000   1.0000   1.0000   1.0000   1.0000   1.0000
     1.0000   1.0000   1.0000   1.0000   1.0000   1.0000   1.0000   1.0000
     1.0000   1.0000   1.0000   1.0000   1.0000   1.0000   1.0000   1.0000
     1.0000   1.0000   1.0000   1.0000   1.0000   1.0000   1.0000   1.0000
     1.0000   1.0000   1.0000   1.0000   1.0000   1.0000   1.0000   1.0000
     1.0000   1.0000   1.0000   1.0000   1.0000   1.0000   1.0000   1.0000
     1.0000   1.0000   1.0000   1.0000   1.0000   1.0000   1.0000   1.0000
     1.0000   1.0000   1.0000   1.0000   1.0000   1.0000   1.0000   1.0000
     1.0000   1.0000   1.0000   1.0000   1.0000   1.0000   1.0000   1.0000
     1.0000   1.0000   1.0000   1.0000   1.0000   1.0000   1.0000   1.0000
     1.0000   1.0000   1.0000   1.0000   1.0000   1.0000   1.0000   1.0000
     1.0000   1.0000   1.0000   1.0000   1.0000   1.0000   1.0000   1.0000
     1.0000   1.0000   1.0000   1.0000   1.0000   1.0000   1.0000   1.0000
     1.0000   1.0000   1.0000   1.0000   1.0000   1.0000   1.0000   1.0000
     1.0000   1.0000   1.0000   1.0000   1.0000   1.0000   1.0000   1.0000
     1.0000   1.0000   1.0000   1.0000   1.0000   1.0000   1.0000   1.0000
     1.0000   1.0000   1.0000   1.0000   1.0000   1.0000   1.0000   1.0000
     1.0000   1.0000   1.0000   1.0000   1.0000   1.0000   1.0000   1.0000
     1.0000   1.0000   1.0000   1.0000   1.0000   1.0000   1.0000   1.0000
     1.0000   1.0000   1.0000   1.0000   1.0000   1.0000   1.0000   1.0000
     1.0000   1.0000   1.0000   1.0000   1.0000   1.0000   1.0000   1.0000
     1.0000   1.0000   1.0000   1.0000   1.0000   1.0000   1.0000   1.0000
     1.0000   1.0000   1.0000   1.0000   1.0000   1.0000   1.0000   1.0000
     1.0000   1.0000   1.0000   1.0000   1.0000   1.0000   1.0000   1.0000
     1.0000   1.0000   1.0000   1.0000   1.0000   1.0000   1.0000   1.0000
     1.0000   1.0000   1.0000   1.0000   1.0000   1.0000   1.0000   1.0000
     1.0000   1.0000   1.0000   1.0000   1.0000   1.0000   1.0000   1.0000
     1.0000   1.0000   1.0000   1.0000   1.0000   1.0000   1.0000   1.0000
     1.0000   1.0000   1.0000   1.0000   1.0000   1.0000   1.0000   1.0000
     1.0000   1.0000   1.0000   1.0000   1.0000   1.0000   1.0000   1.0000
     1.0000   1.0000   1.0000   1.0000   1.0000   1.0000   1.0000   1.0000
     1.0000   1.0000   1.0000   1.0000   1.0000   1.0000   1.0000   1.0000
     1.0000   1.0000   1.0000   1.0000   1.0000   1.0000   1.0000   1.0000

     highest occupied level (ev):     1.2426

!    total energy              =  -14225.28731874 Ry
     estimated scf accuracy    <          8.9E-09 Ry

     The total energy is the sum of the following terms:
     one-electron contribution =  -15719.80997053 Ry
     hartree contribution      =    8487.35892368 Ry
     xc contribution           =   -2486.47551475 Ry
     ewald contribution        =   -3375.16145677 Ry
     one-center paw contrib.   =   -1131.19930038 Ry
      -> PAW hartree energy AE =       0.00000000 Ry
      -> PAW hartree energy PS =       0.00000000 Ry
      -> PAW xc energy AE      =       0.00000000 Ry
      -> PAW xc energy PS      =       0.00000000 Ry
      -> total E_H with PAW    =    8487.35892368 Ry
      -> total E_XC with PAW   =   -2486.47551475 Ry

     convergence has been achieved in  19 iterations

     Forces acting on atoms (cartesian axes, Ry/au):

     atom    1 type  1   force =    -0.00000480   -0.00023423   -0.00013346
     atom    2 type  1   force =    -0.00000457   -0.00023574   -0.00013403
     atom    3 type  1   force =    -0.00000482   -0.00023601   -0.00013377
     atom    4 type  1   force =    -0.00000028   -0.00023397   -0.00013269
     atom    5 type  1   force =    -0.00000564   -0.00023480   -0.00013348
     atom    6 type  1   force =    -0.00002592   -0.00020590   -0.00017297
     atom    7 type  1   force =    -0.00000489   -0.00023628   -0.00013428
     atom    8 type  1   force =    -0.00000544   -0.00023618   -0.00013544
     atom    9 type  1   force =    -0.00020051   -0.00013098   -0.00017432
     atom   10 type  1   force =    -0.00019943   -0.00013067   -0.00017420
     atom   11 type  1   force =    -0.00020657   -0.00012386   -0.00017972
     atom   12 type  1   force =    -0.00020052   -0.00013177   -0.00017447
     atom   13 type  1   force =    -0.00019061   -0.00013680   -0.00014935
     atom   14 type  1   force =    -0.00020056   -0.00013111   -0.00017407
     atom   15 type  1   force =    -0.00020131   -0.00013090   -0.00017552
     atom   16 type  1   force =    -0.00020036   -0.00013216   -0.00017479
     atom   17 type  2   force =    -0.00001661    0.00000121    0.00001181
     atom   18 type  2   force =    -0.00001671    0.00000160    0.00001141
     atom   19 type  2   force =    -0.00001777    0.00000058    0.00001243
     atom   20 type  2   force =    -0.00001645    0.00000121    0.00001136
     atom   21 type  2   force =    -0.00002923   -0.00172465    0.00046166
     atom   22 type  2   force =    -0.00001662    0.00000119    0.00001182
     atom   23 type  2   force =    -0.00001653    0.00000065    0.00001195
     atom   24 type  2   force =    -0.00001655    0.00000088    0.00001163
     atom   25 type  2   force =     0.00019817   -0.00004526    0.00002671
     atom   26 type  2   force =     0.00019809   -0.00004720    0.00002610
     atom   27 type  2   force =     0.00020167   -0.00004597    0.00002921
     atom   28 type  2   force =     0.00019826   -0.00004600    0.00002661
     atom   29 type  2   force =     0.00017724   -0.00015904    0.00007107
     atom   30 type  2   force =     0.00019939   -0.00004602    0.00002665
     atom   31 type  2   force =     0.00020068   -0.00004552    0.00002769
     atom   32 type  2   force =     0.00019876   -0.00004652    0.00002650
     atom   33 type  2   force =     0.00165436    0.00121442   -0.00025707
     atom   34 type  2   force =    -0.00008317    0.00015358    0.00008245
     atom   35 type  2   force =    -0.00008317    0.00015421    0.00008204
     atom   36 type  2   force =    -0.00008326    0.00015397    0.00008240
     atom   37 type  2   force =    -0.00008383    0.00015402    0.00008216
     atom   38 type  2   force =    -0.00008320    0.00015335    0.00008238
     atom   39 type  2   force =    -0.00008290    0.00015263    0.00008248
     atom   40 type  2   force =    -0.00008332    0.00015364    0.00008240
     atom   41 type  3   force =    -0.00010636    0.00007744   -0.00026048
     atom   42 type  3   force =     0.00002338    0.00004661   -0.00005435
     atom   43 type  3   force =     0.00002350    0.00004683   -0.00005433
     atom   44 type  3   force =     0.00002333    0.00004679   -0.00005442
     atom   45 type  3   force =     0.00002329    0.00004669   -0.00005439
     atom   46 type  3   force =     0.00002322    0.00004632   -0.00005466
     atom   47 type  3   force =     0.00002316    0.00004636   -0.00005428
     atom   48 type  3   force =     0.00002331    0.00004665   -0.00005424
     atom   49 type  2   force =     0.01475535    0.01310532   -0.00533966
     atom   50 type  2   force =     0.00014267   -0.00000629   -0.00000106
     atom   51 type  2   force =     0.00014255   -0.00000640   -0.00000081
     atom   52 type  2   force =     0.00014245   -0.00000641   -0.00000126
     atom   53 type  2   force =     0.00014224   -0.00000591   -0.00000098
     atom   54 type  2   force =     0.00014267   -0.00000661   -0.00000121
     atom   55 type  2   force =     0.00014370   -0.00000618   -0.00000122
     atom   56 type  2   force =     0.00014234   -0.00000600   -0.00000078
     atom   57 type  3   force =    -0.00472274    0.00009091    0.00111389
     atom   58 type  3   force =     0.00003567   -0.00006998   -0.00004835
     atom   59 type  3   force =     0.00003568   -0.00007011   -0.00004822
     atom   60 type  3   force =     0.00003575   -0.00007046   -0.00004832
     atom   61 type  3   force =     0.00003585   -0.00007033   -0.00004792
     atom   62 type  3   force =     0.00003578   -0.00006990   -0.00004840
     atom   63 type  3   force =     0.00003594   -0.00006940   -0.00004836
     atom   64 type  3   force =     0.00003577   -0.00007017   -0.00004847
     atom   65 type  1   force =     0.00005209    0.00020120    0.00017546
     atom   66 type  1   force =     0.00005281    0.00020242    0.00017658
     atom   67 type  1   force =     0.00006036    0.00019999    0.00017626
     atom   68 type  1   force =     0.00005219    0.00020164    0.00017554
     atom   69 type  1   force =     0.00010045    0.00020090    0.00016165
     atom   70 type  1   force =     0.00005141    0.00020193    0.00017630
     atom   71 type  1   force =     0.00005051    0.00020040    0.00017511
     atom   72 type  1   force =     0.00005199    0.00020150    0.00017596
     atom   73 type  1   force =    -0.00015820    0.00024930    0.00011131
     atom   74 type  1   force =    -0.00015935    0.00024941    0.00011133
     atom   75 type  1   force =    -0.00016366    0.00024605    0.00010658
     atom   76 type  1   force =    -0.00015827    0.00024889    0.00011101
     atom   77 type  1   force =    -0.00018262    0.00024932    0.00010345
     atom   78 type  1   force =    -0.00015913    0.00024962    0.00011168
     atom   79 type  1   force =    -0.00015839    0.00025026    0.00011106
     atom   80 type  1   force =    -0.00015838    0.00024857    0.00011084
     atom   81 type  2   force =    -0.00009715   -0.00007716   -0.00003218
     atom   82 type  2   force =    -0.00009768   -0.00007854   -0.00003180
     atom   83 type  2   force =    -0.00009717   -0.00007637   -0.00003157
     atom   84 type  2   force =    -0.00009697   -0.00007750   -0.00003187
     atom   85 type  2   force =    -0.00320626    0.00014812   -0.00004729
     atom   86 type  2   force =    -0.00009717   -0.00007748   -0.00003183
     atom   87 type  2   force =    -0.00009707   -0.00007779   -0.00003212
     atom   88 type  2   force =    -0.00009679   -0.00007774   -0.00003163
     atom   89 type  3   force =    -0.00000388   -0.00002027    0.00001369
     atom   90 type  3   force =    -0.00000397   -0.00001999    0.00001407
     atom   91 type  3   force =    -0.00000406   -0.00001999    0.00001398
     atom   92 type  3   force =    -0.00000430   -0.00001955    0.00001394
     atom   93 type  3   force =    -0.00000405   -0.00002007    0.00001389
     atom   94 type  3   force =    -0.00007320    0.00006935   -0.00024698
     atom   95 type  3   force =    -0.00000398   -0.00002011    0.00001399
     atom   96 type  3   force =    -0.00000400   -0.00002017    0.00001425
     atom   97 type  1   force =     0.00013526   -0.00020402    0.00002198
     atom   98 type  1   force =     0.00013522   -0.00020472    0.00002146
     atom   99 type  1   force =     0.00013497   -0.00020491    0.00002226
     atom  100 type  1   force =     0.00013521   -0.00020555    0.00002190
     atom  101 type  1   force =     0.00013480   -0.00020487    0.00002222
     atom  102 type  1   force =    -0.00613226   -0.00791665    0.00251080
     atom  103 type  1   force =     0.00013451   -0.00020475    0.00002210
     atom  104 type  1   force =     0.00013424   -0.00020477    0.00002161
     atom  105 type  2   force =    -0.00006111   -0.00004230    0.00007250
     atom  106 type  2   force =    -0.00006837   -0.00004044    0.00007316
     atom  107 type  2   force =    -0.00006820   -0.00004045    0.00007289
     atom  108 type  2   force =    -0.00006818   -0.00004105    0.00007335
     atom  109 type  2   force =    -0.00006841   -0.00004058    0.00007314
     atom  110 type  2   force =    -0.00008336   -0.00005544    0.00007099
     atom  111 type  2   force =    -0.00006879   -0.00003956    0.00007301
     atom  112 type  2   force =    -0.00006839   -0.00004065    0.00007291
     atom  113 type  3   force =     0.00029023   -0.00083279   -0.00002041
     atom  114 type  3   force =    -0.00006654   -0.00002246   -0.00002927
     atom  115 type  3   force =    -0.00006666   -0.00002247   -0.00002924
     atom  116 type  3   force =    -0.00006651   -0.00002230   -0.00002932
     atom  117 type  3   force =    -0.00006660   -0.00002201   -0.00002890
     atom  118 type  3   force =    -0.00006620   -0.00002240   -0.00002947
     atom  119 type  3   force =    -0.00006610   -0.00002257   -0.00002929
     atom  120 type  3   force =    -0.00006653   -0.00002233   -0.00002936
     atom  121 type  1   force =    -0.00000067    0.00023964   -0.00013751
     atom  122 type  1   force =     0.00000484    0.00023572   -0.00013408
     atom  123 type  1   force =     0.00000470    0.00023532   -0.00013345
     atom  124 type  1   force =     0.00000467    0.00023483   -0.00013372
     atom  125 type  1   force =     0.00000534    0.00023526   -0.00013347
     atom  126 type  1   force =     0.00000226    0.00022991   -0.00013535
     atom  127 type  1   force =     0.00000377    0.00023674   -0.00013438
     atom  128 type  1   force =     0.00000447    0.00023631   -0.00013465
     atom  129 type  1   force =     0.00020057    0.00012942   -0.00017151
     atom  130 type  1   force =     0.00020060    0.00013081   -0.00017420
     atom  131 type  1   force =     0.00020025    0.00013129   -0.00017394
     atom  132 type  1   force =     0.00019838    0.00013145   -0.00017522
     atom  133 type  1   force =     0.00020055    0.00013121   -0.00017409
     atom  134 type  1   force =     0.00019390    0.00014081   -0.00017140
     atom  135 type  1   force =     0.00020024    0.00013215   -0.00017503
     atom  136 type  1   force =     0.00020147    0.00013098   -0.00017452
     atom  137 type  2   force =     0.00001646   -0.00000037    0.00001161
     atom  138 type  2   force =     0.00001674   -0.00000122    0.00001190
     atom  139 type  2   force =     0.00001719   -0.00000119    0.00001159
     atom  140 type  2   force =     0.00001428   -0.00000143    0.00000905
     atom  141 type  2   force =     0.00001664   -0.00000121    0.00001181
     atom  142 type  2   force =     0.00001550   -0.00000133    0.00001111
     atom  143 type  2   force =     0.00001552   -0.00000021    0.00001165
     atom  144 type  2   force =     0.00001678   -0.00000093    0.00001196
     atom  145 type  2   force =    -0.00019674    0.00004559    0.00002649
     atom  146 type  2   force =    -0.00019906    0.00004625    0.00002615
     atom  147 type  2   force =    -0.00019851    0.00004638    0.00002639
     atom  148 type  2   force =    -0.00019614    0.00004582    0.00002529
     atom  149 type  2   force =    -0.00019860    0.00004590    0.00002685
     atom  150 type  2   force =    -0.00019514    0.00005036    0.00002094
     atom  151 type  2   force =    -0.00019630    0.00004493    0.00002687
     atom  152 type  2   force =    -0.00019886    0.00004497    0.00002755
     atom  153 type  2   force =     0.00008320   -0.00015342    0.00008238
     atom  154 type  2   force =     0.00008363   -0.00015433    0.00008243
     atom  155 type  2   force =     0.00008455   -0.00015562    0.00008162
     atom  156 type  2   force =     0.00008315   -0.00015387    0.00008232
     atom  157 type  2   force =     0.00008355   -0.00015384    0.00008231
     atom  158 type  2   force =     0.00008359   -0.00015362    0.00008261
     atom  159 type  2   force =     0.00008299   -0.00015299    0.00008203
     atom  160 type  2   force =     0.00008249   -0.00015097    0.00008335
     atom  161 type  3   force =    -0.00002330   -0.00004654   -0.00005432
     atom  162 type  3   force =    -0.00002351   -0.00004683   -0.00005451
     atom  163 type  3   force =    -0.00002212   -0.00004735   -0.00005394
     atom  164 type  3   force =    -0.00002331   -0.00004660   -0.00005429
     atom  165 type  3   force =    -0.00002287   -0.00004746   -0.00005425
     atom  166 type  3   force =    -0.00002327   -0.00004670   -0.00005460
     atom  167 type  3   force =    -0.00002316   -0.00004669   -0.00005361
     atom  168 type  3   force =    -0.00002479   -0.00004656   -0.00005408
     atom  169 type  2   force =    -0.00014916    0.00000612   -0.00000101
     atom  170 type  2   force =    -0.00014302    0.00000637   -0.00000090
     atom  171 type  2   force =    -0.00014250    0.00000614   -0.00000108
     atom  172 type  2   force =    -0.00014223    0.00000641   -0.00000119
     atom  173 type  2   force =    -0.00014294    0.00000663   -0.00000054
     atom  174 type  2   force =    -0.00012096   -0.00001372   -0.00000712
     atom  175 type  2   force =    -0.00014266    0.00000579   -0.00000099
     atom  176 type  2   force =    -0.00014238    0.00000652   -0.00000077
     atom  177 type  3   force =    -0.00003595    0.00006972   -0.00004835
     atom  178 type  3   force =    -0.00003573    0.00007012   -0.00004816
     atom  179 type  3   force =    -0.00003568    0.00007017   -0.00004834
     atom  180 type  3   force =    -0.00003583    0.00007054   -0.00004840
     atom  181 type  3   force =    -0.00003572    0.00007016   -0.00004839
     atom  182 type  3   force =    -0.00002407    0.00002477   -0.00005156
     atom  183 type  3   force =    -0.00003558    0.00007002   -0.00004825
     atom  184 type  3   force =    -0.00003563    0.00007007   -0.00004816
     atom  185 type  1   force =    -0.00004987   -0.00019776    0.00017524
     atom  186 type  1   force =    -0.00005213   -0.00020119    0.00017566
     atom  187 type  1   force =    -0.00005263   -0.00020202    0.00017554
     atom  188 type  1   force =    -0.00005239   -0.00020200    0.00017629
     atom  189 type  1   force =    -0.00005168   -0.00020156    0.00017579
     atom  190 type  1   force =    -0.00004447   -0.00020287    0.00017680
     atom  191 type  1   force =    -0.00005248   -0.00019979    0.00017550
     atom  192 type  1   force =    -0.00005178   -0.00020042    0.00017486
     atom  193 type  1   force =     0.00015948   -0.00024205    0.00011557
     atom  194 type  1   force =     0.00015889   -0.00024937    0.00011119
     atom  195 type  1   force =     0.00015880   -0.00024908    0.00011123
     atom  196 type  1   force =     0.00015818   -0.00024926    0.00011222
     atom  197 type  1   force =     0.00015876   -0.00024955    0.00011150
     atom  198 type  1   force =     0.00015923   -0.00025497    0.00011628
     atom  199 type  1   force =     0.00015702   -0.00024861    0.00011156
     atom  200 type  1   force =     0.00015803   -0.00024880    0.00011098
     atom  201 type  2   force =     0.00009727    0.00007669   -0.00003162
     atom  202 type  2   force =     0.00009726    0.00007793   -0.00003140
     atom  203 type  2   force =     0.00009712    0.00007773   -0.00003116
     atom  204 type  2   force =     0.00008401    0.00008884   -0.00003137
     atom  205 type  2   force =     0.00009715    0.00007721   -0.00003184
     atom  206 type  2   force =     0.00009813    0.00007926   -0.00003139
     atom  207 type  2   force =     0.00009819    0.00007679   -0.00003150
     atom  208 type  2   force =     0.00009752    0.00007726   -0.00003213
     atom  209 type  3   force =     0.00000419    0.00001985    0.00001395
     atom  210 type  3   force =     0.00000401    0.00002008    0.00001410
     atom  211 type  3   force =     0.00000409    0.00002005    0.00001392
     atom  212 type  3   force =    -0.00000021    0.00002575    0.00001524
     atom  213 type  3   force =     0.00000421    0.00002010    0.00001381
     atom  214 type  3   force =     0.00000388    0.00002094    0.00001345
     atom  215 type  3   force =     0.00000395    0.00001998    0.00001387
     atom  216 type  3   force =     0.00000423    0.00002002    0.00001426
     atom  217 type  1   force =    -0.00013521    0.00020572    0.00002198
     atom  218 type  1   force =    -0.00013493    0.00020479    0.00002154
     atom  219 type  1   force =    -0.00013484    0.00020436    0.00002207
     atom  220 type  1   force =    -0.00015041    0.00014367    0.00002414
     atom  221 type  1   force =    -0.00013479    0.00020507    0.00002245
     atom  222 type  1   force =    -0.00013438    0.00020377    0.00002236
     atom  223 type  1   force =    -0.00013458    0.00020190    0.00002182
     atom  224 type  1   force =    -0.00013461    0.00020540    0.00002130
     atom  225 type  2   force =    -0.00227963   -0.00421785    0.00215432
     atom  226 type  2   force =     0.00006833    0.00004049    0.00007304
     atom  227 type  2   force =     0.00006832    0.00004098    0.00007326
     atom  228 type  2   force =     0.00006847    0.00004048    0.00007298
     atom  229 type  2   force =     0.00006851    0.00003998    0.00007320
     atom  230 type  2   force =     0.00006833    0.00004103    0.00007311
     atom  231 type  2   force =     0.00006887    0.00004073    0.00007299
     atom  232 type  2   force =     0.00006858    0.00004045    0.00007326
     atom  233 type  3   force =     0.00006202    0.00003194   -0.00002737
     atom  234 type  3   force =     0.00006667    0.00002254   -0.00002920
     atom  235 type  3   force =     0.00006663    0.00002251   -0.00002929
     atom  236 type  3   force =     0.00006668    0.00002239   -0.00002931
     atom  237 type  3   force =     0.00006635    0.00002250   -0.00002915
     atom  238 type  3   force =     0.00006716    0.00001971   -0.00002955
     atom  239 type  3   force =     0.00006661    0.00002232   -0.00002925
     atom  240 type  3   force =     0.00006659    0.00002246   -0.00002924
     atom  241 type  1   force =    -0.00023525    0.00000548    0.00013375
     atom  242 type  1   force =    -0.00023456    0.00000490    0.00013317
     atom  243 type  1   force =    -0.00023565    0.00000525    0.00013445
     atom  244 type  1   force =    -0.00023463    0.00000416    0.00013309
     atom  245 type  1   force =    -0.00023626    0.00000451    0.00013441
     atom  246 type  1   force =    -0.00023356   -0.00000151    0.00012714
     atom  247 type  1   force =    -0.00023555    0.00000440    0.00013386
     atom  248 type  1   force =    -0.00023742    0.00000419    0.00013380
     atom  249 type  1   force =    -0.00013079    0.00020058    0.00017379
     atom  250 type  1   force =    -0.00013150    0.00020045    0.00017465
     atom  251 type  1   force =    -0.00013214    0.00020111    0.00017472
     atom  252 type  1   force =    -0.00013120    0.00020000    0.00017410
     atom  253 type  1   force =    -0.00013177    0.00020073    0.00017474
     atom  254 type  1   force =    -0.00012769    0.00020428    0.00017146
     atom  255 type  1   force =    -0.00013113    0.00020051    0.00017423
     atom  256 type  1   force =    -0.00013202    0.00020119    0.00017362
     atom  257 type  2   force =    -0.00000023    0.00001835   -0.00001132
     atom  258 type  2   force =     0.00000113    0.00001731   -0.00001157
     atom  259 type  2   force =    -0.00000375    0.00001217   -0.00000975
     atom  260 type  2   force =     0.00000111    0.00001706   -0.00001167
     atom  261 type  2   force =     0.00000127    0.00001622   -0.00001140
     atom  262 type  2   force =     0.00000096    0.00001611   -0.00001211
     atom  263 type  2   force =     0.00000130    0.00001748   -0.00001182
     atom  264 type  2   force =     0.00000054    0.00001696   -0.00001139
     atom  265 type  2   force =    -0.00004635   -0.00020128   -0.00002682
     atom  266 type  2   force =    -0.00004682   -0.00019972   -0.00002665
     atom  267 type  2   force =    -0.00004707   -0.00020035   -0.00002747
     atom  268 type  2   force =    -0.00004585   -0.00019793   -0.00002669
     atom  269 type  2   force =    -0.00004486   -0.00019830   -0.00002752
     atom  270 type  2   force =    -0.00005320   -0.00020059   -0.00003147
     atom  271 type  2   force =    -0.00004636   -0.00019948   -0.00002671
     atom  272 type  2   force =    -0.00004565   -0.00019978   -0.00002690
     atom  273 type  2   force =     0.00015334    0.00008166   -0.00008277
     atom  274 type  2   force =     0.00015347    0.00008313   -0.00008226
     atom  275 type  2   force =     0.00015194    0.00008265   -0.00008366
     atom  276 type  2   force =     0.00015353    0.00008347   -0.00008184
     atom  277 type  2   force =     0.00015398    0.00008362   -0.00008207
     atom  278 type  2   force =     0.00015295    0.00008296   -0.00008191
     atom  279 type  2   force =     0.00015363    0.00008316   -0.00008251
     atom  280 type  2   force =     0.00015392    0.00008326   -0.00008227
     atom  281 type  3   force =     0.00004656   -0.00002309    0.00005429
     atom  282 type  3   force =     0.00004626   -0.00002348    0.00005454
     atom  283 type  3   force =     0.00004658   -0.00002358    0.00005348
     atom  284 type  3   force =     0.00004674   -0.00002319    0.00005441
     atom  285 type  3   force =     0.00004634   -0.00002326    0.00005370
     atom  286 type  3   force =     0.00004804   -0.00002373    0.00005338
     atom  287 type  3   force =     0.00004679   -0.00002332    0.00005468
     atom  288 type  3   force =     0.00004664   -0.00002331    0.00005444
     atom  289 type  2   force =    -0.00000688   -0.00014298    0.00000103
     atom  290 type  2   force =    -0.00000655   -0.00014291    0.00000138
     atom  291 type  2   force =    -0.00001034   -0.00014598   -0.00000027
     atom  292 type  2   force =    -0.00000611   -0.00014237    0.00000100
     atom  293 type  2   force =    -0.00000563   -0.00014251    0.00000068
     atom  294 type  2   force =    -0.00000665   -0.00014282    0.00000093
     atom  295 type  2   force =    -0.00000647   -0.00014273    0.00000105
     atom  296 type  2   force =    -0.00000606   -0.00014312    0.00000097
     atom  297 type  3   force =    -0.00006946   -0.00003437    0.00004933
     atom  298 type  3   force =    -0.00007007   -0.00003568    0.00004829
     atom  299 type  3   force =    -0.00006678   -0.00003404    0.00004785
     atom  300 type  3   force =    -0.00007008   -0.00003569    0.00004838
     atom  301 type  3   force =    -0.00007022   -0.00003567    0.00004837
     atom  302 type  3   force =    -0.00007021   -0.00003585    0.00004838
     atom  303 type  3   force =    -0.00007031   -0.00003572    0.00004859
     atom  304 type  3   force =    -0.00007030   -0.00003575    0.00004848
     atom  305 type  1   force =     0.00020147   -0.00005176   -0.00017577
     atom  306 type  1   force =     0.00020260   -0.00005283   -0.00017601
     atom  307 type  1   force =     0.00020132   -0.00005177   -0.00017524
     atom  308 type  1   force =     0.00020166   -0.00005247   -0.00017607
     atom  309 type  1   force =     0.00020077   -0.00005167   -0.00017430
     atom  310 type  1   force =     0.00021151   -0.00005351   -0.00017868
     atom  311 type  1   force =     0.00020094   -0.00005257   -0.00017590
     atom  312 type  1   force =     0.00020018   -0.00005172   -0.00017448
     atom  313 type  1   force =     0.00025037    0.00015938   -0.00011138
     atom  314 type  1   force =     0.00024958    0.00015891   -0.00011024
     atom  315 type  1   force =     0.00024920    0.00015804   -0.00011109
     atom  316 type  1   force =     0.00024942    0.00015849   -0.00011185
     atom  317 type  1   force =     0.00024947    0.00015724   -0.00011118
     atom  318 type  1   force =     0.00024601    0.00015865   -0.00011786
     atom  319 type  1   force =     0.00024934    0.00015875   -0.00011141
     atom  320 type  1   force =     0.00024901    0.00015800   -0.00011132
     atom  321 type  2   force =    -0.00007664    0.00009752    0.00003260
     atom  322 type  2   force =    -0.00007759    0.00009729    0.00003171
     atom  323 type  2   force =    -0.00007046    0.00010450    0.00003521
     atom  324 type  2   force =    -0.00007751    0.00009727    0.00003181
     atom  325 type  2   force =    -0.00007707    0.00009763    0.00003182
     atom  326 type  2   force =    -0.00007939    0.00009740    0.00003136
     atom  327 type  2   force =    -0.00007753    0.00009686    0.00003195
     atom  328 type  2   force =    -0.00007669    0.00009682    0.00003205
     atom  329 type  3   force =    -0.00001996    0.00000430   -0.00001387
     atom  330 type  3   force =    -0.00002000    0.00000411   -0.00001391
     atom  331 type  3   force =    -0.00001970    0.00000675   -0.00001782
     atom  332 type  3   force =    -0.00001995    0.00000411   -0.00001382
     atom  333 type  3   force =    -0.00001990    0.00000400   -0.00001406
     atom  334 type  3   force =    -0.00002011    0.00000406   -0.00001375
     atom  335 type  3   force =    -0.00002012    0.00000422   -0.00001391
     atom  336 type  3   force =    -0.00001988    0.00000408   -0.00001411
     atom  337 type  1   force =    -0.00020392   -0.00013501   -0.00002353
     atom  338 type  1   force =    -0.00020465   -0.00013405   -0.00002194
     atom  339 type  1   force =    -0.00020288   -0.00013153   -0.00002695
     atom  340 type  1   force =    -0.00020499   -0.00013501   -0.00002200
     atom  341 type  1   force =    -0.00020425   -0.00013509   -0.00002148
     atom  342 type  1   force =    -0.00020426   -0.00013412   -0.00002179
     atom  343 type  1   force =    -0.00020501   -0.00013439   -0.00002238
     atom  344 type  1   force =    -0.00020488   -0.00013367   -0.00002210
     atom  345 type  2   force =    -0.00004023    0.00006791   -0.00007346
     atom  346 type  2   force =    -0.00003982    0.00006870   -0.00007322
     atom  347 type  2   force =    -0.00004074    0.00006825   -0.00007339
     atom  348 type  2   force =    -0.00004047    0.00006860   -0.00007326
     atom  349 type  2   force =    -0.00004412    0.00007779   -0.00007304
     atom  350 type  2   force =    -0.00004039    0.00006810   -0.00007323
     atom  351 type  2   force =    -0.00004058    0.00006801   -0.00007375
     atom  352 type  2   force =    -0.00004032    0.00006838   -0.00007297
     atom  353 type  3   force =    -0.00002356    0.00006605    0.00003028
     atom  354 type  3   force =    -0.00002244    0.00006651    0.00002926
     atom  355 type  3   force =    -0.00002369    0.00006652    0.00002942
     atom  356 type  3   force =    -0.00002237    0.00006653    0.00002935
     atom  357 type  3   force =    -0.00002283    0.00006663    0.00002923
     atom  358 type  3   force =    -0.00002243    0.00006663    0.00002920
     atom  359 type  3   force =    -0.00002243    0.00006665    0.00002951
     atom  360 type  3   force =    -0.00002240    0.00006663    0.00002939
     atom  361 type  1   force =     0.00023428   -0.00000394    0.00013307
     atom  362 type  1   force =     0.00023581   -0.00000434    0.00013388
     atom  363 type  1   force =     0.00023261   -0.00000546    0.00013531
     atom  364 type  1   force =     0.00023460   -0.00000532    0.00013192
     atom  365 type  1   force =     0.00023599   -0.00000402    0.00013425
     atom  366 type  1   force =     0.00023555   -0.00000609    0.00013231
     atom  367 type  1   force =     0.00023570   -0.00000386    0.00013421
     atom  368 type  1   force =     0.00023491   -0.00000269    0.00013223
     atom  369 type  1   force =     0.00013838   -0.00019847    0.00017077
     atom  370 type  1   force =     0.00013130   -0.00019899    0.00017421
     atom  371 type  1   force =     0.00013092   -0.00019992    0.00017414
     atom  372 type  1   force =     0.00013146   -0.00020056    0.00017446
     atom  373 type  1   force =     0.00013135   -0.00020037    0.00017461
     atom  374 type  1   force =     0.00013203   -0.00019665    0.00017590
     atom  375 type  1   force =     0.00013113   -0.00020013    0.00017462
     atom  376 type  1   force =     0.00013129   -0.00019961    0.00017373
     atom  377 type  2   force =    -0.00000129   -0.00001681   -0.00001111
     atom  378 type  2   force =    -0.00000238   -0.00001655   -0.00001040
     atom  379 type  2   force =    -0.00000123   -0.00001696   -0.00001160
     atom  380 type  2   force =    -0.00000127   -0.00001715   -0.00001136
     atom  381 type  2   force =    -0.00000072   -0.00001699   -0.00001188
     atom  382 type  2   force =    -0.00000280   -0.00000981   -0.00000905
     atom  383 type  2   force =    -0.00000125   -0.00001676   -0.00001142
     atom  384 type  2   force =    -0.00000044   -0.00001712   -0.00001161
     atom  385 type  2   force =     0.00004987    0.00019416   -0.00002709
     atom  386 type  2   force =     0.00004768    0.00020035   -0.00002451
     atom  387 type  2   force =     0.00004626    0.00019845   -0.00002643
     atom  388 type  2   force =     0.00004648    0.00019920   -0.00002663
     atom  389 type  2   force =     0.00004596    0.00019904   -0.00002718
     atom  390 type  2   force =     0.00004550    0.00018705   -0.00002659
     atom  391 type  2   force =     0.00004572    0.00019779   -0.00002670
     atom  392 type  2   force =     0.00004677    0.00019950   -0.00002606
     atom  393 type  2   force =    -0.00015330   -0.00008412   -0.00008234
     atom  394 type  2   force =    -0.00015370   -0.00008423   -0.00007910
     atom  395 type  2   force =    -0.00015322   -0.00008304   -0.00008256
     atom  396 type  2   force =    -0.00015352   -0.00008296   -0.00008222
     atom  397 type  2   force =    -0.00015380   -0.00008343   -0.00008187
     atom  398 type  2   force =    -0.00015116   -0.00008920   -0.00008122
     atom  399 type  2   force =    -0.00015358   -0.00008339   -0.00008237
     atom  400 type  2   force =    -0.00015340   -0.00008315   -0.00008258
     atom  401 type  3   force =    -0.00004652    0.00002333    0.00005412
     atom  402 type  3   force =    -0.00004558    0.00002451    0.00005468
     atom  403 type  3   force =    -0.00004666    0.00002333    0.00005445
     atom  404 type  3   force =    -0.00004641    0.00002341    0.00005444
     atom  405 type  3   force =    -0.00004670    0.00002319    0.00005435
     atom  406 type  3   force =    -0.00004686    0.00002416    0.00005392
     atom  407 type  3   force =    -0.00004662    0.00002324    0.00005438
     atom  408 type  3   force =    -0.00004657    0.00002329    0.00005470
     atom  409 type  2   force =     0.00000588    0.00014131    0.00000157
     atom  410 type  2   force =     0.00000537    0.00014207    0.00000079
     atom  411 type  2   force =     0.00000607    0.00014294    0.00000111
     atom  412 type  2   force =     0.00000621    0.00014253    0.00000102
     atom  413 type  2   force =    -0.00000831    0.00012729   -0.00000009
     atom  414 type  2   force =     0.00000631    0.00014260    0.00000108
     atom  415 type  2   force =     0.00000649    0.00014190    0.00000141
     atom  416 type  2   force =     0.00000589    0.00014239    0.00000126
     atom  417 type  3   force =     0.00007012    0.00003575    0.00004849
     atom  418 type  3   force =     0.00007011    0.00003545    0.00004832
     atom  419 type  3   force =     0.00007014    0.00003570    0.00004826
     atom  420 type  3   force =     0.00006979    0.00003577    0.00004835
     atom  421 type  3   force =     0.00007002    0.00004343    0.00006141
     atom  422 type  3   force =     0.00007027    0.00003582    0.00004833
     atom  423 type  3   force =     0.00007041    0.00003569    0.00004865
     atom  424 type  3   force =     0.00007007    0.00003569    0.00004838
     atom  425 type  1   force =    -0.00019954    0.00004919   -0.00017917
     atom  426 type  1   force =    -0.00020217    0.00005314   -0.00017569
     atom  427 type  1   force =    -0.00020177    0.00005297   -0.00017623
     atom  428 type  1   force =    -0.00020157    0.00005255   -0.00017558
     atom  429 type  1   force =    -0.00020085    0.00005259   -0.00017556
     atom  430 type  1   force =    -0.00020025    0.00005407   -0.00017436
     atom  431 type  1   force =    -0.00020053    0.00005276   -0.00017474
     atom  432 type  1   force =    -0.00020161    0.00005159   -0.00017596
     atom  433 type  1   force =    -0.00025054   -0.00015585   -0.00011636
     atom  434 type  1   force =    -0.00025091   -0.00015998   -0.00011060
     atom  435 type  1   force =    -0.00024931   -0.00015856   -0.00011152
     atom  436 type  1   force =    -0.00024891   -0.00015847   -0.00011082
     atom  437 type  1   force =    -0.00024936   -0.00015822   -0.00011147
     atom  438 type  1   force =    -0.00024906   -0.00015450   -0.00011294
     atom  439 type  1   force =    -0.00024938   -0.00015778   -0.00011120
     atom  440 type  1   force =    -0.00025099   -0.00015918   -0.00011182
     atom  441 type  2   force =     0.00007765   -0.00009850    0.00003152
     atom  442 type  2   force =     0.00007605   -0.00009759    0.00003258
     atom  443 type  2   force =     0.00007777   -0.00009742    0.00003162
     atom  444 type  2   force =     0.00007749   -0.00009722    0.00003226
     atom  445 type  2   force =     0.00007733   -0.00009727    0.00003192
     atom  446 type  2   force =     0.00008067   -0.00010378    0.00003224
     atom  447 type  2   force =     0.00007775   -0.00009748    0.00003181
     atom  448 type  2   force =     0.00007733   -0.00009555    0.00003225
     atom  449 type  3   force =     0.00002005   -0.00000406   -0.00001383
     atom  450 type  3   force =     0.00001996   -0.00000416   -0.00001394
     atom  451 type  3   force =     0.00001950   -0.00000423   -0.00001393
     atom  452 type  3   force =     0.00002001   -0.00000402   -0.00001367
     atom  453 type  3   force =     0.00002008   -0.00000399   -0.00001396
     atom  454 type  3   force =     0.00001967   -0.00000420   -0.00001369
     atom  455 type  3   force =     0.00002008   -0.00000406   -0.00001386
     atom  456 type  3   force =     0.00001998   -0.00000248   -0.00001371
     atom  457 type  1   force =     0.00020527    0.00013521   -0.00002177
     atom  458 type  1   force =     0.00020475    0.00013421   -0.00002193
     atom  459 type  1   force =     0.00020492    0.00013549   -0.00002196
     atom  460 type  1   force =     0.00020484    0.00013524   -0.00002272
     atom  461 type  1   force =     0.00020473    0.00013519   -0.00002165
     atom  462 type  1   force =     0.00020449    0.00013371   -0.00002329
     atom  463 type  1   force =     0.00020481    0.00013452   -0.00002203
     atom  464 type  1   force =     0.00020469    0.00014162   -0.00003220
     atom  465 type  2   force =     0.00004125   -0.00006695   -0.00007377
     atom  466 type  2   force =     0.00004090   -0.00006793   -0.00007259
     atom  467 type  2   force =     0.00003625   -0.00006705   -0.00007167
     atom  468 type  2   force =     0.00004043   -0.00006845   -0.00007330
     atom  469 type  2   force =     0.00003890   -0.00006739   -0.00007253
     atom  470 type  2   force =     0.00004128   -0.00006867   -0.00007290
     atom  471 type  2   force =     0.00004059   -0.00006836   -0.00007332
     atom  472 type  2   force =     0.00004073   -0.00006787   -0.00007309
     atom  473 type  3   force =     0.00002205   -0.00006657    0.00002882
     atom  474 type  3   force =     0.00002230   -0.00006665    0.00002933
     atom  475 type  3   force =     0.00002257   -0.00006653    0.00002918
     atom  476 type  3   force =     0.00002250   -0.00006650    0.00002934
     atom  477 type  3   force =     0.00002298   -0.00006645    0.00002845
     atom  478 type  3   force =     0.00002243   -0.00006646    0.00002925
     atom  479 type  3   force =     0.00002240   -0.00006652    0.00002963
     atom  480 type  3   force =     0.00002243   -0.00006648    0.00002939
     atom  481 type  4   force =     0.00000190   -0.00000471   -0.00000083
     atom  482 type  4   force =    -0.00000134    0.00000046    0.00000313
     atom  483 type  4   force =     0.00000128   -0.00000068   -0.00000238
     atom  484 type  4   force =    -0.00000148    0.00000593    0.00000116
     atom  485 type  4   force =     0.00000127   -0.00000006   -0.00000040
     atom  486 type  4   force =     0.00000854    0.00002291    0.00001506
     atom  487 type  4   force =     0.00000163   -0.00000200   -0.00000301
     atom  488 type  4   force =     0.00000428   -0.00000332    0.00000615
     atom  489 type  4   force =    -0.00000126    0.00000031   -0.00000073
     atom  490 type  4   force =    -0.00000485   -0.00000243   -0.00000241
     atom  491 type  4   force =    -0.00000022   -0.00000678   -0.00000285
     atom  492 type  4   force =    -0.00000073   -0.00000148    0.00000154
     atom  493 type  4   force =    -0.00000209   -0.00000028   -0.00001108
     atom  494 type  4   force =     0.00000428   -0.00000048   -0.00000300
     atom  495 type  4   force =     0.00000161    0.00000100    0.00000122
     atom  496 type  4   force =     0.00000178   -0.00000006   -0.00000179
     The non-local contrib.  to forces
     atom    1 type  1   force =     0.42450164   -0.94525724   -0.55499030
     atom    2 type  1   force =     0.42450571   -0.94527434   -0.55499909
     atom    3 type  1   force =     0.42450340   -0.94527233   -0.55499543
     atom    4 type  1   force =     0.42455057   -0.94531279   -0.55500679
     atom    5 type  1   force =     0.42449988   -0.94526658   -0.55499234
     atom    6 type  1   force =     0.42437511   -0.94528948   -0.55488778
     atom    7 type  1   force =     0.42450194   -0.94527188   -0.55499644
     atom    8 type  1   force =     0.42449816   -0.94527413   -0.55500664
     atom    9 type  1   force =    -1.90170286   -0.92018580   -0.83651391
     atom   10 type  1   force =    -1.90170020   -0.92018051   -0.83651082
     atom   11 type  1   force =    -1.90161771   -0.92014247   -0.83648031
     atom   12 type  1   force =    -1.90170332   -0.92018584   -0.83651348
     atom   13 type  1   force =    -1.90175623   -0.92021470   -0.83652439
     atom   14 type  1   force =    -1.90170351   -0.92018236   -0.83651227
     atom   15 type  1   force =    -1.90171662   -0.92019133   -0.83652334
     atom   16 type  1   force =    -1.90170481   -0.92018637   -0.83651436
     atom   17 type  2   force =     0.20917497   -0.04486654    0.00802023
     atom   18 type  2   force =     0.20917414   -0.04486241    0.00802152
     atom   19 type  2   force =     0.20918835   -0.04487004    0.00802137
     atom   20 type  2   force =     0.20917285   -0.04486737    0.00802086
     atom   21 type  2   force =     0.20932036   -0.04578267    0.00824719
     atom   22 type  2   force =     0.20917085   -0.04486689    0.00802120
     atom   23 type  2   force =     0.20916536   -0.04486632    0.00801891
     atom   24 type  2   force =     0.20917033   -0.04486694    0.00802069
     atom   25 type  2   force =     0.18058292   -0.00954499    0.01138283
     atom   26 type  2   force =     0.18058192   -0.00954177    0.01138511
     atom   27 type  2   force =     0.18059907   -0.00954687    0.01138985
     atom   28 type  2   force =     0.18058061   -0.00954476    0.01138254
     atom   29 type  2   force =     0.18067941   -0.00958869    0.01143503
     atom   30 type  2   force =     0.18057850   -0.00954254    0.01138367
     atom   31 type  2   force =     0.18057222   -0.00954643    0.01138125
     atom   32 type  2   force =     0.18057719   -0.00954464    0.01138209
     atom   33 type  2   force =     0.03726022    0.04989548   -0.02246367
     atom   34 type  2   force =     0.03833963    0.04943332   -0.02158941
     atom   35 type  2   force =     0.03833690    0.04943181   -0.02159080
     atom   36 type  2   force =     0.03833943    0.04943279   -0.02158949
     atom   37 type  2   force =     0.03834323    0.04943185   -0.02158919
     atom   38 type  2   force =     0.03833939    0.04944146   -0.02158821
     atom   39 type  2   force =     0.03834314    0.04943857   -0.02158880
     atom   40 type  2   force =     0.03834070    0.04943349   -0.02158964
     atom   41 type  3   force =    -0.02451208    0.07095485   -0.00855603
     atom   42 type  3   force =    -0.02448910    0.07095364   -0.00853850
     atom   43 type  3   force =    -0.02448916    0.07095361   -0.00853851
     atom   44 type  3   force =    -0.02448910    0.07095363   -0.00853848
     atom   45 type  3   force =    -0.02448903    0.07095361   -0.00853849
     atom   46 type  3   force =    -0.02448909    0.07095387   -0.00853842
     atom   47 type  3   force =    -0.02448906    0.07095378   -0.00853849
     atom   48 type  3   force =    -0.02448910    0.07095365   -0.00853850
     atom   49 type  2   force =     0.21006013    0.11765682   -0.02571930
     atom   50 type  2   force =     0.19564597    0.10406749   -0.02183169
     atom   51 type  2   force =     0.19564276    0.10406797   -0.02183207
     atom   52 type  2   force =     0.19564472    0.10406861   -0.02183175
     atom   53 type  2   force =     0.19565100    0.10406819   -0.02183349
     atom   54 type  2   force =     0.19564704    0.10407096   -0.02183146
     atom   55 type  2   force =     0.19564517    0.10406700   -0.02183226
     atom   56 type  2   force =     0.19564743    0.10406766   -0.02183155
     atom   57 type  3   force =     0.07516734   -0.02170755   -0.00044469
     atom   58 type  3   force =     0.07447321   -0.02094780   -0.00102131
     atom   59 type  3   force =     0.07447313   -0.02094777   -0.00102139
     atom   60 type  3   force =     0.07447321   -0.02094773   -0.00102131
     atom   61 type  3   force =     0.07447334   -0.02094775   -0.00102146
     atom   62 type  3   force =     0.07447323   -0.02094777   -0.00102131
     atom   63 type  3   force =     0.07447314   -0.02094790   -0.00102127
     atom   64 type  3   force =     0.07447326   -0.02094778   -0.00102126
     atom   65 type  1   force =     0.46059494    0.90170232    0.60853583
     atom   66 type  1   force =     0.46060058    0.90171836    0.60854806
     atom   67 type  1   force =     0.46064249    0.90172955    0.60857188
     atom   68 type  1   force =     0.46059394    0.90170369    0.60853604
     atom   69 type  1   force =     0.46070939    0.90169231    0.60856448
     atom   70 type  1   force =     0.46059261    0.90170781    0.60854247
     atom   71 type  1   force =     0.46058471    0.90169433    0.60852735
     atom   72 type  1   force =     0.46059191    0.90170504    0.60853878
     atom   73 type  1   force =    -1.81427286    1.18901909    0.50398623
     atom   74 type  1   force =    -1.81427350    1.18902349    0.50398989
     atom   75 type  1   force =    -1.81422554    1.18900878    0.50397631
     atom   76 type  1   force =    -1.81427577    1.18902096    0.50398747
     atom   77 type  1   force =    -1.81426701    1.18899526    0.50402566
     atom   78 type  1   force =    -1.81427991    1.18902408    0.50399047
     atom   79 type  1   force =    -1.81427802    1.18901737    0.50398529
     atom   80 type  1   force =    -1.81427865    1.18902292    0.50398863
     atom   81 type  2   force =    -0.12228308    0.00072261    0.01060799
     atom   82 type  2   force =    -0.12228126    0.00072945    0.01060833
     atom   83 type  2   force =    -0.12228400    0.00071448    0.01060831
     atom   84 type  2   force =    -0.12228521    0.00072072    0.01060871
     atom   85 type  2   force =    -0.12214056    0.00019510    0.01025801
     atom   86 type  2   force =    -0.12228575    0.00072122    0.01060922
     atom   87 type  2   force =    -0.12228783    0.00072292    0.01060796
     atom   88 type  2   force =    -0.12228647    0.00072177    0.01060858
     atom   89 type  3   force =    -0.04392389   -0.06010562    0.00989233
     atom   90 type  3   force =    -0.04392395   -0.06010583    0.00989223
     atom   91 type  3   force =    -0.04392400   -0.06010590    0.00989231
     atom   92 type  3   force =    -0.04392398   -0.06010609    0.00989233
     atom   93 type  3   force =    -0.04392400   -0.06010589    0.00989232
     atom   94 type  3   force =    -0.04391557   -0.06010762    0.00987095
     atom   95 type  3   force =    -0.04392403   -0.06010587    0.00989228
     atom   96 type  3   force =    -0.04392407   -0.06010584    0.00989221
     atom   97 type  1   force =     0.67100082   -1.73657189    0.15449808
     atom   98 type  1   force =     0.67100139   -1.73657533    0.15449601
     atom   99 type  1   force =     0.67099977   -1.73657831    0.15449852
     atom  100 type  1   force =     0.67100294   -1.73659099    0.15449868
     atom  101 type  1   force =     0.67099916   -1.73657950    0.15449866
     atom  102 type  1   force =     0.67026652   -1.74320265    0.16370038
     atom  103 type  1   force =     0.67099649   -1.73657362    0.15449729
     atom  104 type  1   force =     0.67099512   -1.73657446    0.15449562
     atom  105 type  2   force =    -0.02526835    0.04102407   -0.00105262
     atom  106 type  2   force =    -0.02521870    0.04109491   -0.00104451
     atom  107 type  2   force =    -0.02522040    0.04109289   -0.00104273
     atom  108 type  2   force =    -0.02521665    0.04109118   -0.00104270
     atom  109 type  2   force =    -0.02521858    0.04108933   -0.00104449
     atom  110 type  2   force =    -0.02523513    0.04107667   -0.00103678
     atom  111 type  2   force =    -0.02522463    0.04109538   -0.00104307
     atom  112 type  2   force =    -0.02521937    0.04109213   -0.00104289
     atom  113 type  3   force =     0.05074726    0.05404246   -0.00605515
     atom  114 type  3   force =     0.05071362    0.05410625   -0.00605703
     atom  115 type  3   force =     0.05071356    0.05410619   -0.00605705
     atom  116 type  3   force =     0.05071364    0.05410625   -0.00605702
     atom  117 type  3   force =     0.05071376    0.05410628   -0.00605716
     atom  118 type  3   force =     0.05071362    0.05410637   -0.00605700
     atom  119 type  3   force =     0.05071359    0.05410628   -0.00605703
     atom  120 type  3   force =     0.05071365    0.05410626   -0.00605701
     atom  121 type  1   force =    -0.42452280    0.94529843   -0.55501873
     atom  122 type  1   force =    -0.42450340    0.94527334   -0.55499813
     atom  123 type  1   force =    -0.42450425    0.94526564   -0.55499384
     atom  124 type  1   force =    -0.42450281    0.94525166   -0.55499246
     atom  125 type  1   force =    -0.42450179    0.94526974   -0.55499368
     atom  126 type  1   force =    -0.42446231    0.94517131   -0.55497879
     atom  127 type  1   force =    -0.42450911    0.94527673   -0.55499953
     atom  128 type  1   force =    -0.42450804    0.94528561   -0.55500655
     atom  129 type  1   force =     1.90171427    0.92020370   -0.83653699
     atom  130 type  1   force =     1.90170514    0.92018606   -0.83651437
     atom  131 type  1   force =     1.90169925    0.92018233   -0.83651065
     atom  132 type  1   force =     1.90170087    0.92018202   -0.83651083
     atom  133 type  1   force =     1.90170342    0.92018387   -0.83651242
     atom  134 type  1   force =     1.90181459    0.92023911   -0.83655478
     atom  135 type  1   force =     1.90170196    0.92018801   -0.83651530
     atom  136 type  1   force =     1.90170326    0.92018802   -0.83651506
     atom  137 type  2   force =    -0.20918007    0.04487253    0.00802160
     atom  138 type  2   force =    -0.20917165    0.04486582    0.00802099
     atom  139 type  2   force =    -0.20917342    0.04486379    0.00801958
     atom  140 type  2   force =    -0.20917847    0.04484626    0.00801624
     atom  141 type  2   force =    -0.20917226    0.04486778    0.00802119
     atom  142 type  2   force =    -0.20916013    0.04486110    0.00802057
     atom  143 type  2   force =    -0.20918160    0.04486510    0.00802060
     atom  144 type  2   force =    -0.20917231    0.04486925    0.00801904
     atom  145 type  2   force =    -0.18059037    0.00954981    0.01137832
     atom  146 type  2   force =    -0.18057946    0.00954416    0.01138305
     atom  147 type  2   force =    -0.18058232    0.00954344    0.01138317
     atom  148 type  2   force =    -0.18058268    0.00954440    0.01138674
     atom  149 type  2   force =    -0.18058061    0.00954370    0.01138319
     atom  150 type  2   force =    -0.18056650    0.00953765    0.01138428
     atom  151 type  2   force =    -0.18058851    0.00954721    0.01138159
     atom  152 type  2   force =    -0.18058073    0.00954662    0.01138136
     atom  153 type  2   force =    -0.03834034   -0.04943255   -0.02158918
     atom  154 type  2   force =    -0.03833563   -0.04943412   -0.02158971
     atom  155 type  2   force =    -0.03835799   -0.04942453   -0.02158864
     atom  156 type  2   force =    -0.03834018   -0.04942988   -0.02159033
     atom  157 type  2   force =    -0.03834664   -0.04942324   -0.02158760
     atom  158 type  2   force =    -0.03833959   -0.04943470   -0.02158838
     atom  159 type  2   force =    -0.03833796   -0.04944126   -0.02159240
     atom  160 type  2   force =    -0.03837106   -0.04942839   -0.02158526
     atom  161 type  3   force =     0.02448910   -0.07095362   -0.00853848
     atom  162 type  3   force =     0.02448917   -0.07095365   -0.00853846
     atom  163 type  3   force =     0.02448869   -0.07095324   -0.00853853
     atom  164 type  3   force =     0.02448908   -0.07095356   -0.00853851
     atom  165 type  3   force =     0.02448893   -0.07095335   -0.00853847
     atom  166 type  3   force =     0.02448912   -0.07095368   -0.00853844
     atom  167 type  3   force =     0.02448915   -0.07095383   -0.00853873
     atom  168 type  3   force =     0.02448887   -0.07095363   -0.00853842
     atom  169 type  2   force =    -0.19563670   -0.10408722   -0.02183275
     atom  170 type  2   force =    -0.19564399   -0.10406668   -0.02183254
     atom  171 type  2   force =    -0.19564595   -0.10406727   -0.02183173
     atom  172 type  2   force =    -0.19564361   -0.10407109   -0.02183120
     atom  173 type  2   force =    -0.19564353   -0.10407044   -0.02183173
     atom  174 type  2   force =    -0.19589455   -0.10407220   -0.02184168
     atom  175 type  2   force =    -0.19565079   -0.10406439   -0.02183233
     atom  176 type  2   force =    -0.19564600   -0.10406835   -0.02183216
     atom  177 type  3   force =    -0.07447295    0.02094776   -0.00102132
     atom  178 type  3   force =    -0.07447318    0.02094780   -0.00102137
     atom  179 type  3   force =    -0.07447322    0.02094779   -0.00102129
     atom  180 type  3   force =    -0.07447314    0.02094769   -0.00102132
     atom  181 type  3   force =    -0.07447316    0.02094775   -0.00102132
     atom  182 type  3   force =    -0.07447511    0.02095243   -0.00102083
     atom  183 type  3   force =    -0.07447332    0.02094785   -0.00102132
     atom  184 type  3   force =    -0.07447322    0.02094778   -0.00102138
     atom  185 type  1   force =    -0.46060341   -0.90168673    0.60854363
     atom  186 type  1   force =    -0.46059553   -0.90170764    0.60854048
     atom  187 type  1   force =    -0.46059761   -0.90170848    0.60853578
     atom  188 type  1   force =    -0.46059785   -0.90170755    0.60854502
     atom  189 type  1   force =    -0.46059296   -0.90170444    0.60853804
     atom  190 type  1   force =    -0.46056565   -0.90170057    0.60853760
     atom  191 type  1   force =    -0.46059352   -0.90168759    0.60853082
     atom  192 type  1   force =    -0.46059238   -0.90169635    0.60853086
     atom  193 type  1   force =     1.81421336   -1.18896171    0.50397212
     atom  194 type  1   force =     1.81427290   -1.18901964    0.50398671
     atom  195 type  1   force =     1.81427387   -1.18902165    0.50398751
     atom  196 type  1   force =     1.81427426   -1.18902308    0.50398903
     atom  197 type  1   force =     1.81427868   -1.18902317    0.50398884
     atom  198 type  1   force =     1.81429544   -1.18901983    0.50398518
     atom  199 type  1   force =     1.81427005   -1.18901490    0.50398525
     atom  200 type  1   force =     1.81427215   -1.18901599    0.50398498
     atom  201 type  2   force =     0.12228462   -0.00071406    0.01060910
     atom  202 type  2   force =     0.12228486   -0.00072325    0.01060809
     atom  203 type  2   force =     0.12228477   -0.00072436    0.01060810
     atom  204 type  2   force =     0.12224923   -0.00074923    0.01059620
     atom  205 type  2   force =     0.12228609   -0.00071967    0.01060940
     atom  206 type  2   force =     0.12228310   -0.00073468    0.01060857
     atom  207 type  2   force =     0.12228261   -0.00072215    0.01060812
     atom  208 type  2   force =     0.12228743   -0.00071854    0.01060750
     atom  209 type  3   force =     0.04392400    0.06010606    0.00989231
     atom  210 type  3   force =     0.04392400    0.06010586    0.00989218
     atom  211 type  3   force =     0.04392398    0.06010581    0.00989229
     atom  212 type  3   force =     0.04392478    0.06010464    0.00989237
     atom  213 type  3   force =     0.04392401    0.06010593    0.00989234
     atom  214 type  3   force =     0.04392393    0.06010546    0.00989242
     atom  215 type  3   force =     0.04392391    0.06010584    0.00989229
     atom  216 type  3   force =     0.04392404    0.06010599    0.00989218
     atom  217 type  1   force =    -0.67100329    1.73658900    0.15449849
     atom  218 type  1   force =    -0.67099857    1.73657555    0.15449625
     atom  219 type  1   force =    -0.67099744    1.73657296    0.15449797
     atom  220 type  1   force =    -0.67099447    1.73612295    0.15444640
     atom  221 type  1   force =    -0.67099922    1.73658123    0.15449933
     atom  222 type  1   force =    -0.67099552    1.73656357    0.15449750
     atom  223 type  1   force =    -0.67099770    1.73656578    0.15449695
     atom  224 type  1   force =    -0.67099759    1.73658250    0.15449497
     atom  225 type  2   force =     0.02395326   -0.04477736    0.00227885
     atom  226 type  2   force =     0.02521997   -0.04109266   -0.00104300
     atom  227 type  2   force =     0.02521660   -0.04109390   -0.00104399
     atom  228 type  2   force =     0.02521991   -0.04109206   -0.00104304
     atom  229 type  2   force =     0.02522448   -0.04109051   -0.00104556
     atom  230 type  2   force =     0.02522046   -0.04108810   -0.00104194
     atom  231 type  2   force =     0.02522168   -0.04109245   -0.00104305
     atom  232 type  2   force =     0.02522126   -0.04109232   -0.00104275
     atom  233 type  3   force =    -0.05071380   -0.05410919   -0.00605754
     atom  234 type  3   force =    -0.05071357   -0.05410618   -0.00605705
     atom  235 type  3   force =    -0.05071363   -0.05410625   -0.00605702
     atom  236 type  3   force =    -0.05071358   -0.05410626   -0.00605702
     atom  237 type  3   force =    -0.05071355   -0.05410632   -0.00605711
     atom  238 type  3   force =    -0.05071390   -0.05410625   -0.00605694
     atom  239 type  3   force =    -0.05071368   -0.05410619   -0.00605705
     atom  240 type  3   force =    -0.05071361   -0.05410624   -0.00605703
     atom  241 type  1   force =    -0.94527031   -0.42449665    0.55499373
     atom  242 type  1   force =    -0.94526561   -0.42450036    0.55499192
     atom  243 type  1   force =    -0.94527578   -0.42450064    0.55500157
     atom  244 type  1   force =    -0.94526437   -0.42450413    0.55499072
     atom  245 type  1   force =    -0.94527842   -0.42450485    0.55500213
     atom  246 type  1   force =    -0.94519124   -0.42449778    0.55497659
     atom  247 type  1   force =    -0.94527287   -0.42450346    0.55499645
     atom  248 type  1   force =    -0.94528579   -0.42450277    0.55499760
     atom  249 type  1   force =    -0.92018636    1.90171142    0.83651627
     atom  250 type  1   force =    -0.92018069    1.90170052    0.83650972
     atom  251 type  1   force =    -0.92018791    1.90170814    0.83651621
     atom  252 type  1   force =    -0.92018122    1.90169881    0.83651023
     atom  253 type  1   force =    -0.92019004    1.90170798    0.83651660
     atom  254 type  1   force =    -0.92016066    1.90165230    0.83644799
     atom  255 type  1   force =    -0.92018479    1.90170357    0.83651354
     atom  256 type  1   force =    -0.92019506    1.90171337    0.83651776
     atom  257 type  2   force =    -0.04486597   -0.20916531   -0.00802172
     atom  258 type  2   force =    -0.04486564   -0.20916882   -0.00802052
     atom  259 type  2   force =    -0.04487897   -0.20917468   -0.00800222
     atom  260 type  2   force =    -0.04486739   -0.20917441   -0.00802092
     atom  261 type  2   force =    -0.04486672   -0.20917409   -0.00801780
     atom  262 type  2   force =    -0.04486151   -0.20916653   -0.00801272
     atom  263 type  2   force =    -0.04486755   -0.20917012   -0.00802162
     atom  264 type  2   force =    -0.04486857   -0.20916866   -0.00802099
     atom  265 type  2   force =    -0.00954282   -0.18057319   -0.01138321
     atom  266 type  2   force =    -0.00954229   -0.18057624   -0.01138409
     atom  267 type  2   force =    -0.00954446   -0.18057900   -0.01138033
     atom  268 type  2   force =    -0.00954244   -0.18058366   -0.01138396
     atom  269 type  2   force =    -0.00954671   -0.18058130   -0.01138111
     atom  270 type  2   force =    -0.00953425   -0.18058553   -0.01137515
     atom  271 type  2   force =    -0.00954394   -0.18057876   -0.01138299
     atom  272 type  2   force =    -0.00954645   -0.18057660   -0.01138032
     atom  273 type  2   force =     0.04943945   -0.03833326    0.02159013
     atom  274 type  2   force =     0.04943729   -0.03833609    0.02158999
     atom  275 type  2   force =     0.04943202   -0.03834479    0.02159799
     atom  276 type  2   force =     0.04943269   -0.03834154    0.02158894
     atom  277 type  2   force =     0.04943263   -0.03834436    0.02159304
     atom  278 type  2   force =     0.04943676   -0.03833374    0.02159584
     atom  279 type  2   force =     0.04943195   -0.03833857    0.02158809
     atom  280 type  2   force =     0.04943019   -0.03833847    0.02158926
     atom  281 type  3   force =     0.07095383    0.02448919    0.00853852
     atom  282 type  3   force =     0.07095376    0.02448920    0.00853848
     atom  283 type  3   force =     0.07095359    0.02448903    0.00853855
     atom  284 type  3   force =     0.07095362    0.02448907    0.00853848
     atom  285 type  3   force =     0.07095363    0.02448901    0.00853866
     atom  286 type  3   force =     0.07095360    0.02448935    0.00853884
     atom  287 type  3   force =     0.07095360    0.02448911    0.00853843
     atom  288 type  3   force =     0.07095357    0.02448911    0.00853846
     atom  289 type  2   force =     0.10406679   -0.19564008    0.02182384
     atom  290 type  2   force =     0.10406868   -0.19564195    0.02183191
     atom  291 type  2   force =     0.10402988   -0.19565535    0.02185192
     atom  292 type  2   force =     0.10406724   -0.19564790    0.02183202
     atom  293 type  2   force =     0.10406949   -0.19565076    0.02183282
     atom  294 type  2   force =     0.10407074   -0.19564009    0.02183220
     atom  295 type  2   force =     0.10406795   -0.19564255    0.02183090
     atom  296 type  2   force =     0.10406735   -0.19564207    0.02183134
     atom  297 type  3   force =    -0.02094786   -0.07447319    0.00102098
     atom  298 type  3   force =    -0.02094777   -0.07447311    0.00102135
     atom  299 type  3   force =    -0.02094856   -0.07447336    0.00102122
     atom  300 type  3   force =    -0.02094780   -0.07447327    0.00102130
     atom  301 type  3   force =    -0.02094776   -0.07447334    0.00102134
     atom  302 type  3   force =    -0.02094773   -0.07447308    0.00102137
     atom  303 type  3   force =    -0.02094775   -0.07447314    0.00102123
     atom  304 type  3   force =    -0.02094777   -0.07447315    0.00102128
     atom  305 type  1   force =     0.90170903   -0.46059116   -0.60853953
     atom  306 type  1   force =     0.90171711   -0.46059568   -0.60854324
     atom  307 type  1   force =     0.90169744   -0.46058885   -0.60852887
     atom  308 type  1   force =     0.90170653   -0.46059647   -0.60854140
     atom  309 type  1   force =     0.90169196   -0.46058882   -0.60852357
     atom  310 type  1   force =     0.90171913   -0.46060828   -0.60849643
     atom  311 type  1   force =     0.90170521   -0.46059492   -0.60854098
     atom  312 type  1   force =     0.90169585   -0.46059053   -0.60853091
     atom  313 type  1   force =     1.18902467    1.81428159   -0.50398948
     atom  314 type  1   force =     1.18903110    1.81428504   -0.50399126
     atom  315 type  1   force =     1.18902186    1.81428226   -0.50398924
     atom  316 type  1   force =     1.18902331    1.81427642   -0.50398971
     atom  317 type  1   force =     1.18901863    1.81427739   -0.50398604
     atom  318 type  1   force =     1.18902230    1.81426617   -0.50397135
     atom  319 type  1   force =     1.18902104    1.81427532   -0.50398833
     atom  320 type  1   force =     1.18901405    1.81427095   -0.50398333
     atom  321 type  2   force =     0.00071913    0.12229164   -0.01060973
     atom  322 type  2   force =     0.00072261    0.12228781   -0.01060859
     atom  323 type  2   force =     0.00072187    0.12225483   -0.01058470
     atom  324 type  2   force =     0.00072155    0.12228391   -0.01060852
     atom  325 type  2   force =     0.00072137    0.12228400   -0.01060720
     atom  326 type  2   force =     0.00073086    0.12228418   -0.01060634
     atom  327 type  2   force =     0.00072067    0.12228750   -0.01060919
     atom  328 type  2   force =     0.00071644    0.12229078   -0.01060916
     atom  329 type  3   force =    -0.06010599    0.04392413   -0.00989239
     atom  330 type  3   force =    -0.06010586    0.04392404   -0.00989229
     atom  331 type  3   force =    -0.06010601    0.04392274   -0.00989196
     atom  332 type  3   force =    -0.06010587    0.04392395   -0.00989231
     atom  333 type  3   force =    -0.06010586    0.04392398   -0.00989223
     atom  334 type  3   force =    -0.06010567    0.04392391   -0.00989231
     atom  335 type  3   force =    -0.06010589    0.04392406   -0.00989234
     atom  336 type  3   force =    -0.06010604    0.04392414   -0.00989226
     atom  337 type  1   force =    -1.73658276   -0.67099474   -0.15450311
     atom  338 type  1   force =    -1.73657575   -0.67099538   -0.15449755
     atom  339 type  1   force =    -1.73685794   -0.67109294   -0.15447335
     atom  340 type  1   force =    -1.73657997   -0.67100079   -0.15449761
     atom  341 type  1   force =    -1.73657724   -0.67100187   -0.15449597
     atom  342 type  1   force =    -1.73656773   -0.67099475   -0.15449466
     atom  343 type  1   force =    -1.73657696   -0.67099585   -0.15449889
     atom  344 type  1   force =    -1.73657810   -0.67099404   -0.15449831
     atom  345 type  2   force =     0.04109019    0.02522487    0.00104051
     atom  346 type  2   force =     0.04109267    0.02522445    0.00104427
     atom  347 type  2   force =     0.04109311    0.02521726    0.00104405
     atom  348 type  2   force =     0.04109376    0.02522036    0.00104320
     atom  349 type  2   force =     0.04114096    0.02521991    0.00102407
     atom  350 type  2   force =     0.04109070    0.02522150    0.00104406
     atom  351 type  2   force =     0.04108994    0.02522158    0.00104004
     atom  352 type  2   force =     0.04109131    0.02522203    0.00104326
     atom  353 type  3   force =     0.05410646   -0.05071330    0.00605679
     atom  354 type  3   force =     0.05410621   -0.05071353    0.00605705
     atom  355 type  3   force =     0.05410607   -0.05071374    0.00605714
     atom  356 type  3   force =     0.05410625   -0.05071366    0.00605702
     atom  357 type  3   force =     0.05410661   -0.05071390    0.00605711
     atom  358 type  3   force =     0.05410617   -0.05071350    0.00605708
     atom  359 type  3   force =     0.05410618   -0.05071355    0.00605695
     atom  360 type  3   force =     0.05410619   -0.05071357    0.00605702
     atom  361 type  1   force =     0.94526503    0.42450532    0.55499214
     atom  362 type  1   force =     0.94527406    0.42450368    0.55499672
     atom  363 type  1   force =     0.94525918    0.42449071    0.55502483
     atom  364 type  1   force =     0.94526503    0.42449229    0.55498112
     atom  365 type  1   force =     0.94527533    0.42450618    0.55500017
     atom  366 type  1   force =     0.94525634    0.42449305    0.55498133
     atom  367 type  1   force =     0.94527309    0.42450504    0.55499820
     atom  368 type  1   force =     0.94525151    0.42451994    0.55498804
     atom  369 type  1   force =     0.92021364   -1.90174560    0.83653200
     atom  370 type  1   force =     0.92018374   -1.90171099    0.83651359
     atom  371 type  1   force =     0.92017936   -1.90169578    0.83650896
     atom  372 type  1   force =     0.92018547   -1.90170313    0.83651359
     atom  373 type  1   force =     0.92018568   -1.90170371    0.83651483
     atom  374 type  1   force =     0.92017901   -1.90168397    0.83650601
     atom  375 type  1   force =     0.92018817   -1.90170461    0.83651519
     atom  376 type  1   force =     0.92018640   -1.90171581    0.83651746
     atom  377 type  2   force =     0.04486741    0.20917439   -0.00801685
     atom  378 type  2   force =     0.04486690    0.20916968   -0.00802858
     atom  379 type  2   force =     0.04486730    0.20917363   -0.00802091
     atom  380 type  2   force =     0.04486707    0.20917032   -0.00802078
     atom  381 type  2   force =     0.04486691    0.20917222   -0.00802034
     atom  382 type  2   force =     0.04487627    0.20919974   -0.00802369
     atom  383 type  2   force =     0.04486649    0.20917407   -0.00802021
     atom  384 type  2   force =     0.04486659    0.20916961   -0.00802423
     atom  385 type  2   force =     0.00954497    0.18057824   -0.01137521
     atom  386 type  2   force =     0.00954175    0.18057411   -0.01138669
     atom  387 type  2   force =     0.00954209    0.18058293   -0.01138441
     atom  388 type  2   force =     0.00954429    0.18057821   -0.01138269
     atom  389 type  2   force =     0.00954475    0.18058098   -0.01138260
     atom  390 type  2   force =     0.00954627    0.18061451   -0.01138472
     atom  391 type  2   force =     0.00954626    0.18058285   -0.01138224
     atom  392 type  2   force =     0.00954196    0.18057751   -0.01138380
     atom  393 type  2   force =    -0.04943155    0.03834347    0.02159104
     atom  394 type  2   force =    -0.04944609    0.03833708    0.02158492
     atom  395 type  2   force =    -0.04943344    0.03834064    0.02158915
     atom  396 type  2   force =    -0.04943468    0.03833761    0.02158990
     atom  397 type  2   force =    -0.04943243    0.03834070    0.02158958
     atom  398 type  2   force =    -0.04940642    0.03836204    0.02157803
     atom  399 type  2   force =    -0.04943361    0.03834164    0.02158934
     atom  400 type  2   force =    -0.04943499    0.03833893    0.02158695
     atom  401 type  3   force =    -0.07095359   -0.02448905    0.00853855
     atom  402 type  3   force =    -0.07095396   -0.02448930    0.00853851
     atom  403 type  3   force =    -0.07095365   -0.02448908    0.00853845
     atom  404 type  3   force =    -0.07095370   -0.02448915    0.00853849
     atom  405 type  3   force =    -0.07095363   -0.02448908    0.00853851
     atom  406 type  3   force =    -0.07095298   -0.02448871    0.00853835
     atom  407 type  3   force =    -0.07095366   -0.02448906    0.00853848
     atom  408 type  3   force =    -0.07095368   -0.02448913    0.00853841
     atom  409 type  2   force =    -0.10406694    0.19565100    0.02183112
     atom  410 type  2   force =    -0.10406631    0.19565341    0.02183248
     atom  411 type  2   force =    -0.10406794    0.19564239    0.02183216
     atom  412 type  2   force =    -0.10406683    0.19564740    0.02183222
     atom  413 type  2   force =    -0.10404008    0.19574599    0.02180176
     atom  414 type  2   force =    -0.10406850    0.19564504    0.02183214
     atom  415 type  2   force =    -0.10406798    0.19564642    0.02183006
     atom  416 type  2   force =    -0.10406809    0.19564825    0.02183202
     atom  417 type  3   force =     0.02094779    0.07447334    0.00102130
     atom  418 type  3   force =     0.02094779    0.07447338    0.00102131
     atom  419 type  3   force =     0.02094777    0.07447313    0.00102137
     atom  420 type  3   force =     0.02094785    0.07447323    0.00102133
     atom  421 type  3   force =     0.02094885    0.07447506    0.00101656
     atom  422 type  3   force =     0.02094775    0.07447318    0.00102135
     atom  423 type  3   force =     0.02094773    0.07447325    0.00102121
     atom  424 type  3   force =     0.02094780    0.07447326    0.00102133
     atom  425 type  1   force =    -0.90168913    0.46058221   -0.60851992
     atom  426 type  1   force =    -0.90171960    0.46059434   -0.60854364
     atom  427 type  1   force =    -0.90171036    0.46059858   -0.60854381
     atom  428 type  1   force =    -0.90170726    0.46059481   -0.60853881
     atom  429 type  1   force =    -0.90170005    0.46059417   -0.60853587
     atom  430 type  1   force =    -0.90168089    0.46060801   -0.60852916
     atom  431 type  1   force =    -0.90169771    0.46059484   -0.60853136
     atom  432 type  1   force =    -0.90170950    0.46059203   -0.60854153
     atom  433 type  1   force =    -1.18901698   -1.81429914   -0.50401521
     atom  434 type  1   force =    -1.18903225   -1.81428617   -0.50399028
     atom  435 type  1   force =    -1.18902404   -1.81427588   -0.50399028
     atom  436 type  1   force =    -1.18902118   -1.81427562   -0.50398813
     atom  437 type  1   force =    -1.18901874   -1.81427366   -0.50398737
     atom  438 type  1   force =    -1.18901100   -1.81425511   -0.50398204
     atom  439 type  1   force =    -1.18901720   -1.81427159   -0.50398540
     atom  440 type  1   force =    -1.18902513   -1.81428045   -0.50398926
     atom  441 type  2   force =    -0.00072161   -0.12228185   -0.01060712
     atom  442 type  2   force =    -0.00071996   -0.12228524   -0.01061217
     atom  443 type  2   force =    -0.00072234   -0.12228349   -0.01060838
     atom  444 type  2   force =    -0.00072009   -0.12228839   -0.01060891
     atom  445 type  2   force =    -0.00072119   -0.12228602   -0.01060858
     atom  446 type  2   force =    -0.00073388   -0.12224228   -0.01060117
     atom  447 type  2   force =    -0.00072297   -0.12228369   -0.01060778
     atom  448 type  2   force =    -0.00071620   -0.12228880   -0.01061194
     atom  449 type  3   force =     0.06010585   -0.04392394   -0.00989229
     atom  450 type  3   force =     0.06010592   -0.04392407   -0.00989226
     atom  451 type  3   force =     0.06010595   -0.04392383   -0.00989224
     atom  452 type  3   force =     0.06010592   -0.04392401   -0.00989239
     atom  453 type  3   force =     0.06010584   -0.04392395   -0.00989225
     atom  454 type  3   force =     0.06010609   -0.04392411   -0.00989246
     atom  455 type  3   force =     0.06010590   -0.04392401   -0.00989231
     atom  456 type  3   force =     0.06010533   -0.04392335   -0.00989236
     atom  457 type  1   force =     1.73658221    0.67100163   -0.15449722
     atom  458 type  1   force =     1.73657830    0.67099579   -0.15449757
     atom  459 type  1   force =     1.73658331    0.67100528   -0.15449888
     atom  460 type  1   force =     1.73658167    0.67100246   -0.15450252
     atom  461 type  1   force =     1.73657735    0.67100070   -0.15449687
     atom  462 type  1   force =     1.73657684    0.67099661   -0.15450392
     atom  463 type  1   force =     1.73657682    0.67099768   -0.15449759
     atom  464 type  1   force =     1.73657184    0.67106243   -0.15453721
     atom  465 type  2   force =    -0.04109063   -0.02521246    0.00103409
     atom  466 type  2   force =    -0.04109300   -0.02521624    0.00104344
     atom  467 type  2   force =    -0.04110995   -0.02523092    0.00105662
     atom  468 type  2   force =    -0.04109260   -0.02522163    0.00104312
     atom  469 type  2   force =    -0.04108371   -0.02522995    0.00104673
     atom  470 type  2   force =    -0.04109303   -0.02521356    0.00104494
     atom  471 type  2   force =    -0.04109429   -0.02521748    0.00104133
     atom  472 type  2   force =    -0.04109448   -0.02521773    0.00104262
     atom  473 type  3   force =    -0.05410628    0.05071376    0.00605717
     atom  474 type  3   force =    -0.05410626    0.05071372    0.00605706
     atom  475 type  3   force =    -0.05410621    0.05071354    0.00605709
     atom  476 type  3   force =    -0.05410621    0.05071360    0.00605703
     atom  477 type  3   force =    -0.05410527    0.05071294    0.00605702
     atom  478 type  3   force =    -0.05410630    0.05071367    0.00605708
     atom  479 type  3   force =    -0.05410633    0.05071368    0.00605697
     atom  480 type  3   force =    -0.05410630    0.05071367    0.00605704
     atom  481 type  4   force =    -0.00000958    0.00005140   -0.00001675
     atom  482 type  4   force =     0.00000996    0.00000027   -0.00000534
     atom  483 type  4   force =     0.00000219   -0.00000929    0.00001757
     atom  484 type  4   force =     0.00001403   -0.00006629   -0.00003527
     atom  485 type  4   force =    -0.00000379    0.00000341    0.00001864
     atom  486 type  4   force =    -0.00000333   -0.00019719   -0.00014163
     atom  487 type  4   force =    -0.00000173    0.00000466   -0.00000226
     atom  488 type  4   force =    -0.00004087    0.00001831   -0.00003504
     atom  489 type  4   force =     0.00001070   -0.00000247   -0.00000337
     atom  490 type  4   force =     0.00004600    0.00002507    0.00002004
     atom  491 type  4   force =     0.00000846    0.00006267    0.00003122
     atom  492 type  4   force =    -0.00000250    0.00000648   -0.00001829
     atom  493 type  4   force =     0.00000648    0.00001730    0.00009430
     atom  494 type  4   force =    -0.00003798    0.00000358    0.00001859
     atom  495 type  4   force =    -0.00000864   -0.00001467   -0.00002314
     atom  496 type  4   force =    -0.00001668   -0.00000171    0.00000743
     The ionic contribution  to forces
     atom    1 type  1   force =    -0.12035112   -1.15073852   -2.54596120
     atom    2 type  1   force =    -0.12037144   -1.15081058   -2.54568300
     atom    3 type  1   force =    -0.12029978   -1.15043005   -2.54596578
     atom    4 type  1   force =    -0.12139499   -1.15019615   -2.54626335
     atom    5 type  1   force =    -0.12037400   -1.15049482   -2.54593323
     atom    6 type  1   force =    -0.12112110   -1.15022716   -2.54673553
     atom    7 type  1   force =    -0.12039650   -1.15074209   -2.54593370
     atom    8 type  1   force =    -0.12030473   -1.15091690   -2.54563727
     atom    9 type  1   force =    14.27352239    1.63958559    2.01279212
     atom   10 type  1   force =    14.27343866    1.63965425    2.01260599
     atom   11 type  1   force =    14.27086879    1.64040111    2.01191097
     atom   12 type  1   force =    14.27346251    1.63993314    2.01261563
     atom   13 type  1   force =    14.27304078    1.63998498    2.01224452
     atom   14 type  1   force =    14.27348745    1.63986288    2.01257874
     atom   15 type  1   force =    14.27340382    1.63942682    2.01298883
     atom   16 type  1   force =    14.27346088    1.63960619    2.01257822
     atom   17 type  2   force =    -2.68748865   -1.12185467   -0.87793419
     atom   18 type  2   force =    -2.68734867   -1.12182050   -0.87821644
     atom   19 type  2   force =    -2.68766255   -1.12158596   -0.87829772
     atom   20 type  2   force =    -2.68732647   -1.12159503   -0.87824448
     atom   21 type  2   force =    -2.69053719   -1.11826272   -0.88136476
     atom   22 type  2   force =    -2.68740241   -1.12148267   -0.87809647
     atom   23 type  2   force =    -2.68721738   -1.12177745   -0.87801531
     atom   24 type  2   force =    -2.68738202   -1.12169720   -0.87814457
     atom   25 type  2   force =    -5.25575694   -0.26050630   -0.96563435
     atom   26 type  2   force =    -5.25571794   -0.26045591   -0.96586859
     atom   27 type  2   force =    -5.25625619   -0.26021159   -0.96609096
     atom   28 type  2   force =    -5.25568319   -0.26023871   -0.96588421
     atom   29 type  2   force =    -5.25664760   -0.25944262   -0.96674374
     atom   30 type  2   force =    -5.25570357   -0.26015810   -0.96578859
     atom   31 type  2   force =    -5.25561016   -0.26049303   -0.96560147
     atom   32 type  2   force =    -5.25571316   -0.26038128   -0.96583520
     atom   33 type  2   force =    -3.27535199   -5.22509128    2.49739449
     atom   34 type  2   force =    -3.27866596   -5.22852062    2.50221928
     atom   35 type  2   force =    -3.27840390   -5.22878555    2.50223259
     atom   36 type  2   force =    -3.27861513   -5.22872358    2.50212226
     atom   37 type  2   force =    -3.27875889   -5.22886892    2.50230258
     atom   38 type  2   force =    -3.27857732   -5.22892271    2.50201765
     atom   39 type  2   force =    -3.27883423   -5.22868336    2.50201580
     atom   40 type  2   force =    -3.27855999   -5.22866780    2.50200825
     atom   41 type  3   force =    -0.74030312   -2.14426653    1.26031391
     atom   42 type  3   force =    -0.74074978   -2.14436142    1.26075505
     atom   43 type  3   force =    -0.74067431   -2.14441956    1.26075277
     atom   44 type  3   force =    -0.74073484   -2.14440686    1.26071069
     atom   45 type  3   force =    -0.74076918   -2.14443660    1.26075061
     atom   46 type  3   force =    -0.74073276   -2.14447603    1.26067870
     atom   47 type  3   force =    -0.74079305   -2.14441170    1.26068990
     atom   48 type  3   force =    -0.74072246   -2.14440087    1.26069003
     atom   49 type  2   force =    -6.12334250   -1.48120429    0.68422809
     atom   50 type  2   force =    -6.17640320   -1.54829793    0.63342198
     atom   51 type  2   force =    -6.17616116   -1.54853998    0.63342198
     atom   52 type  2   force =    -6.17635389   -1.54849066    0.63338885
     atom   53 type  2   force =    -6.17652224   -1.54865902    0.63360003
     atom   54 type  2   force =    -6.17627651   -1.54864561    0.63328339
     atom   55 type  2   force =    -6.17650883   -1.54841329    0.63328339
     atom   56 type  2   force =    -6.17628020   -1.54841698    0.63324393
     atom   57 type  3   force =    -1.98524530    0.06026934    0.17112167
     atom   58 type  3   force =    -1.97454882    0.04605792    0.18333689
     atom   59 type  3   force =    -1.97449010    0.04599488    0.18333994
     atom   60 type  3   force =    -1.97453757    0.04600852    0.18332754
     atom   61 type  3   force =    -1.97457702    0.04596662    0.18338024
     atom   62 type  3   force =    -1.97452038    0.04597066    0.18330256
     atom   63 type  3   force =    -1.97458069    0.04602888    0.18329965
     atom   64 type  3   force =    -1.97451997    0.04602789    0.18329321
     atom   65 type  1   force =    -0.87360950    0.57375092    1.98666999
     atom   66 type  1   force =    -0.87367007    0.57378066    1.98646817
     atom   67 type  1   force =    -0.87445345    0.57392691    1.98595024
     atom   68 type  1   force =    -0.87361863    0.57404634    1.98645693
     atom   69 type  1   force =    -0.87412288    0.57466792    1.98601040
     atom   70 type  1   force =    -0.87351538    0.57424884    1.98659594
     atom   71 type  1   force =    -0.87353310    0.57378889    1.98685264
     atom   72 type  1   force =    -0.87355725    0.57389441    1.98646249
     atom   73 type  1   force =    14.19230622   -5.31487665    0.05332790
     atom   74 type  1   force =    14.19218389   -5.31482449    0.05317886
     atom   75 type  1   force =    14.19015599   -5.31491213    0.05207406
     atom   76 type  1   force =    14.19221012   -5.31458568    0.05318326
     atom   77 type  1   force =    14.19188563   -5.31438127    0.05289643
     atom   78 type  1   force =    14.19234385   -5.31451143    0.05319135
     atom   79 type  1   force =    14.19219875   -5.31494207    0.05360566
     atom   80 type  1   force =    14.19230070   -5.31481585    0.05312977
     atom   81 type  2   force =    -0.21553821    2.77161125   -3.53129590
     atom   82 type  2   force =    -0.21533208    2.77167289   -3.53165464
     atom   83 type  2   force =    -0.21559051    2.77191500   -3.53170330
     atom   84 type  2   force =    -0.21532167    2.77189868   -3.53166809
     atom   85 type  2   force =    -0.22685453    2.77030868   -3.53614714
     atom   86 type  2   force =    -0.21543747    2.77196335   -3.53154940
     atom   87 type  2   force =    -0.21525792    2.77172381   -3.53150816
     atom   88 type  2   force =    -0.21541597    2.77177400   -3.53157076
     atom   89 type  3   force =     0.26884979    1.65179836   -1.78767789
     atom   90 type  3   force =     0.26880053    1.65177563   -1.78756588
     atom   91 type  3   force =     0.26885338    1.65185437   -1.78766727
     atom   92 type  3   force =     0.26878893    1.65186142   -1.78769512
     atom   93 type  3   force =     0.26882071    1.65185346   -1.78765485
     atom   94 type  3   force =     0.26784629    1.65139936   -1.78800249
     atom   95 type  3   force =     0.26882068    1.65181051   -1.78765938
     atom   96 type  3   force =     0.26885348    1.65180393   -1.78764321
     atom   97 type  1   force =    -5.25686962    6.86250683   -1.77958312
     atom   98 type  1   force =    -5.25719306    6.86249002   -1.77914456
     atom   99 type  1   force =    -5.25687484    6.86280045   -1.77960666
     atom  100 type  1   force =    -5.25716369    6.86280303   -1.77957799
     atom  101 type  1   force =    -5.25704400    6.86291692   -1.77940517
     atom  102 type  1   force =    -5.30426777    6.79958487   -1.80337982
     atom  103 type  1   force =    -5.25698892    6.86268958   -1.77944848
     atom  104 type  1   force =    -5.25675790    6.86263793   -1.77940986
     atom  105 type  2   force =     5.12454932    4.86073554    1.83935829
     atom  106 type  2   force =     5.12441092    4.86161181    1.83989494
     atom  107 type  2   force =     5.12464063    4.86161898    1.83972154
     atom  108 type  2   force =     5.12443619    4.86158036    1.83972654
     atom  109 type  2   force =     5.12437885    4.86167727    1.84007826
     atom  110 type  2   force =     5.12505261    4.86125121    1.83930640
     atom  111 type  2   force =     5.12450408    4.86164206    1.83973026
     atom  112 type  2   force =     5.12473872    4.86166591    1.83980844
     atom  113 type  3   force =    -1.67787881   -1.91683485    0.71494740
     atom  114 type  3   force =    -1.67847968   -1.91356365    0.71623975
     atom  115 type  3   force =    -1.67841547   -1.91360989    0.71622809
     atom  116 type  3   force =    -1.67846542   -1.91360378    0.71622157
     atom  117 type  3   force =    -1.67850819   -1.91363545    0.71628434
     atom  118 type  3   force =    -1.67843391   -1.91365274    0.71618739
     atom  119 type  3   force =    -1.67849353   -1.91358731    0.71620125
     atom  120 type  3   force =    -1.67843786   -1.91358461    0.71619509
     atom  121 type  1   force =     0.12052269    1.15055705   -2.54603683
     atom  122 type  1   force =     0.12036390    1.15056304   -2.54549938
     atom  123 type  1   force =     0.12062249    1.15096511   -2.54561773
     atom  124 type  1   force =     0.12026309    1.15090571   -2.54611522
     atom  125 type  1   force =     0.12027712    1.15065863   -2.54591876
     atom  126 type  1   force =     0.11970964    1.15014725   -2.54652941
     atom  127 type  1   force =     0.12017747    1.15040130   -2.54595276
     atom  128 type  1   force =     0.12038070    1.15049432   -2.54587421
     atom  129 type  1   force =   -14.27317590   -1.63990169    2.01242726
     atom  130 type  1   force =   -14.27356300   -1.63977850    2.01305871
     atom  131 type  1   force =   -14.27315196   -1.63951619    2.01279476
     atom  132 type  1   force =   -14.27354905   -1.63960231    2.01251507
     atom  133 type  1   force =   -14.27359529   -1.63971029    2.01268089
     atom  134 type  1   force =   -14.27406053   -1.64067858    2.01179859
     atom  135 type  1   force =   -14.27363852   -1.63989364    2.01260016
     atom  136 type  1   force =   -14.27340132   -1.63983119    2.01262661
     atom  137 type  2   force =     2.68737529    1.12169123   -0.87821260
     atom  138 type  2   force =     2.68756304    1.12168445   -0.87786090
     atom  139 type  2   force =     2.68733337    1.12181845   -0.87778812
     atom  140 type  2   force =     2.68766487    1.12182558   -0.87851228
     atom  141 type  2   force =     2.68736420    1.12164270   -0.87819112
     atom  142 type  2   force =     2.68708746    1.12151389   -0.87826450
     atom  143 type  2   force =     2.68717669    1.12126385   -0.87832517
     atom  144 type  2   force =     2.68727289    1.12158979   -0.87808503
     atom  145 type  2   force =     5.25579349    0.26035882   -0.96593666
     atom  146 type  2   force =     5.25580427    0.26035511   -0.96541806
     atom  147 type  2   force =     5.25581243    0.26049018   -0.96547276
     atom  148 type  2   force =     5.25578315    0.26048259   -0.96601697
     atom  149 type  2   force =     5.25566936    0.26030763   -0.96583026
     atom  150 type  2   force =     5.25534005    0.26002823   -0.96602388
     atom  151 type  2   force =     5.25549649    0.26006598   -0.96593279
     atom  152 type  2   force =     5.25567224    0.26025959   -0.96579705
     atom  153 type  2   force =     3.27862699    5.22867423    2.50208280
     atom  154 type  2   force =     3.27843017    5.22860754    2.50205484
     atom  155 type  2   force =     3.27827353    5.22793085    2.50177091
     atom  156 type  2   force =     3.27848426    5.22868414    2.50218045
     atom  157 type  2   force =     3.27856116    5.22875782    2.50204731
     atom  158 type  2   force =     3.27878602    5.22878450    2.50225367
     atom  159 type  2   force =     3.27846655    5.22876167    2.50253884
     atom  160 type  2   force =     3.27891062    5.22863780    2.50181801
     atom  161 type  3   force =     0.74073827    2.14439230    1.26071180
     atom  162 type  3   force =     0.74069895    2.14437939    1.26070040
     atom  163 type  3   force =     0.74054283    2.14415201    1.26059895
     atom  164 type  3   force =     0.74070988    2.14440944    1.26072004
     atom  165 type  3   force =     0.74071770    2.14443054    1.26068558
     atom  166 type  3   force =     0.74076852    2.14443551    1.26073809
     atom  167 type  3   force =     0.74070147    2.14439455    1.26083414
     atom  168 type  3   force =     0.74077369    2.14438913    1.26066907
     atom  169 type  2   force =     6.17638882    1.54800513    0.63313975
     atom  170 type  2   force =     6.17613578    1.54838585    0.63354865
     atom  171 type  2   force =     6.17638911    1.54848046    0.63329269
     atom  172 type  2   force =     6.17616815    1.54844577    0.63331117
     atom  173 type  2   force =     6.17617255    1.54858027    0.63357377
     atom  174 type  2   force =     6.17760665    1.54745704    0.63221061
     atom  175 type  2   force =     6.17627435    1.54845431    0.63335579
     atom  176 type  2   force =     6.17650515    1.54845425    0.63342225
     atom  177 type  3   force =     1.97456595   -0.04610609    0.18327124
     atom  178 type  3   force =     1.97447847   -0.04603750    0.18338426
     atom  179 type  3   force =     1.97455357   -0.04600529    0.18330541
     atom  180 type  3   force =     1.97449768   -0.04601229    0.18330895
     atom  181 type  3   force =     1.97449414   -0.04599145    0.18335781
     atom  182 type  3   force =     1.97478076   -0.04664143    0.18292140
     atom  183 type  3   force =     1.97451458   -0.04602278    0.18332170
     atom  184 type  3   force =     1.97456667   -0.04602250    0.18332707
     atom  185 type  1   force =     0.87376175   -0.57378644    1.98623592
     atom  186 type  1   force =     0.87365483   -0.57376307    1.98712095
     atom  187 type  1   force =     0.87375674   -0.57389495    1.98686845
     atom  188 type  1   force =     0.87367021   -0.57390345    1.98638007
     atom  189 type  1   force =     0.87353369   -0.57403739    1.98654575
     atom  190 type  1   force =     0.87324146   -0.57444665    1.98634029
     atom  191 type  1   force =     0.87328309   -0.57420119    1.98631781
     atom  192 type  1   force =     0.87356747   -0.57399173    1.98648721
     atom  193 type  1   force =   -14.19185632    5.31469916    0.05282474
     atom  194 type  1   force =   -14.19236245    5.31481250    0.05372891
     atom  195 type  1   force =   -14.19199566    5.31480185    0.05343548
     atom  196 type  1   force =   -14.19226686    5.31477357    0.05311284
     atom  197 type  1   force =   -14.19237338    5.31466483    0.05327635
     atom  198 type  1   force =   -14.19260876    5.31392397    0.05284406
     atom  199 type  1   force =   -14.19248205    5.31456366    0.05310921
     atom  200 type  1   force =   -14.19221938    5.31466926    0.05315977
     atom  201 type  2   force =     0.21537779   -2.77182407   -3.53160360
     atom  202 type  2   force =     0.21559509   -2.77188190   -3.53133100
     atom  203 type  2   force =     0.21533430   -2.77162892   -3.53136231
     atom  204 type  2   force =     0.21598373   -2.77125250   -3.53241243
     atom  205 type  2   force =     0.21539382   -2.77181124   -3.53165225
     atom  206 type  2   force =     0.21506276   -2.77189529   -3.53170029
     atom  207 type  2   force =     0.21531590   -2.77211021   -3.53170528
     atom  208 type  2   force =     0.21526351   -2.77193751   -3.53146348
     atom  209 type  3   force =    -0.26883225   -1.65183342   -1.78766290
     atom  210 type  3   force =    -0.26878897   -1.65186109   -1.78758368
     atom  211 type  3   force =    -0.26883475   -1.65178024   -1.78762484
     atom  212 type  3   force =    -0.26881042   -1.65161691   -1.78787027
     atom  213 type  3   force =    -0.26883074   -1.65181947   -1.78767596
     atom  214 type  3   force =    -0.26894966   -1.65184188   -1.78770104
     atom  215 type  3   force =    -0.26884460   -1.65187721   -1.78767827
     atom  216 type  3   force =    -0.26885502   -1.65186272   -1.78762617
     atom  217 type  1   force =     5.25691136   -6.86274538   -1.77947412
     atom  218 type  1   force =     5.25720477   -6.86279386   -1.77931166
     atom  219 type  1   force =     5.25682211   -6.86251909   -1.77925590
     atom  220 type  1   force =     5.25970421   -6.86247761   -1.78184768
     atom  221 type  1   force =     5.25698697   -6.86270983   -1.77958438
     atom  222 type  1   force =     5.25666494   -6.86275455   -1.77957304
     atom  223 type  1   force =     5.25694828   -6.86311167   -1.77964499
     atom  224 type  1   force =     5.25673201   -6.86289129   -1.77926367
     atom  225 type  2   force =    -5.09466550   -4.88041224    1.81801313
     atom  226 type  2   force =    -5.12465466   -4.86146201    1.83984311
     atom  227 type  2   force =    -5.12439541   -4.86169265    1.83982590
     atom  228 type  2   force =    -5.12459824   -4.86164883    1.83978341
     atom  229 type  2   force =    -5.12476629   -4.86180137    1.83999250
     atom  230 type  2   force =    -5.12451687   -4.86183163    1.83966769
     atom  231 type  2   force =    -5.12475087   -4.86158709    1.83968699
     atom  232 type  2   force =    -5.12452037   -4.86158273    1.83965107
     atom  233 type  3   force =     1.67851734    1.91321956    0.71604551
     atom  234 type  3   force =     1.67841641    1.91360694    0.71625419
     atom  235 type  3   force =     1.67848375    1.91359543    0.71621454
     atom  236 type  3   force =     1.67843195    1.91358984    0.71621383
     atom  237 type  3   force =     1.67839995    1.91359194    0.71629014
     atom  238 type  3   force =     1.67852204    1.91349509    0.71613683
     atom  239 type  3   force =     1.67843015    1.91360002    0.71620858
     atom  240 type  3   force =     1.67848553    1.91360691    0.71621323
     atom  241 type  1   force =    -1.15051463    0.12019772    2.54596923
     atom  242 type  1   force =    -1.15075762    0.12022681    2.54616877
     atom  243 type  1   force =    -1.15035508    0.12062250    2.54553169
     atom  244 type  1   force =    -1.15094983    0.12053980    2.54601099
     atom  245 type  1   force =    -1.15076616    0.12049822    2.54600261
     atom  246 type  1   force =    -1.15012638    0.12093144    2.54494443
     atom  247 type  1   force =    -1.15072472    0.12026525    2.54611240
     atom  248 type  1   force =    -1.15041719    0.12008006    2.54606827
     atom  249 type  1   force =     1.63981291  -14.27360674   -2.01259674
     atom  250 type  1   force =     1.63954289  -14.27362494   -2.01239112
     atom  251 type  1   force =     1.63984237  -14.27342934   -2.01292662
     atom  252 type  1   force =     1.63939849  -14.27336994   -2.01251329
     atom  253 type  1   force =     1.63964173  -14.27331582   -2.01253301
     atom  254 type  1   force =     1.64132046  -14.27246236   -2.01303158
     atom  255 type  1   force =     1.63967697  -14.27349957   -2.01243199
     atom  256 type  1   force =     1.64009885  -14.27376961   -2.01244237
     atom  257 type  2   force =    -1.12146166    2.68712033    0.87826749
     atom  258 type  2   force =    -1.12173080    2.68729335    0.87831851
     atom  259 type  2   force =    -1.12109404    2.68789177    0.87756067
     atom  260 type  2   force =    -1.12176588    2.68747230    0.87821615
     atom  261 type  2   force =    -1.12191408    2.68748283    0.87823983
     atom  262 type  2   force =    -1.12148069    2.68750009    0.87779185
     atom  263 type  2   force =    -1.12177387    2.68724727    0.87833832
     atom  264 type  2   force =    -1.12157544    2.68723314    0.87819473
     atom  265 type  2   force =    -0.26021356    5.25552540    0.96589762
     atom  266 type  2   force =    -0.26043372    5.25559445    0.96599651
     atom  267 type  2   force =    -0.26014725    5.25589340    0.96528726
     atom  268 type  2   force =    -0.26048371    5.25580867    0.96588946
     atom  269 type  2   force =    -0.26050277    5.25585679    0.96589200
     atom  270 type  2   force =    -0.25985573    5.25618028    0.96538893
     atom  271 type  2   force =    -0.26040322    5.25562428    0.96601288
     atom  272 type  2   force =    -0.26018638    5.25554823    0.96588585
     atom  273 type  2   force =    -5.22844883    3.27816078   -2.50188709
     atom  274 type  2   force =    -5.22877187    3.27853534   -2.50196112
     atom  275 type  2   force =    -5.22834912    3.27891510   -2.50248898
     atom  276 type  2   force =    -5.22877573    3.27866901   -2.50205400
     atom  277 type  2   force =    -5.22912442    3.27873050   -2.50193675
     atom  278 type  2   force =    -5.22852943    3.27870195   -2.50240104
     atom  279 type  2   force =    -5.22880024    3.27850065   -2.50195158
     atom  280 type  2   force =    -5.22864195    3.27850452   -2.50207606
     atom  281 type  3   force =    -2.14437210    0.74060807   -1.26065330
     atom  282 type  3   force =    -2.14442533    0.74070723   -1.26067570
     atom  283 type  3   force =    -2.14438199    0.74077236   -1.26078089
     atom  284 type  3   force =    -2.14442413    0.74074356   -1.26070255
     atom  285 type  3   force =    -2.14454046    0.74079612   -1.26064193
     atom  286 type  3   force =    -2.14434259    0.74080157   -1.26078215
     atom  287 type  3   force =    -2.14441820    0.74071256   -1.26067507
     atom  288 type  3   force =    -2.14438905    0.74071294   -1.26069800
     atom  289 type  2   force =    -1.54791907    6.17607211   -0.63315402
     atom  290 type  2   force =    -1.54849999    6.17633686   -0.63323075
     atom  291 type  2   force =    -1.54694869    6.17640461   -0.63294473
     atom  292 type  2   force =    -1.54851124    6.17640495   -0.63326901
     atom  293 type  2   force =    -1.54873589    6.17630575   -0.63324932
     atom  294 type  2   force =    -1.54842726    6.17626783   -0.63348649
     atom  295 type  2   force =    -1.54869477    6.17619883   -0.63319019
     atom  296 type  2   force =    -1.54842531    6.17622208   -0.63338688
     atom  297 type  3   force =     0.04619116    1.97450280   -0.18327433
     atom  298 type  3   force =     0.04600684    1.97454026   -0.18329404
     atom  299 type  3   force =     0.04632117    1.97442900   -0.18318751
     atom  300 type  3   force =     0.04600515    1.97454445   -0.18329309
     atom  301 type  3   force =     0.04595755    1.97451563   -0.18329199
     atom  302 type  3   force =     0.04602315    1.97451303   -0.18333746
     atom  303 type  3   force =     0.04594252    1.97450612   -0.18327755
     atom  304 type  3   force =     0.04602534    1.97450701   -0.18333980
     atom  305 type  1   force =     0.57403784    0.87339100   -1.98640726
     atom  306 type  1   force =     0.57376772    0.87338513   -1.98632093
     atom  307 type  1   force =     0.57387601    0.87354905   -1.98703407
     atom  308 type  1   force =     0.57379613    0.87366905   -1.98643027
     atom  309 type  1   force =     0.57377058    0.87386312   -1.98645457
     atom  310 type  1   force =     0.57487105    0.87463123   -1.98617946
     atom  311 type  1   force =     0.57391780    0.87353708   -1.98623603
     atom  312 type  1   force =     0.57417177    0.87344704   -1.98645466
     atom  313 type  1   force =    -5.31464711  -14.19239989   -0.05315161
     atom  314 type  1   force =    -5.31497249  -14.19247444   -0.05298520
     atom  315 type  1   force =    -5.31472393  -14.19232928   -0.05352347
     atom  316 type  1   force =    -5.31492776  -14.19220154   -0.05310079
     atom  317 type  1   force =    -5.31480815  -14.19206503   -0.05313089
     atom  318 type  1   force =    -5.31299493  -14.19118033   -0.05214806
     atom  319 type  1   force =    -5.31474787  -14.19226733   -0.05296208
     atom  320 type  1   force =    -5.31437063  -14.19243204   -0.05313001
     atom  321 type  2   force =     2.77204091    0.21522370    3.53167425
     atom  322 type  2   force =     2.77177840    0.21534291    3.53174320
     atom  323 type  2   force =     2.77366025    0.21681615    3.53169753
     atom  324 type  2   force =     2.77171877    0.21553134    3.53165719
     atom  325 type  2   force =     2.77162424    0.21543936    3.53163950
     atom  326 type  2   force =     2.77186409    0.21539669    3.53133897
     atom  327 type  2   force =     2.77164381    0.21521368    3.53178191
     atom  328 type  2   force =     2.77188065    0.21523037    3.53161589
     atom  329 type  3   force =     1.65186678   -0.26885927    1.78767800
     atom  330 type  3   force =     1.65181923   -0.26884414    1.78769695
     atom  331 type  3   force =     1.65225737   -0.26828422    1.78772265
     atom  332 type  3   force =     1.65179157   -0.26878021    1.78768186
     atom  333 type  3   force =     1.65178979   -0.26881979    1.78766588
     atom  334 type  3   force =     1.65183274   -0.26882409    1.78760373
     atom  335 type  3   force =     1.65178494   -0.26887985    1.78771019
     atom  336 type  3   force =     1.65184216   -0.26888266    1.78767099
     atom  337 type  1   force =     6.86312081    5.25677797    1.77958800
     atom  338 type  1   force =     6.86269413    5.25693654    1.77965564
     atom  339 type  1   force =     6.86603452    5.25767814    1.78177858
     atom  340 type  1   force =     6.86265362    5.25709563    1.77957096
     atom  341 type  1   force =     6.86248271    5.25696563    1.77955787
     atom  342 type  1   force =     6.86274873    5.25689778    1.77929201
     atom  343 type  1   force =     6.86241626    5.25670939    1.77973783
     atom  344 type  1   force =     6.86278356    5.25679152    1.77947755
     atom  345 type  2   force =     4.86082216   -5.12534361   -1.83844891
     atom  346 type  2   force =     4.86164438   -5.12454105   -1.83975934
     atom  347 type  2   force =     4.86164421   -5.12454440   -1.83975671
     atom  348 type  2   force =     4.86162317   -5.12456469   -1.83970408
     atom  349 type  2   force =     4.86079647   -5.12540851   -1.83877121
     atom  350 type  2   force =     4.86163419   -5.12456366   -1.83974624
     atom  351 type  2   force =     4.86162465   -5.12455102   -1.83974871
     atom  352 type  2   force =     4.86160858   -5.12457739   -1.83972768
     atom  353 type  3   force =    -1.91344370    1.67822503   -0.71600238
     atom  354 type  3   force =    -1.91360716    1.67845772   -0.71619168
     atom  355 type  3   force =    -1.91349964    1.67848724   -0.71624559
     atom  356 type  3   force =    -1.91360548    1.67846660   -0.71619570
     atom  357 type  3   force =    -1.91373145    1.67843242   -0.71614838
     atom  358 type  3   force =    -1.91357886    1.67844625   -0.71624615
     atom  359 type  3   force =    -1.91362686    1.67843987   -0.71619074
     atom  360 type  3   force =    -1.91359114    1.67843730   -0.71622009
     atom  361 type  1   force =     1.15070599   -0.12042923    2.54601346
     atom  362 type  1   force =     1.15065118   -0.12043048    2.54611939
     atom  363 type  1   force =     1.15080268   -0.11933731    2.54618036
     atom  364 type  1   force =     1.15004758   -0.11949152    2.54618833
     atom  365 type  1   force =     1.15053265   -0.12031743    2.54591192
     atom  366 type  1   force =     1.15049346   -0.12031494    2.54568977
     atom  367 type  1   force =     1.15049906   -0.12062505    2.54607820
     atom  368 type  1   force =     1.15060050   -0.12073649    2.54612825
     atom  369 type  1   force =    -1.63999685   14.27495033   -2.01143264
     atom  370 type  1   force =    -1.63989211   14.27415526   -2.01257618
     atom  371 type  1   force =    -1.63965778   14.27340226   -2.01252644
     atom  372 type  1   force =    -1.63970005   14.27341331   -2.01243752
     atom  373 type  1   force =    -1.63993011   14.27305057   -2.01241606
     atom  374 type  1   force =    -1.63978441   14.27320574   -2.01247849
     atom  375 type  1   force =    -1.63983961   14.27350029   -2.01265511
     atom  376 type  1   force =    -1.63986468   14.27345927   -2.01276209
     atom  377 type  2   force =     1.12176801   -2.68712673    0.87803906
     atom  378 type  2   force =     1.12063987   -2.68700960    0.87929051
     atom  379 type  2   force =     1.12169843   -2.68738770    0.87824176
     atom  380 type  2   force =     1.12166762   -2.68739324    0.87823515
     atom  381 type  2   force =     1.12161151   -2.68744987    0.87824835
     atom  382 type  2   force =     1.12148397   -2.68805831    0.87852916
     atom  383 type  2   force =     1.12159497   -2.68735222    0.87815221
     atom  384 type  2   force =     1.12164584   -2.68729923    0.87807659
     atom  385 type  2   force =     0.26040193   -5.25508574    0.96578908
     atom  386 type  2   force =     0.25967310   -5.25486391    0.96655997
     atom  387 type  2   force =     0.26037697   -5.25574515    0.96593027
     atom  388 type  2   force =     0.26035238   -5.25574986    0.96593200
     atom  389 type  2   force =     0.26025616   -5.25587550    0.96594681
     atom  390 type  2   force =     0.26023414   -5.25612303    0.96602218
     atom  391 type  2   force =     0.26024099   -5.25568842    0.96579018
     atom  392 type  2   force =     0.26026555   -5.25565675    0.96573056
     atom  393 type  2   force =     5.22873692   -3.27845862   -2.50213480
     atom  394 type  2   force =     5.22757451   -3.27879075   -2.49993685
     atom  395 type  2   force =     5.22872052   -3.27859845   -2.50201202
     atom  396 type  2   force =     5.22875927   -3.27860109   -2.50207061
     atom  397 type  2   force =     5.22869413   -3.27866009   -2.50206281
     atom  398 type  2   force =     5.22826625   -3.27925462   -2.50163010
     atom  399 type  2   force =     5.22866161   -3.27860576   -2.50212219
     atom  400 type  2   force =     5.22866138   -3.27856161   -2.50212322
     atom  401 type  3   force =     2.14440236   -0.74068819   -1.26070719
     atom  402 type  3   force =     2.14427309   -0.74069889   -1.25982598
     atom  403 type  3   force =     2.14440719   -0.74073048   -1.26067953
     atom  404 type  3   force =     2.14443637   -0.74073507   -1.26070244
     atom  405 type  3   force =     2.14440740   -0.74075500   -1.26070271
     atom  406 type  3   force =     2.14431138   -0.74083729   -1.26063105
     atom  407 type  3   force =     2.14439530   -0.74073688   -1.26072648
     atom  408 type  3   force =     2.14438321   -0.74072465   -1.26070825
     atom  409 type  2   force =     1.54779689   -6.17677077   -0.63272781
     atom  410 type  2   force =     1.54849967   -6.17635631   -0.63338604
     atom  411 type  2   force =     1.54840483   -6.17631737   -0.63333188
     atom  412 type  2   force =     1.54846045   -6.17634189   -0.63335269
     atom  413 type  2   force =     1.54782284   -6.17779673   -0.63128589
     atom  414 type  2   force =     1.54844787   -6.17627330   -0.63331709
     atom  415 type  2   force =     1.54855965   -6.17629791   -0.63336700
     atom  416 type  2   force =     1.54844575   -6.17631632   -0.63328581
     atom  417 type  3   force =    -0.04613041   -1.97463914   -0.18321763
     atom  418 type  3   force =    -0.04601139   -1.97455047   -0.18331925
     atom  419 type  3   force =    -0.04603765   -1.97452595   -0.18331754
     atom  420 type  3   force =    -0.04602134   -1.97453565   -0.18332976
     atom  421 type  3   force =    -0.04620734   -1.97477269   -0.18240548
     atom  422 type  3   force =    -0.04601953   -1.97450102   -0.18331354
     atom  423 type  3   force =    -0.04598494   -1.97453215   -0.18331501
     atom  424 type  3   force =    -0.04601719   -1.97453004   -0.18329506
     atom  425 type  1   force =    -0.57419429   -0.87255331   -1.98643997
     atom  426 type  1   force =    -0.57416592   -0.87252688   -1.98580618
     atom  427 type  1   force =    -0.57390111   -0.87364930   -1.98631845
     atom  428 type  1   force =    -0.57390507   -0.87364780   -1.98640089
     atom  429 type  1   force =    -0.57403666   -0.87387269   -1.98631962
     atom  430 type  1   force =    -0.57410060   -0.87398271   -1.98634145
     atom  431 type  1   force =    -0.57411371   -0.87358454   -1.98663461
     atom  432 type  1   force =    -0.57404076   -0.87355420   -1.98654855
     atom  433 type  1   force =     5.31386368   14.19374260   -0.05234292
     atom  434 type  1   force =     5.31468369   14.19301841   -0.05305838
     atom  435 type  1   force =     5.31476394   14.19218647   -0.05304501
     atom  436 type  1   force =     5.31475474   14.19219753   -0.05306759
     atom  437 type  1   force =     5.31458411   14.19182222   -0.05294426
     atom  438 type  1   force =     5.31462867   14.19199161   -0.05305851
     atom  439 type  1   force =     5.31458602   14.19229968   -0.05331197
     atom  440 type  1   force =     5.31462037   14.19227791   -0.05324967
     atom  441 type  2   force =    -2.77167903   -0.21530323    3.53139660
     atom  442 type  2   force =    -2.77255270   -0.21531138    3.53214463
     atom  443 type  2   force =    -2.77177918   -0.21541844    3.53163131
     atom  444 type  2   force =    -2.77187563   -0.21542014    3.53167586
     atom  445 type  2   force =    -2.77188034   -0.21541771    3.53169935
     atom  446 type  2   force =    -2.77173852   -0.21635549    3.53211742
     atom  447 type  2   force =    -2.77187804   -0.21535118    3.53162462
     atom  448 type  2   force =    -2.77170581   -0.21527435    3.53147206
     atom  449 type  3   force =    -1.65181305    0.26881952    1.78766995
     atom  450 type  3   force =    -1.65184728    0.26881841    1.78768733
     atom  451 type  3   force =    -1.65177684    0.26885203    1.78757587
     atom  452 type  3   force =    -1.65195541    0.26886732    1.78774194
     atom  453 type  3   force =    -1.65184560    0.26884499    1.78766909
     atom  454 type  3   force =    -1.65177770    0.26887346    1.78761826
     atom  455 type  3   force =    -1.65184721    0.26882107    1.78769678
     atom  456 type  3   force =    -1.65176804    0.26865550    1.78773033
     atom  457 type  1   force =    -6.86270654   -5.25698897    1.77948603
     atom  458 type  1   force =    -6.86284374   -5.25697519    1.77956431
     atom  459 type  1   force =    -6.86263750   -5.25698422    1.77935236
     atom  460 type  1   force =    -6.86351851   -5.25715712    1.78005818
     atom  461 type  1   force =    -6.86277641   -5.25691158    1.77956824
     atom  462 type  1   force =    -6.86248748   -5.25685575    1.77941248
     atom  463 type  1   force =    -6.86278585   -5.25691505    1.77959198
     atom  464 type  1   force =    -6.86238570   -5.25887078    1.78114837
     atom  465 type  2   force =    -4.86111380    5.12401181   -1.83936043
     atom  466 type  2   force =    -4.86167238    5.12455946   -1.83963166
     atom  467 type  2   force =    -4.86096660    5.12483108   -1.83993082
     atom  468 type  2   force =    -4.86167279    5.12463591   -1.83968076
     atom  469 type  2   force =    -4.86205139    5.12457196   -1.83957759
     atom  470 type  2   force =    -4.86154370    5.12454454   -1.83993143
     atom  471 type  2   force =    -4.86176720    5.12447597   -1.83962041
     atom  472 type  2   force =    -4.86158699    5.12448069   -1.83976100
     atom  473 type  3   force =     1.91350239   -1.67872653   -0.71591587
     atom  474 type  3   force =     1.91359386   -1.67845376   -0.71620590
     atom  475 type  3   force =     1.91361213   -1.67844032   -0.71622893
     atom  476 type  3   force =     1.91359204   -1.67845024   -0.71620354
     atom  477 type  3   force =     1.91335490   -1.67856277   -0.71600496
     atom  478 type  3   force =     1.91360847   -1.67844867   -0.71622719
     atom  479 type  3   force =     1.91359003   -1.67845724   -0.71620501
     atom  480 type  3   force =     1.91359786   -1.67846088   -0.71620975
     atom  481 type  4   force =     0.00036883   -0.00042411   -0.00000662
     atom  482 type  4   force =    -0.00010785   -0.00047040    0.00110180
     atom  483 type  4   force =     0.00104957    0.00191004    0.00015034
     atom  484 type  4   force =    -0.00202943    0.00186325   -0.00022281
     atom  485 type  4   force =    -0.00033400    0.00033008    0.00006503
     atom  486 type  4   force =    -0.00169376    0.00021572   -0.00322064
     atom  487 type  4   force =    -0.00045019   -0.00070161    0.00030838
     atom  488 type  4   force =     0.00027867   -0.00115137    0.00071337
     atom  489 type  4   force =    -0.00006267   -0.00079740    0.00050213
     atom  490 type  4   force =    -0.00075391   -0.00126753    0.00019562
     atom  491 type  4   force =    -0.00139370   -0.00046788   -0.00148962
     atom  492 type  4   force =    -0.00028557    0.00016060   -0.00002207
     atom  493 type  4   force =    -0.00074705    0.00226534   -0.00076220
     atom  494 type  4   force =     0.00079878    0.00256509    0.00227047
     atom  495 type  4   force =     0.00021582   -0.00022830    0.00118011
     atom  496 type  4   force =     0.00040809   -0.00021206   -0.00003871
     The local contribution  to forces
     atom    1 type  1   force =    -0.30104917    2.09138193    3.09820982
     atom    2 type  1   force =    -0.30103196    2.09146944    3.09793945
     atom    3 type  1   force =    -0.30110246    2.09108535    3.09821800
     atom    4 type  1   force =    -0.30004830    2.09089424    3.09852854
     atom    5 type  1   force =    -0.30102711    2.09114776    3.09818374
     atom    6 type  1   force =    -0.30017077    2.09092797    3.09884221
     atom    7 type  1   force =    -0.30100420    2.09139470    3.09818584
     atom    8 type  1   force =    -0.30109409    2.09157544    3.09789952
     atom    9 type  1   force =   -12.38543246   -0.72434611   -1.18134996
     atom   10 type  1   force =   -12.38534944   -0.72442126   -1.18116779
     atom   11 type  1   force =   -12.38286710   -0.72519970   -1.18050896
     atom   12 type  1   force =   -12.38537008   -0.72469807   -1.18117612
     atom   13 type  1   force =   -12.38488146   -0.72472946   -1.18077034
     atom   14 type  1   force =   -12.38539907   -0.72462494   -1.18113729
     atom   15 type  1   force =   -12.38530231   -0.72418146   -1.18153869
     atom   16 type  1   force =   -12.38536439   -0.72437322   -1.18113903
     atom   17 type  2   force =     2.48472945    1.16491858    0.86985592
     atom   18 type  2   force =     2.48459032    1.16488031    0.87013681
     atom   19 type  2   force =     2.48488842    1.16465243    0.87021839
     atom   20 type  2   force =     2.48456934    1.16465855    0.87016528
     atom   21 type  2   force =     2.48761800    1.16050494    0.87351047
     atom   22 type  2   force =     2.48464803    1.16454689    0.87001734
     atom   23 type  2   force =     2.48446815    1.16484017    0.86993860
     atom   24 type  2   force =     2.48462728    1.16475849    0.87006550
     atom   25 type  2   force =     5.07235332    0.27019510    0.95400145
     atom   26 type  2   force =     5.07231503    0.27013921    0.95423148
     atom   27 type  2   force =     5.07283910    0.26990034    0.95445229
     atom   28 type  2   force =     5.07228132    0.26992489    0.95424965
     atom   29 type  2   force =     5.07312785    0.26905595    0.95510092
     atom   30 type  2   force =     5.07230501    0.26984481    0.95415454
     atom   31 type  2   force =     5.07221922    0.27018291    0.95397071
     atom   32 type  2   force =     5.07231364    0.27006474    0.95419988
     atom   33 type  2   force =     3.24205601    5.17363193   -2.47553649
     atom   34 type  2   force =     3.24258868    5.17645930   -2.48087839
     atom   35 type  2   force =     3.24232939    5.17672564   -2.48089009
     atom   36 type  2   force =     3.24253774    5.17666202   -2.48078136
     atom   37 type  2   force =     3.24267681    5.17680889   -2.48096182
     atom   38 type  2   force =     3.24249977    5.17685257   -2.48067790
     atom   39 type  2   force =     3.24275287    5.17661528   -2.48067591
     atom   40 type  2   force =     3.24248152    5.17660582   -2.48066727
     atom   41 type  3   force =     0.76470949    2.07339010   -1.25201967
     atom   42 type  3   force =     0.76526310    2.07345548   -1.25227213
     atom   43 type  3   force =     0.76518782    2.07351382   -1.25226980
     atom   44 type  3   force =     0.76524810    2.07350108   -1.25222794
     atom   45 type  3   force =     0.76528229    2.07353075   -1.25226768
     atom   46 type  3   force =     0.76524593    2.07356930   -1.25219623
     atom   47 type  3   force =     0.76530600    2.07350519   -1.25220701
     atom   48 type  3   force =     0.76523572    2.07349502   -1.25220703
     atom   49 type  2   force =     5.92771516    1.37889238   -0.66416986
     atom   50 type  2   force =     5.98002251    1.44579022   -0.61197351
     atom   51 type  2   force =     5.97978366    1.44603120   -0.61197267
     atom   52 type  2   force =     5.97997392    1.44598121   -0.61194012
     atom   53 type  2   force =     5.98013613    1.44615178   -0.61214973
     atom   54 type  2   force =     5.97989486    1.44613518   -0.61183550
     atom   55 type  2   force =     5.98012978    1.44590662   -0.61183488
     atom   56 type  2   force =     5.97989771    1.44590948   -0.61179553
     atom   57 type  3   force =     1.90535379   -0.03847167   -0.16956243
     atom   58 type  3   force =     1.90010986   -0.02518095   -0.18236319
     atom   59 type  3   force =     1.90005123   -0.02511807   -0.18236597
     atom   60 type  3   force =     1.90009859   -0.02513206   -0.18235378
     atom   61 type  3   force =     1.90013820   -0.02508989   -0.18240591
     atom   62 type  3   force =     1.90008163   -0.02509353   -0.18232901
     atom   63 type  3   force =     1.90014210   -0.02515121   -0.18232608
     atom   64 type  3   force =     1.90008100   -0.02515098   -0.18231960
     atom   65 type  1   force =     0.41632087   -1.47113870   -2.59206417
     atom   66 type  1   force =     0.41637753   -1.47118343   -2.59187388
     atom   67 type  1   force =     0.41712748   -1.47134317   -2.59137992
     atom   68 type  1   force =     0.41633297   -1.47143546   -2.59185162
     atom   69 type  1   force =     0.41677432   -1.47204806   -2.59144745
     atom   70 type  1   force =     0.41622570   -1.47164068   -2.59199636
     atom   71 type  1   force =     0.41625152   -1.47116940   -2.59223899
     atom   72 type  1   force =     0.41627321   -1.47128565   -2.59185930
     atom   73 type  1   force =   -12.39104870    4.13275558   -0.55465472
     atom   74 type  1   force =   -12.39092713    4.13269817   -0.55451040
     atom   75 type  1   force =   -12.38895001    4.13279753   -0.55339677
     atom   76 type  1   force =   -12.39094979    4.13246044   -0.55451324
     atom   77 type  1   force =   -12.39065575    4.13228217   -0.55427112
     atom   78 type  1   force =   -12.39108218    4.13238573   -0.55452280
     atom   79 type  1   force =   -12.39093781    4.13282294   -0.55493271
     atom   80 type  1   force =   -12.39103725    4.13268758   -0.55446114
     atom   81 type  2   force =     0.33945398   -2.77009375    3.52043428
     atom   82 type  2   force =     0.33924536   -2.77016274    3.52079291
     atom   83 type  2   force =     0.33950729   -2.77038833    3.52084115
     atom   84 type  2   force =     0.33924089   -2.77037950    3.52080531
     atom   85 type  2   force =     0.34753411   -2.76805517    3.52561012
     atom   86 type  2   force =     0.33935776   -2.77044517    3.52068655
     atom   87 type  2   force =     0.33918033   -2.77020795    3.52064634
     atom   88 type  2   force =     0.33933622   -2.77025715    3.52070805
     atom   89 type  3   force =    -0.22492829   -1.59171360    1.77779967
     atom   90 type  3   force =    -0.22487902   -1.59169040    1.77768805
     atom   91 type  3   force =    -0.22493192   -1.59176908    1.77778928
     atom   92 type  3   force =    -0.22486789   -1.59177550    1.77781704
     atom   93 type  3   force =    -0.22489900   -1.59176844    1.77777687
     atom   94 type  3   force =    -0.22400271   -1.59122290    1.77788464
     atom   95 type  3   force =    -0.22489920   -1.59172538    1.77778135
     atom   96 type  3   force =    -0.22493164   -1.59171898    1.77776565
     atom   97 type  1   force =     4.59005125   -5.13697074    1.62608777
     atom   98 type  1   force =     4.59037433   -5.13695142    1.62565111
     atom   99 type  1   force =     4.59005839   -5.13725900    1.62611163
     atom  100 type  1   force =     4.59034304   -5.13724982    1.62608184
     atom  101 type  1   force =     4.59022836   -5.13737488    1.62590998
     atom  102 type  1   force =     4.63179126   -5.07535304    1.64324876
     atom  103 type  1   force =     4.59017389   -5.13715315    1.62595441
     atom  104 type  1   force =     4.58994533   -5.13710095    1.62591708
     atom  105 type  2   force =    -5.09705941   -4.89799466   -1.83823145
     atom  106 type  2   force =    -5.09697728   -4.89893925   -1.83877551
     atom  107 type  2   force =    -5.09720554   -4.89894409   -1.83860363
     atom  108 type  2   force =    -5.09700443   -4.89890416   -1.83860890
     atom  109 type  2   force =    -5.09694606   -4.89899953   -1.83895894
     atom  110 type  2   force =    -5.09761794   -4.89857583   -1.83819711
     atom  111 type  2   force =    -5.09706565   -4.89896836   -1.83861219
     atom  112 type  2   force =    -5.09730519   -4.89899056   -1.83869023
     atom  113 type  3   force =     1.62742203    1.86195845   -0.70891266
     atom  114 type  3   force =     1.62769967    1.85943369   -0.71021197
     atom  115 type  3   force =     1.62763550    1.85947997   -0.71020023
     atom  116 type  3   force =     1.62768558    1.85947399   -0.71019381
     atom  117 type  3   force =     1.62772797    1.85950596   -0.71025601
     atom  118 type  3   force =     1.62765421    1.85952273   -0.71015986
     atom  119 type  3   force =     1.62771394    1.85945726   -0.71017353
     atom  120 type  3   force =     1.62765791    1.85945474   -0.71016736
     atom  121 type  1   force =     0.30089239   -2.09123591    3.09830971
     atom  122 type  1   force =     0.30103772   -2.09122089    3.09775439
     atom  123 type  1   force =     0.30077857   -2.09161505    3.09786984
     atom  124 type  1   force =     0.30113730   -2.09154200    3.09836526
     atom  125 type  1   force =     0.30112416   -2.09131442    3.09817106
     atom  126 type  1   force =     0.30164807   -2.09070728    3.09876358
     atom  127 type  1   force =     0.30122676   -2.09106016    3.09820950
     atom  128 type  1   force =     0.30102556   -2.09116473    3.09813789
     atom  129 type  1   force =    12.38507353    0.72464442   -1.18096046
     atom  130 type  1   force =    12.38547078    0.72453894   -1.18161654
     atom  131 type  1   force =    12.38506428    0.72428202   -1.18135583
     atom  132 type  1   force =    12.38545642    0.72437021   -1.18107860
     atom  133 type  1   force =    12.38550619    0.72447102   -1.18123898
     atom  134 type  1   force =    12.38584910    0.72540108   -1.18031558
     atom  135 type  1   force =    12.38554614    0.72465688   -1.18115902
     atom  136 type  1   force =    12.38531352    0.72458804   -1.18118297
     atom  137 type  2   force =    -2.48461063   -1.16475945    0.87013293
     atom  138 type  2   force =    -2.48480686   -1.16474722    0.86978163
     atom  139 type  2   force =    -2.48457473   -1.16487911    0.86971038
     atom  140 type  2   force =    -2.48490410   -1.16486896    0.87043483
     atom  141 type  2   force =    -2.48460766   -1.16470777    0.87011223
     atom  142 type  2   force =    -2.48434288   -1.16457105    0.87018457
     atom  143 type  2   force =    -2.48441076   -1.16432403    0.87024646
     atom  144 type  2   force =    -2.48451594   -1.16465585    0.87000826
     atom  145 type  2   force =    -5.07238065   -0.27005150    0.95430713
     atom  146 type  2   force =    -5.07240488   -0.27004230    0.95378408
     atom  147 type  2   force =    -5.07240978   -0.27017537    0.95383871
     atom  148 type  2   force =    -5.07237698   -0.27016844    0.95437703
     atom  149 type  2   force =    -5.07226871   -0.26999533    0.95419686
     atom  150 type  2   force =    -5.07194885   -0.26970196    0.95438107
     atom  151 type  2   force =    -5.07208582   -0.26975555    0.95429976
     atom  152 type  2   force =    -5.07227203   -0.26995107    0.95416629
     atom  153 type  2   force =    -3.24254860   -5.17661357   -2.48074182
     atom  154 type  2   force =    -3.24235556   -5.17654524   -2.48071400
     atom  155 type  2   force =    -3.24217511   -5.17587913   -2.48043136
     atom  156 type  2   force =    -3.24240596   -5.17662568   -2.48083857
     atom  157 type  2   force =    -3.24247606   -5.17670581   -2.48070838
     atom  158 type  2   force =    -3.24270884   -5.17672186   -2.48091382
     atom  159 type  2   force =    -3.24239101   -5.17669131   -2.48119501
     atom  160 type  2   force =    -3.24280253   -5.17657791   -2.48048059
     atom  161 type  3   force =    -0.76525149   -2.07348633   -1.25222878
     atom  162 type  3   force =    -0.76521245   -2.07347357   -1.25221779
     atom  163 type  3   force =    -0.76505436   -2.07324693   -1.25211563
     atom  164 type  3   force =    -0.76522315   -2.07350338   -1.25223706
     atom  165 type  3   force =    -0.76523035   -2.07352550   -1.25220264
     atom  166 type  3   force =    -0.76528179   -2.07352972   -1.25225551
     atom  167 type  3   force =    -0.76521466   -2.07348850   -1.25235025
     atom  168 type  3   force =    -0.76528822   -2.07348302   -1.25218603
     atom  169 type  2   force =    -5.98002338   -1.44547947   -0.61169073
     atom  170 type  2   force =    -5.97975747   -1.44587969   -0.61209894
     atom  171 type  2   force =    -5.98000841   -1.44597327   -0.61184402
     atom  172 type  2   force =    -5.97978882   -1.44593495   -0.61186338
     atom  173 type  2   force =    -5.97979435   -1.44606975   -0.61212522
     atom  174 type  2   force =    -5.98096071   -1.44496520   -0.61075887
     atom  175 type  2   force =    -5.97988918   -1.44595045   -0.61190692
     atom  176 type  2   force =    -5.98012424   -1.44594572   -0.61197302
     atom  177 type  3   force =    -1.90012761    0.02522870   -0.18229758
     atom  178 type  3   force =    -1.90003973    0.02516052   -0.18241026
     atom  179 type  3   force =    -1.90011464    0.02512850   -0.18233165
     atom  180 type  3   force =    -1.90005894    0.02513581   -0.18233532
     atom  181 type  3   force =    -1.90005528    0.02511449   -0.18238408
     atom  182 type  3   force =    -1.90032849    0.02571454   -0.18195147
     atom  183 type  3   force =    -1.90007550    0.02514579   -0.18234789
     atom  184 type  3   force =    -1.90012764    0.02514546   -0.18235303
     atom  185 type  1   force =    -0.41646359    1.47116247   -2.59163812
     atom  186 type  1   force =    -0.41636568    1.47115637   -2.59251994
     atom  187 type  1   force =    -0.41646717    1.47128888   -2.59226282
     atom  188 type  1   force =    -0.41638103    1.47129639   -2.59178287
     atom  189 type  1   force =    -0.41624485    1.47142657   -2.59194182
     atom  190 type  1   force =    -0.41597640    1.47183249   -2.59173579
     atom  191 type  1   force =    -0.41599966    1.47157703   -2.59170744
     atom  192 type  1   force =    -0.41627999    1.47137457   -2.59187752
     atom  193 type  1   force =    12.39065873   -4.13262729   -0.55413401
     atom  194 type  1   force =    12.39110597   -4.13269053   -0.55505695
     atom  195 type  1   force =    12.39073761   -4.13267763   -0.55476386
     atom  196 type  1   force =    12.39100752   -4.13264716   -0.55444267
     atom  197 type  1   force =    12.39111231   -4.13254047   -0.55460565
     atom  198 type  1   force =    12.39132935   -4.13180576   -0.55416643
     atom  199 type  1   force =    12.39122475   -4.13244490   -0.55443570
     atom  200 type  1   force =    12.39096347   -4.13255097   -0.55448607
     atom  201 type  2   force =    -0.33929585    2.77029756    3.52074099
     atom  202 type  2   force =    -0.33951393    2.77036569    3.52046894
     atom  203 type  2   force =    -0.33925251    2.77011377    3.52050005
     atom  204 type  2   force =    -0.33987991    2.76977318    3.52156193
     atom  205 type  2   force =    -0.33931402    2.77029091    3.52078931
     atom  206 type  2   force =    -0.33897690    2.77039174    3.52083757
     atom  207 type  2   force =    -0.33922881    2.77059127    3.52084320
     atom  208 type  2   force =    -0.33918424    2.77041546    3.52060244
     atom  209 type  3   force =     0.22491086    1.59174782    1.77778493
     atom  210 type  3   force =     0.22486735    1.59177594    1.77770592
     atom  211 type  3   force =     0.22491336    1.59169515    1.77774670
     atom  212 type  3   force =     0.22488402    1.59153865    1.77799342
     atom  213 type  3   force =     0.22490916    1.59173431    1.77779789
     atom  214 type  3   force =     0.22502847    1.59175793    1.77782224
     atom  215 type  3   force =     0.22492335    1.59179181    1.77780003
     atom  216 type  3   force =     0.22493351    1.59177737    1.77774867
     atom  217 type  1   force =    -4.59009121    5.13719452    1.62597876
     atom  218 type  1   force =    -4.59038963    5.13725506    1.62581815
     atom  219 type  1   force =    -4.59000752    5.13698246    1.62576091
     atom  220 type  1   force =    -4.59290717    5.13732679    1.62840543
     atom  221 type  1   force =    -4.59017096    5.13716643    1.62608886
     atom  222 type  1   force =    -4.58985036    5.13722639    1.62607852
     atom  223 type  1   force =    -4.59013063    5.13757951    1.62615051
     atom  224 type  1   force =    -4.58991661    5.13734659    1.62577131
     atom  225 type  2   force =     5.06625350    4.91695687   -1.81812455
     atom  226 type  2   force =     5.09722026    4.89878693   -1.83872517
     atom  227 type  2   force =     5.09696422    4.89901883   -1.83870693
     atom  228 type  2   force =     5.09716452    4.89897232   -1.83866520
     atom  229 type  2   force =     5.09732738    4.89912416   -1.83887220
     atom  230 type  2   force =     5.09708140    4.89915247   -1.83855070
     atom  231 type  2   force =     5.09731467    4.89891188   -1.83856934
     atom  232 type  2   force =     5.09708538    4.89890693   -1.83853321
     atom  233 type  3   force =    -1.62774170   -1.85907729   -0.71001532
     atom  234 type  3   force =    -1.62763636   -1.85947703   -0.71022629
     atom  235 type  3   force =    -1.62770361   -1.85946545   -0.71018677
     atom  236 type  3   force =    -1.62765181   -1.85946003   -0.71018607
     atom  237 type  3   force =    -1.62762028   -1.85946191   -0.71026210
     atom  238 type  3   force =    -1.62774121   -1.85936796   -0.71010941
     atom  239 type  3   force =    -1.62765008   -1.85947026   -0.71018077
     atom  240 type  3   force =    -1.62770551   -1.85947702   -0.71018537
     atom  241 type  1   force =     2.09117230    0.30119441   -3.09822270
     atom  242 type  1   force =     2.09140838    0.30116916   -3.09841929
     atom  243 type  1   force =     2.09101526    0.30077633   -3.09779024
     atom  244 type  1   force =     2.09160087    0.30085988   -3.09826102
     atom  245 type  1   force =     2.09142972    0.30090186   -3.09826283
     atom  246 type  1   force =     2.09070432    0.30045566   -3.09718532
     atom  247 type  1   force =     2.09138235    0.30113319   -3.09836695
     atom  248 type  1   force =     2.09108606    0.30131758   -3.09832413
     atom  249 type  1   force =    -0.72457054   12.38550905    1.18115036
     atom  250 type  1   force =    -0.72431277   12.38553412    1.18095551
     atom  251 type  1   force =    -0.72460277   12.38533382    1.18148311
     atom  252 type  1   force =    -0.72416292   12.38528393    1.18107387
     atom  253 type  1   force =    -0.72439883   12.38522010    1.18108850
     atom  254 type  1   force =    -0.72610531   12.38442426    1.18165304
     atom  255 type  1   force =    -0.72443992   12.38540732    1.18099043
     atom  256 type  1   force =    -0.72485354   12.38566724    1.18099707
     atom  257 type  2   force =     1.16452383   -2.48436774   -0.87018804
     atom  258 type  2   force =     1.16479226   -2.48453848   -0.87023945
     atom  259 type  2   force =     1.16416468   -2.48513689   -0.86949790
     atom  260 type  2   force =     1.16482984   -2.48471237   -0.87013705
     atom  261 type  2   force =     1.16497853   -2.48472414   -0.87016310
     atom  262 type  2   force =     1.16453755   -2.48474818   -0.86972137
     atom  263 type  2   force =     1.16483750   -2.48449041   -0.87025842
     atom  264 type  2   force =     1.16464073   -2.48447869   -0.87011507
     atom  265 type  2   force =     0.26990121   -5.07213603   -0.95426516
     atom  266 type  2   force =     0.27011628   -5.07219975   -0.95436016
     atom  267 type  2   force =     0.26983328   -5.07249576   -0.95365627
     atom  268 type  2   force =     0.27016986   -5.07240483   -0.95425506
     atom  269 type  2   force =     0.27019398   -5.07245576   -0.95426059
     atom  270 type  2   force =     0.26952463   -5.07277715   -0.95376777
     atom  271 type  2   force =     0.27008998   -5.07222645   -0.95437890
     atom  272 type  2   force =     0.26987567   -5.07215319   -0.95425403
     atom  273 type  2   force =     5.17638016   -3.24208969    2.48054475
     atom  274 type  2   force =     5.17670537   -3.24246022    2.48061991
     atom  275 type  2   force =     5.17628657   -3.24283226    2.48113835
     atom  276 type  2   force =     5.17671428   -3.24258858    2.48071349
     atom  277 type  2   force =     5.17706338   -3.24264759    2.48059318
     atom  278 type  2   force =     5.17646265   -3.24262941    2.48105402
     atom  279 type  2   force =     5.17673950   -3.24242313    2.48061199
     atom  280 type  2   force =     5.17658308   -3.24242765    2.48073577
     atom  281 type  3   force =     2.07346570   -0.76512100    1.25217018
     atom  282 type  3   force =     2.07351861   -0.76522068    1.25219302
     atom  283 type  3   force =     2.07347576   -0.76528579    1.25229705
     atom  284 type  3   force =     2.07351828   -0.76525657    1.25221969
     atom  285 type  3   force =     2.07363394   -0.76530930    1.25215824
     atom  286 type  3   force =     2.07343792   -0.76531528    1.25229790
     atom  287 type  3   force =     2.07351232   -0.76522566    1.25219255
     atom  288 type  3   force =     2.07348286   -0.76522628    1.25221529
     atom  289 type  2   force =     1.44541133   -5.97969711    0.61171289
     atom  290 type  2   force =     1.44599139   -5.97995989    0.61178198
     atom  291 type  2   force =     1.44447507   -5.98001744    0.61147496
     atom  292 type  2   force =     1.44600347   -5.98002168    0.61181979
     atom  293 type  2   force =     1.44622876   -5.97992054    0.61180037
     atom  294 type  2   force =     1.44591546   -5.97989215    0.61203680
     atom  295 type  2   force =     1.44618624   -5.97982091    0.61174230
     atom  296 type  2   force =     1.44591960   -5.97984537    0.61193902
     atom  297 type  3   force =    -0.02531367   -1.90006267    0.18230179
     atom  298 type  3   force =    -0.02512990   -1.90010131    0.18232013
     atom  299 type  3   force =    -0.02544002   -1.89998824    0.18221332
     atom  300 type  3   force =    -0.02512829   -1.90010547    0.18231922
     atom  301 type  3   force =    -0.02508057   -1.90007656    0.18231826
     atom  302 type  3   force =    -0.02514653   -1.90007427    0.18236356
     atom  303 type  3   force =    -0.02506592   -1.90006720    0.18230404
     atom  304 type  3   force =    -0.02514841   -1.90006827    0.18236621
     atom  305 type  1   force =    -1.47143266   -0.41610736    2.59180536
     atom  306 type  1   force =    -1.47117047   -0.41610062    2.59172283
     atom  307 type  1   force =    -1.47125945   -0.41626659    2.59242230
     atom  308 type  1   force =    -1.47118862   -0.41637965    2.59183026
     atom  309 type  1   force =    -1.47114906   -0.41658187    2.59183902
     atom  310 type  1   force =    -1.47226702   -0.41733355    2.59153194
     atom  311 type  1   force =    -1.47131023   -0.41625119    2.59163580
     atom  312 type  1   force =    -1.47155527   -0.41616598    2.59184618
     atom  313 type  1   force =     4.13252381   12.39113360    0.55448050
     atom  314 type  1   force =     4.13283884   12.39120469    0.55431927
     atom  315 type  1   force =     4.13259969   12.39106263    0.55485426
     atom  316 type  1   force =     4.13280341   12.39094071    0.55443039
     atom  317 type  1   force =     4.13268876   12.39080133    0.55445778
     atom  318 type  1   force =     4.13086700   12.38992876    0.55345378
     atom  319 type  1   force =     4.13262530   12.39100676    0.55429082
     atom  320 type  1   force =     4.13225409   12.39117482    0.55445489
     atom  321 type  2   force =    -2.77051827   -0.33914778   -3.52081034
     atom  322 type  2   force =    -2.77026080   -0.33926246   -3.52088035
     atom  323 type  2   force =    -2.77213407   -0.34069644   -3.52085489
     atom  324 type  2   force =    -2.77020025   -0.33944860   -3.52079514
     atom  325 type  2   force =    -2.77010378   -0.33935500   -3.52077823
     atom  326 type  2   force =    -2.77035685   -0.33931362   -3.52047887
     atom  327 type  2   force =    -2.77012452   -0.33913456   -3.52091879
     atom  328 type  2   force =    -2.77035549   -0.33915384   -3.52075235
     atom  329 type  3   force =    -1.59178107    0.22493774   -1.77780007
     atom  330 type  3   force =    -1.59173374    0.22492274   -1.77781890
     atom  331 type  3   force =    -1.59217160    0.22436683   -1.77784887
     atom  332 type  3   force =    -1.59170609    0.22485869   -1.77780387
     atom  333 type  3   force =    -1.59170424    0.22489835   -1.77778817
     atom  334 type  3   force =    -1.59174755    0.22490265   -1.77772553
     atom  335 type  3   force =    -1.59169967    0.22495849   -1.77783218
     atom  336 type  3   force =    -1.59175642    0.22496116   -1.77779329
     atom  337 type  1   force =    -5.13757379   -4.58996600   -1.62609017
     atom  338 type  1   force =    -5.13715473   -4.59012160   -1.62616116
     atom  339 type  1   force =    -5.14021331   -4.59076409   -1.62831277
     atom  340 type  1   force =    -5.13711087   -4.59027764   -1.62607699
     atom  341 type  1   force =    -5.13694038   -4.59014637   -1.62606396
     atom  342 type  1   force =    -5.13721767   -4.59008384   -1.62580066
     atom  343 type  1   force =    -5.13687655   -4.58989555   -1.62624259
     atom  344 type  1   force =    -5.13724122   -4.58997827   -1.62598217
     atom  345 type  2   force =    -4.89814408    5.09790351    1.83733338
     atom  346 type  2   force =    -4.89896845    5.09710188    1.83864051
     atom  347 type  2   force =    -4.89897004    5.09711169    1.83863832
     atom  348 type  2   force =    -4.89894873    5.09713038    1.83858594
     atom  349 type  2   force =    -4.89817189    5.09798322    1.83767113
     atom  350 type  2   force =    -4.89895645    5.09712631    1.83862728
     atom  351 type  2   force =    -4.89894612    5.09711443    1.83863305
     atom  352 type  2   force =    -4.89893185    5.09714085    1.83860950
     atom  353 type  3   force =     1.85931247   -1.62744587    0.70997575
     atom  354 type  3   force =     1.85947733   -1.62767791    0.71016382
     atom  355 type  3   force =     1.85936873   -1.62770709    0.71021779
     atom  356 type  3   force =     1.85947568   -1.62768663    0.71016788
     atom  357 type  3   force =     1.85960080   -1.62765200    0.71012041
     atom  358 type  3   force =     1.85944898   -1.62766638    0.71021819
     atom  359 type  3   force =     1.85949693   -1.62765988    0.71016320
     atom  360 type  3   force =     1.85946134   -1.62765731    0.71019235
     atom  361 type  1   force =    -2.09135877   -0.30097021   -3.09826518
     atom  362 type  1   force =    -2.09130888   -0.30096905   -3.09837369
     atom  363 type  1   force =    -2.09144981   -0.30204975   -3.09846104
     atom  364 type  1   force =    -2.09069933   -0.30189562   -3.09843030
     atom  365 type  1   force =    -2.09119331   -0.30108305   -3.09817022
     atom  366 type  1   force =    -2.09113416   -0.30107545   -3.09793066
     atom  367 type  1   force =    -2.09115716   -0.30077326   -3.09833418
     atom  368 type  1   force =    -2.09123829   -0.30067650   -3.09837657
     atom  369 type  1   force =     0.72473956  -12.38681359    1.17997069
     atom  370 type  1   force =     0.72465544  -12.38605458    1.18113411
     atom  371 type  1   force =     0.72442403  -12.38531824    1.18108861
     atom  372 type  1   force =     0.72446456  -12.38532046    1.18099749
     atom  373 type  1   force =     0.72469207  -12.38495830    1.18097394
     atom  374 type  1   force =     0.72455406  -12.38512918    1.18104662
     atom  375 type  1   force =     0.72459855  -12.38540650    1.18121252
     atom  376 type  1   force =     0.72462635  -12.38535475    1.18131619
     atom  377 type  2   force =    -1.16483226    2.48436639   -0.86996327
     atom  378 type  2   force =    -1.16370366    2.48425396   -0.87120404
     atom  379 type  2   force =    -1.16476271    2.48462802   -0.87016273
     atom  380 type  2   force =    -1.16473093    2.48463709   -0.87015574
     atom  381 type  2   force =    -1.16467474    2.48469070   -0.87016983
     atom  382 type  2   force =    -1.16455931    2.48527984   -0.87044401
     atom  383 type  2   force =    -1.16465891    2.48459278   -0.87007335
     atom  384 type  2   force =    -1.16470797    2.48454305   -0.86999444
     atom  385 type  2   force =    -0.27008549    5.07168346   -0.95416222
     atom  386 type  2   force =    -0.26935674    5.07147226   -0.95492082
     atom  387 type  2   force =    -0.27006320    5.07234257   -0.95429560
     atom  388 type  2   force =    -0.27003810    5.07235208   -0.95429716
     atom  389 type  2   force =    -0.26994421    5.07247575   -0.95431379
     atom  390 type  2   force =    -0.26992394    5.07267811   -0.95438559
     atom  391 type  2   force =    -0.26993047    5.07228549   -0.95415676
     atom  392 type  2   force =    -0.26994933    5.07226052   -0.95409538
     atom  393 type  2   force =    -5.17667633    3.24237577    2.48079290
     atom  394 type  2   force =    -5.17549945    3.24271384    2.47860226
     atom  395 type  2   force =    -5.17665817    3.24251908    2.48067157
     atom  396 type  2   force =    -5.17669538    3.24252480    2.48072975
     atom  397 type  2   force =    -5.17663251    3.24257914    2.48072164
     atom  398 type  2   force =    -5.17622824    3.24314762    2.48030218
     atom  399 type  2   force =    -5.17659967    3.24252574    2.48078198
     atom  400 type  2   force =    -5.17659722    3.24248347    2.48078414
     atom  401 type  3   force =    -2.07349610    0.76520128    1.25222401
     atom  402 type  3   force =    -2.07336562    0.76521335    1.25134333
     atom  403 type  3   force =    -2.07350120    0.76524356    1.25219674
     atom  404 type  3   force =    -2.07352983    0.76524838    1.25221970
     atom  405 type  3   force =    -2.07350137    0.76526777    1.25221970
     atom  406 type  3   force =    -2.07340584    0.76535103    1.25214787
     atom  407 type  3   force =    -2.07348923    0.76525000    1.25224365
     atom  408 type  3   force =    -2.07347715    0.76523767    1.25222568
     atom  409 type  2   force =    -1.44528975    5.98038376    0.61127994
     atom  410 type  2   force =    -1.44599547    5.97996751    0.61193730
     atom  411 type  2   force =    -1.44589760    5.97994021    0.61188329
     atom  412 type  2   force =    -1.44595319    5.97995928    0.61190350
     atom  413 type  2   force =    -1.44535865    5.98130278    0.60986644
     atom  414 type  2   force =    -1.44593879    5.97989289    0.61186781
     atom  415 type  2   force =    -1.44605041    5.97991523    0.61191978
     atom  416 type  2   force =    -1.44593858    5.97993320    0.61183704
     atom  417 type  3   force =     0.02525356    1.90020009    0.18224398
     atom  418 type  3   force =     0.02513432    1.90011101    0.18234549
     atom  419 type  3   force =     0.02516064    1.90008701    0.18234366
     atom  420 type  3   force =     0.02514415    1.90009674    0.18235587
     atom  421 type  3   force =     0.02532899    1.90033963    0.18144950
     atom  422 type  3   force =     0.02514292    1.90006211    0.18233961
     atom  423 type  3   force =     0.02510850    1.90009300    0.18234150
     atom  424 type  3   force =     0.02514009    1.90009088    0.18232127
     atom  425 type  1   force =     1.47157174    0.41527794    2.59181579
     atom  426 type  1   force =     1.47157123    0.41524279    2.59120869
     atom  427 type  1   force =     1.47129717    0.41635995    2.59172091
     atom  428 type  1   force =     1.47129853    0.41636274    2.59179920
     atom  429 type  1   force =     1.47142394    0.41658842    2.59171432
     atom  430 type  1   force =     1.47146944    0.41668619    2.59173116
     atom  431 type  1   force =     1.47149850    0.41629927    2.59202621
     atom  432 type  1   force =     1.47143675    0.41626980    2.59194862
     atom  433 type  1   force =    -4.13174576  -12.39245576    0.55369441
     atom  434 type  1   force =    -4.13255246  -12.39174792    0.55438946
     atom  435 type  1   force =    -4.13263955  -12.39092499    0.55437526
     atom  436 type  1   force =    -4.13263050  -12.39093672    0.55439821
     atom  437 type  1   force =    -4.13246429  -12.39056214    0.55427158
     atom  438 type  1   force =    -4.13251534  -12.39074712    0.55438027
     atom  439 type  1   force =    -4.13246766  -12.39104230    0.55463848
     atom  440 type  1   force =    -4.13249471  -12.39101322    0.55457926
     atom  441 type  2   force =     2.77016004    0.33921568   -3.52053491
     atom  442 type  2   force =     2.77103154    0.33922963   -3.52127864
     atom  443 type  2   force =     2.77026122    0.33933561   -3.52076933
     atom  444 type  2   force =     2.77035484    0.33934050   -3.52081262
     atom  445 type  2   force =     2.77036078    0.33933573   -3.52083689
     atom  446 type  2   force =     2.77023375    0.34022323   -3.52126150
     atom  447 type  2   force =     2.77036012    0.33926758   -3.52076305
     atom  448 type  2   force =     2.77018224    0.33919794   -3.52060556
     atom  449 type  3   force =     1.59172764   -0.22489796   -1.77779207
     atom  450 type  3   force =     1.59176181   -0.22489722   -1.77780932
     atom  451 type  3   force =     1.59169085   -0.22493109   -1.77769785
     atom  452 type  3   force =     1.59186985   -0.22494574   -1.77786369
     atom  453 type  3   force =     1.59176023   -0.22492352   -1.77779132
     atom  454 type  3   force =     1.59169176   -0.22495206   -1.77773983
     atom  455 type  3   force =     1.59176164   -0.22489966   -1.77781872
     atom  456 type  3   force =     1.59168297   -0.22473333   -1.77785210
     atom  457 type  1   force =     5.13716167    4.59017097   -1.62599201
     atom  458 type  1   force =     5.13730182    4.59015999   -1.62606928
     atom  459 type  1   force =     5.13709039    4.59016120   -1.62585597
     atom  460 type  1   force =     5.13797376    4.59033762   -1.62655968
     atom  461 type  1   force =     5.13723458    4.59009433   -1.62607409
     atom  462 type  1   force =     5.13694793    4.59003955   -1.62591354
     atom  463 type  1   force =     5.13724587    4.59009818   -1.62609797
     atom  464 type  1   force =     5.13684875    4.59199696   -1.62762431
     atom  465 type  2   force =     4.89843717   -5.09658259    1.83824999
     atom  466 type  2   force =     4.89899780   -5.09712791    1.83851340
     atom  467 type  2   force =     4.89830459   -5.09738373    1.83880098
     atom  468 type  2   force =     4.89899720   -5.09720000    1.83856245
     atom  469 type  2   force =     4.89936709   -5.09712619    1.83845624
     atom  470 type  2   force =     4.89886902   -5.09711673    1.83881183
     atom  471 type  2   force =     4.89909333   -5.09704402    1.83850388
     atom  472 type  2   force =     4.89891398   -5.09704800    1.83864350
     atom  473 type  3   force =    -1.85937281    1.62794635    0.70988740
     atom  474 type  3   force =    -1.85946408    1.62767343    0.71017812
     atom  475 type  3   force =    -1.85948218    1.62766036    0.71020097
     atom  476 type  3   force =    -1.85946204    1.62767027    0.71017571
     atom  477 type  3   force =    -1.85922553    1.62778349    0.70997626
     atom  478 type  3   force =    -1.85947858    1.62766862    0.71019928
     atom  479 type  3   force =    -1.85946013    1.62767718    0.71017754
     atom  480 type  3   force =    -1.85946791    1.62768078    0.71018201
     atom  481 type  4   force =    -0.00035938    0.00036770    0.00002709
     atom  482 type  4   force =     0.00009728    0.00046965   -0.00109875
     atom  483 type  4   force =    -0.00105334   -0.00189785   -0.00016935
     atom  484 type  4   force =     0.00201257   -0.00179023    0.00026451
     atom  485 type  4   force =     0.00033735   -0.00033423   -0.00008701
     atom  486 type  4   force =     0.00170865    0.00000676    0.00338500
     atom  487 type  4   force =     0.00045102    0.00069861   -0.00030239
     atom  488 type  4   force =    -0.00023354    0.00113082   -0.00067653
     atom  489 type  4   force =     0.00005122    0.00079969   -0.00049722
     atom  490 type  4   force =     0.00070320    0.00123907   -0.00021744
     atom  491 type  4   force =     0.00138353    0.00040039    0.00145526
     atom  492 type  4   force =     0.00028953   -0.00016663    0.00004253
     atom  493 type  4   force =     0.00074056   -0.00228198    0.00065872
     atom  494 type  4   force =    -0.00075762   -0.00256869   -0.00229168
     atom  495 type  4   force =    -0.00020686    0.00024445   -0.00115352
     atom  496 type  4   force =    -0.00038977    0.00021387    0.00003224
     The core correction contribution to forces
     atom    1 type  1   force =    -0.00311519    0.00438500    0.00260951
     atom    2 type  1   force =    -0.00311523    0.00438510    0.00260959
     atom    3 type  1   force =    -0.00311518    0.00438508    0.00260958
     atom    4 type  1   force =    -0.00311558    0.00438547    0.00260964
     atom    5 type  1   force =    -0.00311517    0.00438510    0.00260949
     atom    6 type  1   force =    -0.00311427    0.00438534    0.00260834
     atom    7 type  1   force =    -0.00311520    0.00438507    0.00260958
     atom    8 type  1   force =    -0.00311515    0.00438499    0.00260978
     atom    9 type  1   force =     0.01340077    0.00481504    0.00489618
     atom   10 type  1   force =     0.01340075    0.00481505    0.00489607
     atom   11 type  1   force =     0.01340025    0.00481466    0.00489565
     atom   12 type  1   force =     0.01340075    0.00481514    0.00489612
     atom   13 type  1   force =     0.01340127    0.00481530    0.00489624
     atom   14 type  1   force =     0.01340076    0.00481507    0.00489610
     atom   15 type  1   force =     0.01340087    0.00481516    0.00489615
     atom   16 type  1   force =     0.01340075    0.00481509    0.00489609
     atom   17 type  2   force =    -0.00643152    0.00179741    0.00006823
     atom   18 type  2   force =    -0.00643137    0.00179766    0.00006780
     atom   19 type  2   force =    -0.00643160    0.00179729    0.00006841
     atom   20 type  2   force =    -0.00643101    0.00179793    0.00006773
     atom   21 type  2   force =    -0.00643131    0.00180738    0.00006636
     atom   22 type  2   force =    -0.00643125    0.00179763    0.00006824
     atom   23 type  2   force =    -0.00643105    0.00179734    0.00006822
     atom   24 type  2   force =    -0.00643118    0.00179782    0.00006797
     atom   25 type  2   force =     0.00302137   -0.00019437    0.00027298
     atom   26 type  2   force =     0.00302098   -0.00019489    0.00027361
     atom   27 type  2   force =     0.00302131   -0.00019447    0.00027312
     atom   28 type  2   force =     0.00302108   -0.00019461    0.00027346
     atom   29 type  2   force =     0.00301902   -0.00019314    0.00027259
     atom   30 type  2   force =     0.00302126   -0.00019484    0.00027333
     atom   31 type  2   force =     0.00302121   -0.00019450    0.00027325
     atom   32 type  2   force =     0.00302134   -0.00019465    0.00027363
     atom   33 type  2   force =    -0.00230400    0.00277463    0.00034599
     atom   34 type  2   force =    -0.00233799    0.00277906    0.00032864
     atom   35 type  2   force =    -0.00233812    0.00277946    0.00032811
     atom   36 type  2   force =    -0.00233799    0.00277925    0.00032853
     atom   37 type  2   force =    -0.00233819    0.00277941    0.00032844
     atom   38 type  2   force =    -0.00233805    0.00277907    0.00032835
     atom   39 type  2   force =    -0.00233812    0.00277899    0.00032875
     atom   40 type  2   force =    -0.00233803    0.00277919    0.00032865
     atom   41 type  3   force =     0.00000000    0.00000000    0.00000000
     atom   42 type  3   force =     0.00000000    0.00000000    0.00000000
     atom   43 type  3   force =     0.00000000    0.00000000    0.00000000
     atom   44 type  3   force =     0.00000000    0.00000000    0.00000000
     atom   45 type  3   force =     0.00000000    0.00000000    0.00000000
     atom   46 type  3   force =     0.00000000    0.00000000    0.00000000
     atom   47 type  3   force =     0.00000000    0.00000000    0.00000000
     atom   48 type  3   force =     0.00000000    0.00000000    0.00000000
     atom   49 type  2   force =     0.00032203   -0.00224594    0.00032400
     atom   50 type  2   force =     0.00087758   -0.00157230    0.00038500
     atom   51 type  2   force =     0.00087742   -0.00157211    0.00038496
     atom   52 type  2   force =     0.00087738   -0.00157230    0.00038471
     atom   53 type  2   force =     0.00087755   -0.00157211    0.00038517
     atom   54 type  2   force =     0.00087753   -0.00157242    0.00038478
     atom   55 type  2   force =     0.00087747   -0.00157214    0.00038495
     atom   56 type  2   force =     0.00087743   -0.00157208    0.00038540
     atom   57 type  3   force =     0.00000000    0.00000000    0.00000000
     atom   58 type  3   force =     0.00000000    0.00000000    0.00000000
     atom   59 type  3   force =     0.00000000    0.00000000    0.00000000
     atom   60 type  3   force =     0.00000000    0.00000000    0.00000000
     atom   61 type  3   force =     0.00000000    0.00000000    0.00000000
     atom   62 type  3   force =     0.00000000    0.00000000    0.00000000
     atom   63 type  3   force =     0.00000000    0.00000000    0.00000000
     atom   64 type  3   force =     0.00000000    0.00000000    0.00000000
     atom   65 type  1   force =    -0.00325624   -0.00412425   -0.00297484
     atom   66 type  1   force =    -0.00325630   -0.00412439   -0.00297494
     atom   67 type  1   force =    -0.00325669   -0.00412442   -0.00297518
     atom   68 type  1   force =    -0.00325630   -0.00412420   -0.00297486
     atom   69 type  1   force =    -0.00325727   -0.00412412   -0.00297500
     atom   70 type  1   force =    -0.00325620   -0.00412425   -0.00297496
     atom   71 type  1   force =    -0.00325614   -0.00412414   -0.00297477
     atom   72 type  1   force =    -0.00325621   -0.00412426   -0.00297494
     atom   73 type  1   force =     0.01284250   -0.00666365   -0.00256024
     atom   74 type  1   force =     0.01284250   -0.00666365   -0.00256033
     atom   75 type  1   force =     0.01284208   -0.00666346   -0.00256017
     atom   76 type  1   force =     0.01284254   -0.00666368   -0.00256028
     atom   77 type  1   force =     0.01284223   -0.00666339   -0.00256062
     atom   78 type  1   force =     0.01284254   -0.00666365   -0.00256030
     atom   79 type  1   force =     0.01284252   -0.00666361   -0.00256029
     atom   80 type  1   force =     0.01284252   -0.00666369   -0.00256024
     atom   81 type  2   force =    -0.00172101   -0.00232232    0.00022280
     atom   82 type  2   force =    -0.00172089   -0.00232332    0.00022319
     atom   83 type  2   force =    -0.00172142   -0.00232275    0.00022354
     atom   84 type  2   force =    -0.00172109   -0.00232301    0.00022356
     atom   85 type  2   force =    -0.00173745   -0.00230628    0.00023252
     atom   86 type  2   force =    -0.00172117   -0.00232277    0.00022349
     atom   87 type  2   force =    -0.00172121   -0.00232268    0.00022328
     atom   88 type  2   force =    -0.00172110   -0.00232291    0.00022381
     atom   89 type  3   force =     0.00000000    0.00000000    0.00000000
     atom   90 type  3   force =     0.00000000    0.00000000    0.00000000
     atom   91 type  3   force =     0.00000000    0.00000000    0.00000000
     atom   92 type  3   force =     0.00000000    0.00000000    0.00000000
     atom   93 type  3   force =     0.00000000    0.00000000    0.00000000
     atom   94 type  3   force =     0.00000000    0.00000000    0.00000000
     atom   95 type  3   force =     0.00000000    0.00000000    0.00000000
     atom   96 type  3   force =     0.00000000    0.00000000    0.00000000
     atom   97 type  1   force =    -0.00403860    0.01083131   -0.00097749
     atom   98 type  1   force =    -0.00403859    0.01083131   -0.00097746
     atom   99 type  1   force =    -0.00403859    0.01083132   -0.00097749
     atom  100 type  1   force =    -0.00403860    0.01083145   -0.00097751
     atom  101 type  1   force =    -0.00403858    0.01083130   -0.00097755
     atom  102 type  1   force =    -0.00391510    0.01105306   -0.00105546
     atom  103 type  1   force =    -0.00403855    0.01083128   -0.00097747
     atom  104 type  1   force =    -0.00403854    0.01083127   -0.00097751
     atom  105 type  2   force =    -0.00228923   -0.00379954   -0.00000106
     atom  106 type  2   force =    -0.00229051   -0.00380032   -0.00000096
     atom  107 type  2   force =    -0.00229015   -0.00380050   -0.00000147
     atom  108 type  2   force =    -0.00229043   -0.00380065   -0.00000101
     atom  109 type  2   force =    -0.00229036   -0.00379985   -0.00000087
     atom  110 type  2   force =    -0.00229047   -0.00379984   -0.00000092
     atom  111 type  2   force =    -0.00229012   -0.00380056   -0.00000135
     atom  112 type  2   force =    -0.00229020   -0.00380043   -0.00000157
     atom  113 type  3   force =     0.00000000    0.00000000    0.00000000
     atom  114 type  3   force =     0.00000000    0.00000000    0.00000000
     atom  115 type  3   force =     0.00000000    0.00000000    0.00000000
     atom  116 type  3   force =     0.00000000    0.00000000    0.00000000
     atom  117 type  3   force =     0.00000000    0.00000000    0.00000000
     atom  118 type  3   force =     0.00000000    0.00000000    0.00000000
     atom  119 type  3   force =     0.00000000    0.00000000    0.00000000
     atom  120 type  3   force =     0.00000000    0.00000000    0.00000000
     atom  121 type  1   force =     0.00311538   -0.00438535    0.00260972
     atom  122 type  1   force =     0.00311526   -0.00438510    0.00260952
     atom  123 type  1   force =     0.00311518   -0.00438506    0.00260955
     atom  124 type  1   force =     0.00311515   -0.00438491    0.00260953
     atom  125 type  1   force =     0.00311515   -0.00438514    0.00260950
     atom  126 type  1   force =     0.00311477   -0.00438425    0.00260934
     atom  127 type  1   force =     0.00311524   -0.00438518    0.00260959
     atom  128 type  1   force =     0.00311527   -0.00438522    0.00260960
     atom  129 type  1   force =    -0.01340086   -0.00481530    0.00489636
     atom  130 type  1   force =    -0.01340080   -0.00481512    0.00489608
     atom  131 type  1   force =    -0.01340076   -0.00481512    0.00489606
     atom  132 type  1   force =    -0.01340081   -0.00481504    0.00489610
     atom  133 type  1   force =    -0.01340074   -0.00481510    0.00489603
     atom  134 type  1   force =    -0.01340167   -0.00481553    0.00489653
     atom  135 type  1   force =    -0.01340073   -0.00481510    0.00489606
     atom  136 type  1   force =    -0.01340080   -0.00481512    0.00489606
     atom  137 type  2   force =     0.00643107   -0.00179780    0.00006815
     atom  138 type  2   force =     0.00643104   -0.00179781    0.00006829
     atom  139 type  2   force =     0.00643123   -0.00179749    0.00006794
     atom  140 type  2   force =     0.00643144   -0.00179727    0.00006829
     atom  141 type  2   force =     0.00643103   -0.00179782    0.00006827
     atom  142 type  2   force =     0.00643087   -0.00179766    0.00006804
     atom  143 type  2   force =     0.00643121   -0.00179769    0.00006797
     atom  144 type  2   force =     0.00643100   -0.00179782    0.00006828
     atom  145 type  2   force =    -0.00302109    0.00019460    0.00027348
     atom  146 type  2   force =    -0.00302124    0.00019492    0.00027271
     atom  147 type  2   force =    -0.00302124    0.00019449    0.00027296
     atom  148 type  2   force =    -0.00302129    0.00019451    0.00027340
     atom  149 type  2   force =    -0.00302103    0.00019489    0.00027352
     atom  150 type  2   force =    -0.00302113    0.00019505    0.00027343
     atom  151 type  2   force =    -0.00302095    0.00019462    0.00027355
     atom  152 type  2   force =    -0.00302111    0.00019466    0.00027343
     atom  153 type  2   force =     0.00233798   -0.00277888    0.00032857
     atom  154 type  2   force =     0.00233784   -0.00277935    0.00032856
     atom  155 type  2   force =     0.00233823   -0.00277925    0.00032838
     atom  156 type  2   force =     0.00233807   -0.00277937    0.00032859
     atom  157 type  2   force =     0.00233798   -0.00277934    0.00032865
     atom  158 type  2   force =     0.00233852   -0.00277900    0.00032873
     atom  159 type  2   force =     0.00233803   -0.00277918    0.00032831
     atom  160 type  2   force =     0.00233838   -0.00277938    0.00032870
     atom  161 type  3   force =     0.00000000    0.00000000    0.00000000
     atom  162 type  3   force =     0.00000000    0.00000000    0.00000000
     atom  163 type  3   force =     0.00000000    0.00000000    0.00000000
     atom  164 type  3   force =     0.00000000    0.00000000    0.00000000
     atom  165 type  3   force =     0.00000000    0.00000000    0.00000000
     atom  166 type  3   force =     0.00000000    0.00000000    0.00000000
     atom  167 type  3   force =     0.00000000    0.00000000    0.00000000
     atom  168 type  3   force =     0.00000000    0.00000000    0.00000000
     atom  169 type  2   force =    -0.00087765    0.00157302    0.00038530
     atom  170 type  2   force =    -0.00087744    0.00157252    0.00038492
     atom  171 type  2   force =    -0.00087729    0.00157230    0.00038501
     atom  172 type  2   force =    -0.00087766    0.00157216    0.00038481
     atom  173 type  2   force =    -0.00087776    0.00157208    0.00038556
     atom  174 type  2   force =    -0.00087266    0.00157232    0.00038531
     atom  175 type  2   force =    -0.00087728    0.00157229    0.00038524
     atom  176 type  2   force =    -0.00087737    0.00157210    0.00038523
     atom  177 type  3   force =     0.00000000    0.00000000    0.00000000
     atom  178 type  3   force =     0.00000000    0.00000000    0.00000000
     atom  179 type  3   force =     0.00000000    0.00000000    0.00000000
     atom  180 type  3   force =     0.00000000    0.00000000    0.00000000
     atom  181 type  3   force =     0.00000000    0.00000000    0.00000000
     atom  182 type  3   force =     0.00000000    0.00000000    0.00000000
     atom  183 type  3   force =     0.00000000    0.00000000    0.00000000
     atom  184 type  3   force =     0.00000000    0.00000000    0.00000000
     atom  185 type  1   force =     0.00325630    0.00412411   -0.00297492
     atom  186 type  1   force =     0.00325626    0.00412427   -0.00297506
     atom  187 type  1   force =     0.00325624    0.00412426   -0.00297483
     atom  188 type  1   force =     0.00325628    0.00412430   -0.00297499
     atom  189 type  1   force =     0.00325626    0.00412423   -0.00297488
     atom  190 type  1   force =     0.00325593    0.00412414   -0.00297482
     atom  191 type  1   force =     0.00325622    0.00412411   -0.00297479
     atom  192 type  1   force =     0.00325626    0.00412414   -0.00297481
     atom  193 type  1   force =    -0.01284194    0.00666315   -0.00256005
     atom  194 type  1   force =    -0.01284248    0.00666359   -0.00256032
     atom  195 type  1   force =    -0.01284250    0.00666366   -0.00256023
     atom  196 type  1   force =    -0.01284248    0.00666367   -0.00256025
     atom  197 type  1   force =    -0.01284248    0.00666369   -0.00256031
     atom  198 type  1   force =    -0.01284266    0.00666363   -0.00256015
     atom  199 type  1   force =    -0.01284248    0.00666360   -0.00256022
     atom  200 type  1   force =    -0.01284242    0.00666359   -0.00256029
     atom  201 type  2   force =     0.00172137    0.00232283    0.00022354
     atom  202 type  2   force =     0.00172135    0.00232292    0.00022389
     atom  203 type  2   force =     0.00172129    0.00232278    0.00022424
     atom  204 type  2   force =     0.00172210    0.00232291    0.00022417
     atom  205 type  2   force =     0.00172113    0.00232276    0.00022349
     atom  206 type  2   force =     0.00172114    0.00232305    0.00022374
     atom  207 type  2   force =     0.00172117    0.00232294    0.00022369
     atom  208 type  2   force =     0.00172138    0.00232310    0.00022309
     atom  209 type  3   force =     0.00000000    0.00000000    0.00000000
     atom  210 type  3   force =     0.00000000    0.00000000    0.00000000
     atom  211 type  3   force =     0.00000000    0.00000000    0.00000000
     atom  212 type  3   force =     0.00000000    0.00000000    0.00000000
     atom  213 type  3   force =     0.00000000    0.00000000    0.00000000
     atom  214 type  3   force =     0.00000000    0.00000000    0.00000000
     atom  215 type  3   force =     0.00000000    0.00000000    0.00000000
     atom  216 type  3   force =     0.00000000    0.00000000    0.00000000
     atom  217 type  1   force =     0.00403862   -0.01083143   -0.00097756
     atom  218 type  1   force =     0.00403857   -0.01083129   -0.00097754
     atom  219 type  1   force =     0.00403851   -0.01083130   -0.00097746
     atom  220 type  1   force =     0.00403806   -0.01082751   -0.00097693
     atom  221 type  1   force =     0.00403857   -0.01083139   -0.00097748
     atom  222 type  1   force =     0.00403851   -0.01083121   -0.00097750
     atom  223 type  1   force =     0.00403855   -0.01083121   -0.00097748
     atom  224 type  1   force =     0.00403856   -0.01083135   -0.00097750
     atom  225 type  2   force =     0.00218644    0.00400673   -0.00001256
     atom  226 type  2   force =     0.00229031    0.00380038   -0.00000125
     atom  227 type  2   force =     0.00229067    0.00380059   -0.00000092
     atom  228 type  2   force =     0.00229036    0.00380051   -0.00000138
     atom  229 type  2   force =     0.00229017    0.00380031   -0.00000071
     atom  230 type  2   force =     0.00229031    0.00380064   -0.00000143
     atom  231 type  2   force =     0.00229040    0.00380068   -0.00000121
     atom  232 type  2   force =     0.00229032    0.00380055   -0.00000107
     atom  233 type  3   force =     0.00000000    0.00000000    0.00000000
     atom  234 type  3   force =     0.00000000    0.00000000    0.00000000
     atom  235 type  3   force =     0.00000000    0.00000000    0.00000000
     atom  236 type  3   force =     0.00000000    0.00000000    0.00000000
     atom  237 type  3   force =     0.00000000    0.00000000    0.00000000
     atom  238 type  3   force =     0.00000000    0.00000000    0.00000000
     atom  239 type  3   force =     0.00000000    0.00000000    0.00000000
     atom  240 type  3   force =     0.00000000    0.00000000    0.00000000
     atom  241 type  1   force =     0.00438507    0.00311511   -0.00260948
     atom  242 type  1   force =     0.00438505    0.00311514   -0.00260950
     atom  243 type  1   force =     0.00438515    0.00311517   -0.00260959
     atom  244 type  1   force =     0.00438502    0.00311521   -0.00260955
     atom  245 type  1   force =     0.00438512    0.00311522   -0.00260960
     atom  246 type  1   force =     0.00438447    0.00311506   -0.00260937
     atom  247 type  1   force =     0.00438511    0.00311517   -0.00260954
     atom  248 type  1   force =     0.00438523    0.00311518   -0.00260957
     atom  249 type  1   force =     0.00481513   -0.01340085   -0.00489617
     atom  250 type  1   force =     0.00481507   -0.01340078   -0.00489604
     atom  251 type  1   force =     0.00481513   -0.01340079   -0.00489611
     atom  252 type  1   force =     0.00481510   -0.01340071   -0.00489612
     atom  253 type  1   force =     0.00481519   -0.01340082   -0.00489611
     atom  254 type  1   force =     0.00481503   -0.01340038   -0.00489543
     atom  255 type  1   force =     0.00481509   -0.01340077   -0.00489608
     atom  256 type  1   force =     0.00481521   -0.01340087   -0.00489616
     atom  257 type  2   force =     0.00179750    0.00643141   -0.00006790
     atom  258 type  2   force =     0.00179780    0.00643142   -0.00006800
     atom  259 type  2   force =     0.00179810    0.00643139   -0.00006834
     atom  260 type  2   force =     0.00179770    0.00643144   -0.00006823
     atom  261 type  2   force =     0.00179760    0.00643119   -0.00006803
     atom  262 type  2   force =     0.00179770    0.00643134   -0.00006824
     atom  263 type  2   force =     0.00179816    0.00643140   -0.00006842
     atom  264 type  2   force =     0.00179741    0.00643091   -0.00006784
     atom  265 type  2   force =    -0.00019492   -0.00302141   -0.00027350
     atom  266 type  2   force =    -0.00019469   -0.00302090   -0.00027374
     atom  267 type  2   force =    -0.00019478   -0.00302133   -0.00027360
     atom  268 type  2   force =    -0.00019472   -0.00302123   -0.00027354
     atom  269 type  2   force =    -0.00019461   -0.00302128   -0.00027356
     atom  270 type  2   force =    -0.00019472   -0.00302109   -0.00027312
     atom  271 type  2   force =    -0.00019517   -0.00302138   -0.00027365
     atom  272 type  2   force =    -0.00019488   -0.00302121   -0.00027356
     atom  273 type  2   force =     0.00277918    0.00233798   -0.00032858
     atom  274 type  2   force =     0.00277904    0.00233791   -0.00032843
     atom  275 type  2   force =     0.00277943    0.00233816   -0.00032850
     atom  276 type  2   force =     0.00277908    0.00233794   -0.00032802
     atom  277 type  2   force =     0.00277938    0.00233815   -0.00032869
     atom  278 type  2   force =     0.00277889    0.00233815   -0.00032853
     atom  279 type  2   force =     0.00277884    0.00233782   -0.00032872
     atom  280 type  2   force =     0.00277935    0.00233796   -0.00032848
     atom  281 type  3   force =     0.00000000    0.00000000    0.00000000
     atom  282 type  3   force =     0.00000000    0.00000000    0.00000000
     atom  283 type  3   force =     0.00000000    0.00000000    0.00000000
     atom  284 type  3   force =     0.00000000    0.00000000    0.00000000
     atom  285 type  3   force =     0.00000000    0.00000000    0.00000000
     atom  286 type  3   force =     0.00000000    0.00000000    0.00000000
     atom  287 type  3   force =     0.00000000    0.00000000    0.00000000
     atom  288 type  3   force =     0.00000000    0.00000000    0.00000000
     atom  289 type  2   force =    -0.00157212   -0.00087778   -0.00038491
     atom  290 type  2   force =    -0.00157239   -0.00087763   -0.00038459
     atom  291 type  2   force =    -0.00157158   -0.00087755   -0.00038521
     atom  292 type  2   force =    -0.00157203   -0.00087742   -0.00038519
     atom  293 type  2   force =    -0.00157215   -0.00087726   -0.00038565
     atom  294 type  2   force =    -0.00157245   -0.00087755   -0.00038480
     atom  295 type  2   force =    -0.00157240   -0.00087750   -0.00038505
     atom  296 type  2   force =    -0.00157215   -0.00087798   -0.00038518
     atom  297 type  3   force =     0.00000000    0.00000000    0.00000000
     atom  298 type  3   force =     0.00000000    0.00000000    0.00000000
     atom  299 type  3   force =     0.00000000    0.00000000    0.00000000
     atom  300 type  3   force =     0.00000000    0.00000000    0.00000000
     atom  301 type  3   force =     0.00000000    0.00000000    0.00000000
     atom  302 type  3   force =     0.00000000    0.00000000    0.00000000
     atom  303 type  3   force =     0.00000000    0.00000000    0.00000000
     atom  304 type  3   force =     0.00000000    0.00000000    0.00000000
     atom  305 type  1   force =    -0.00412430    0.00325621    0.00297489
     atom  306 type  1   force =    -0.00412429    0.00325629    0.00297490
     atom  307 type  1   force =    -0.00412418    0.00325615    0.00297479
     atom  308 type  1   force =    -0.00412425    0.00325622    0.00297491
     atom  309 type  1   force =    -0.00412415    0.00325612    0.00297475
     atom  310 type  1   force =    -0.00412436    0.00325637    0.00297463
     atom  311 type  1   force =    -0.00412433    0.00325617    0.00297489
     atom  312 type  1   force =    -0.00412419    0.00325621    0.00297478
     atom  313 type  1   force =    -0.00666367   -0.01284256    0.00256028
     atom  314 type  1   force =    -0.00666371   -0.01284256    0.00256030
     atom  315 type  1   force =    -0.00666364   -0.01284257    0.00256030
     atom  316 type  1   force =    -0.00666365   -0.01284245    0.00256020
     atom  317 type  1   force =    -0.00666366   -0.01284255    0.00256028
     atom  318 type  1   force =    -0.00666364   -0.01284246    0.00256028
     atom  319 type  1   force =    -0.00666364   -0.01284247    0.00256029
     atom  320 type  1   force =    -0.00666356   -0.01284247    0.00256022
     atom  321 type  2   force =    -0.00232277    0.00172074   -0.00022356
     atom  322 type  2   force =    -0.00232286    0.00172097   -0.00022383
     atom  323 type  2   force =    -0.00232342    0.00172188   -0.00022407
     atom  324 type  2   force =    -0.00232285    0.00172089   -0.00022342
     atom  325 type  2   force =    -0.00232297    0.00172110   -0.00022350
     atom  326 type  2   force =    -0.00232301    0.00172113   -0.00022385
     atom  327 type  2   force =    -0.00232299    0.00172087   -0.00022346
     atom  328 type  2   force =    -0.00232261    0.00172130   -0.00022369
     atom  329 type  3   force =     0.00000000    0.00000000    0.00000000
     atom  330 type  3   force =     0.00000000    0.00000000    0.00000000
     atom  331 type  3   force =     0.00000000    0.00000000    0.00000000
     atom  332 type  3   force =     0.00000000    0.00000000    0.00000000
     atom  333 type  3   force =     0.00000000    0.00000000    0.00000000
     atom  334 type  3   force =     0.00000000    0.00000000    0.00000000
     atom  335 type  3   force =     0.00000000    0.00000000    0.00000000
     atom  336 type  3   force =     0.00000000    0.00000000    0.00000000
     atom  337 type  1   force =     0.01083132    0.00403854    0.00097752
     atom  338 type  1   force =     0.01083127    0.00403849    0.00097758
     atom  339 type  1   force =     0.01083359    0.00403942    0.00097712
     atom  340 type  1   force =     0.01083135    0.00403859    0.00097745
     atom  341 type  1   force =     0.01083129    0.00403865    0.00097747
     atom  342 type  1   force =     0.01083126    0.00403857    0.00097745
     atom  343 type  1   force =     0.01083125    0.00403851    0.00097750
     atom  344 type  1   force =     0.01083131    0.00403851    0.00097751
     atom  345 type  2   force =    -0.00380036    0.00229040    0.00000071
     atom  346 type  2   force =    -0.00380057    0.00229009    0.00000084
     atom  347 type  2   force =    -0.00380028    0.00229043    0.00000050
     atom  348 type  2   force =    -0.00380045    0.00229005    0.00000083
     atom  349 type  2   force =    -0.00380223    0.00228961    0.00000225
     atom  350 type  2   force =    -0.00380067    0.00229033    0.00000082
     atom  351 type  2   force =    -0.00380083    0.00229004    0.00000080
     atom  352 type  2   force =    -0.00380048    0.00229013    0.00000137
     atom  353 type  3   force =     0.00000000    0.00000000    0.00000000
     atom  354 type  3   force =     0.00000000    0.00000000    0.00000000
     atom  355 type  3   force =     0.00000000    0.00000000    0.00000000
     atom  356 type  3   force =     0.00000000    0.00000000    0.00000000
     atom  357 type  3   force =     0.00000000    0.00000000    0.00000000
     atom  358 type  3   force =     0.00000000    0.00000000    0.00000000
     atom  359 type  3   force =     0.00000000    0.00000000    0.00000000
     atom  360 type  3   force =     0.00000000    0.00000000    0.00000000
     atom  361 type  1   force =    -0.00438506   -0.00311517   -0.00260952
     atom  362 type  1   force =    -0.00438517   -0.00311522   -0.00260952
     atom  363 type  1   force =    -0.00438497   -0.00311500   -0.00260976
     atom  364 type  1   force =    -0.00438513   -0.00311511   -0.00260937
     atom  365 type  1   force =    -0.00438524   -0.00311526   -0.00260949
     atom  366 type  1   force =    -0.00438498   -0.00311514   -0.00260941
     atom  367 type  1   force =    -0.00438519   -0.00311521   -0.00260954
     atom  368 type  1   force =    -0.00438496   -0.00311544   -0.00260939
     atom  369 type  1   force =    -0.00481539    0.01340116   -0.00489623
     atom  370 type  1   force =    -0.00481521    0.01340090   -0.00489602
     atom  371 type  1   force =    -0.00481510    0.01340068   -0.00489605
     atom  372 type  1   force =    -0.00481514    0.01340076   -0.00489603
     atom  373 type  1   force =    -0.00481500    0.01340094   -0.00489616
     atom  374 type  1   force =    -0.00481506    0.01340070   -0.00489604
     atom  375 type  1   force =    -0.00481521    0.01340076   -0.00489607
     atom  376 type  1   force =    -0.00481518    0.01340087   -0.00489613
     atom  377 type  2   force =    -0.00179780   -0.00643115   -0.00006772
     atom  378 type  2   force =    -0.00179883   -0.00643119   -0.00006671
     atom  379 type  2   force =    -0.00179789   -0.00643114   -0.00006804
     atom  380 type  2   force =    -0.00179813   -0.00643127   -0.00006766
     atom  381 type  2   force =    -0.00179732   -0.00643111   -0.00006846
     atom  382 type  2   force =    -0.00179760   -0.00643089   -0.00006836
     atom  383 type  2   force =    -0.00179774   -0.00643117   -0.00006789
     atom  384 type  2   force =    -0.00179737   -0.00643104   -0.00006813
     atom  385 type  2   force =     0.00019499    0.00302094   -0.00027374
     atom  386 type  2   force =     0.00019482    0.00302136   -0.00027336
     atom  387 type  2   force =     0.00019501    0.00302131   -0.00027314
     atom  388 type  2   force =     0.00019495    0.00302098   -0.00027353
     atom  389 type  2   force =     0.00019499    0.00302137   -0.00027382
     atom  390 type  2   force =     0.00019507    0.00302105   -0.00027402
     atom  391 type  2   force =     0.00019470    0.00302105   -0.00027331
     atom  392 type  2   force =     0.00019480    0.00302110   -0.00027358
     atom  393 type  2   force =    -0.00277905   -0.00233843   -0.00032881
     atom  394 type  2   force =    -0.00277914   -0.00233812   -0.00032724
     atom  395 type  2   force =    -0.00277883   -0.00233769   -0.00032894
     atom  396 type  2   force =    -0.00277927   -0.00233792   -0.00032848
     atom  397 type  2   force =    -0.00277925   -0.00233793   -0.00032815
     atom  398 type  2   force =    -0.00277933   -0.00233797   -0.00032870
     atom  399 type  2   force =    -0.00277896   -0.00233796   -0.00032877
     atom  400 type  2   force =    -0.00277904   -0.00233789   -0.00032851
     atom  401 type  3   force =     0.00000000    0.00000000    0.00000000
     atom  402 type  3   force =     0.00000000    0.00000000    0.00000000
     atom  403 type  3   force =     0.00000000    0.00000000    0.00000000
     atom  404 type  3   force =     0.00000000    0.00000000    0.00000000
     atom  405 type  3   force =     0.00000000    0.00000000    0.00000000
     atom  406 type  3   force =     0.00000000    0.00000000    0.00000000
     atom  407 type  3   force =     0.00000000    0.00000000    0.00000000
     atom  408 type  3   force =     0.00000000    0.00000000    0.00000000
     atom  409 type  2   force =     0.00157177    0.00087700   -0.00038466
     atom  410 type  2   force =     0.00157233    0.00087722   -0.00038552
     atom  411 type  2   force =     0.00157185    0.00087738   -0.00038499
     atom  412 type  2   force =     0.00157217    0.00087746   -0.00038517
     atom  413 type  2   force =     0.00157149    0.00087555   -0.00038518
     atom  414 type  2   force =     0.00157209    0.00087707   -0.00038500
     atom  415 type  2   force =     0.00157217    0.00087720   -0.00038484
     atom  416 type  2   force =     0.00157181    0.00087719   -0.00038479
     atom  417 type  3   force =     0.00000000    0.00000000    0.00000000
     atom  418 type  3   force =     0.00000000    0.00000000    0.00000000
     atom  419 type  3   force =     0.00000000    0.00000000    0.00000000
     atom  420 type  3   force =     0.00000000    0.00000000    0.00000000
     atom  421 type  3   force =     0.00000000    0.00000000    0.00000000
     atom  422 type  3   force =     0.00000000    0.00000000    0.00000000
     atom  423 type  3   force =     0.00000000    0.00000000    0.00000000
     atom  424 type  3   force =     0.00000000    0.00000000    0.00000000
     atom  425 type  1   force =     0.00412414   -0.00325623    0.00297466
     atom  426 type  1   force =     0.00412433   -0.00325625    0.00297497
     atom  427 type  1   force =     0.00412429   -0.00325630    0.00297485
     atom  428 type  1   force =     0.00412422   -0.00325627    0.00297490
     atom  429 type  1   force =     0.00412420   -0.00325618    0.00297484
     atom  430 type  1   force =     0.00412403   -0.00325639    0.00297480
     atom  431 type  1   force =     0.00412418   -0.00325625    0.00297483
     atom  432 type  1   force =     0.00412432   -0.00325615    0.00297482
     atom  433 type  1   force =     0.00666367    0.01284266    0.00256048
     atom  434 type  1   force =     0.00666369    0.01284267    0.00256033
     atom  435 type  1   force =     0.00666365    0.01284246    0.00256033
     atom  436 type  1   force =     0.00666363    0.01284249    0.00256026
     atom  437 type  1   force =     0.00666359    0.01284234    0.00256035
     atom  438 type  1   force =     0.00666358    0.01284232    0.00256018
     atom  439 type  1   force =     0.00666357    0.01284246    0.00256024
     atom  440 type  1   force =     0.00666364    0.01284253    0.00256028
     atom  441 type  2   force =     0.00232299   -0.00172137   -0.00022401
     atom  442 type  2   force =     0.00232199   -0.00172147   -0.00022277
     atom  443 type  2   force =     0.00232303   -0.00172104   -0.00022370
     atom  444 type  2   force =     0.00232323   -0.00172132   -0.00022315
     atom  445 type  2   force =     0.00232281   -0.00172114   -0.00022342
     atom  446 type  2   force =     0.00232292   -0.00172213   -0.00022384
     atom  447 type  2   force =     0.00232303   -0.00172104   -0.00022347
     atom  448 type  2   force =     0.00232293   -0.00172121   -0.00022383
     atom  449 type  3   force =     0.00000000    0.00000000    0.00000000
     atom  450 type  3   force =     0.00000000    0.00000000    0.00000000
     atom  451 type  3   force =     0.00000000    0.00000000    0.00000000
     atom  452 type  3   force =     0.00000000    0.00000000    0.00000000
     atom  453 type  3   force =     0.00000000    0.00000000    0.00000000
     atom  454 type  3   force =     0.00000000    0.00000000    0.00000000
     atom  455 type  3   force =     0.00000000    0.00000000    0.00000000
     atom  456 type  3   force =     0.00000000    0.00000000    0.00000000
     atom  457 type  1   force =    -0.01083132   -0.00403856    0.00097743
     atom  458 type  1   force =    -0.01083136   -0.00403852    0.00097746
     atom  459 type  1   force =    -0.01083133   -0.00403865    0.00097745
     atom  460 type  1   force =    -0.01083141   -0.00403864    0.00097759
     atom  461 type  1   force =    -0.01083130   -0.00403856    0.00097749
     atom  462 type  1   force =    -0.01083131   -0.00403856    0.00097755
     atom  463 type  1   force =    -0.01083131   -0.00403854    0.00097748
     atom  464 type  1   force =    -0.01083126   -0.00403893    0.00097757
     atom  465 type  2   force =     0.00380053   -0.00229063    0.00000160
     atom  466 type  2   force =     0.00380028   -0.00229011    0.00000162
     atom  467 type  2   force =     0.00380070   -0.00228997    0.00000088
     atom  468 type  2   force =     0.00380063   -0.00229015    0.00000086
     atom  469 type  2   force =     0.00379950   -0.00229020    0.00000162
     atom  470 type  2   force =     0.00380032   -0.00229018    0.00000087
     atom  471 type  2   force =     0.00380030   -0.00229023    0.00000105
     atom  472 type  2   force =     0.00380069   -0.00229000    0.00000116
     atom  473 type  3   force =     0.00000000    0.00000000    0.00000000
     atom  474 type  3   force =     0.00000000    0.00000000    0.00000000
     atom  475 type  3   force =     0.00000000    0.00000000    0.00000000
     atom  476 type  3   force =     0.00000000    0.00000000    0.00000000
     atom  477 type  3   force =     0.00000000    0.00000000    0.00000000
     atom  478 type  3   force =     0.00000000    0.00000000    0.00000000
     atom  479 type  3   force =     0.00000000    0.00000000    0.00000000
     atom  480 type  3   force =     0.00000000    0.00000000    0.00000000
     atom  481 type  4   force =     0.00000000    0.00000000    0.00000000
     atom  482 type  4   force =     0.00000000    0.00000000    0.00000000
     atom  483 type  4   force =     0.00000000    0.00000000    0.00000000
     atom  484 type  4   force =     0.00000000    0.00000000    0.00000000
     atom  485 type  4   force =     0.00000000    0.00000000    0.00000000
     atom  486 type  4   force =     0.00000000    0.00000000    0.00000000
     atom  487 type  4   force =     0.00000000    0.00000000    0.00000000
     atom  488 type  4   force =     0.00000000    0.00000000    0.00000000
     atom  489 type  4   force =     0.00000000    0.00000000    0.00000000
     atom  490 type  4   force =     0.00000000    0.00000000    0.00000000
     atom  491 type  4   force =     0.00000000    0.00000000    0.00000000
     atom  492 type  4   force =     0.00000000    0.00000000    0.00000000
     atom  493 type  4   force =     0.00000000    0.00000000    0.00000000
     atom  494 type  4   force =     0.00000000    0.00000000    0.00000000
     atom  495 type  4   force =     0.00000000    0.00000000    0.00000000
     atom  496 type  4   force =     0.00000000    0.00000000    0.00000000
     The Hubbard contrib.    to forces
     atom    1 type  1   force =     0.00000000    0.00000000    0.00000000
     atom    2 type  1   force =     0.00000000    0.00000000    0.00000000
     atom    3 type  1   force =     0.00000000    0.00000000    0.00000000
     atom    4 type  1   force =     0.00000000    0.00000000    0.00000000
     atom    5 type  1   force =     0.00000000    0.00000000    0.00000000
     atom    6 type  1   force =     0.00000000    0.00000000    0.00000000
     atom    7 type  1   force =     0.00000000    0.00000000    0.00000000
     atom    8 type  1   force =     0.00000000    0.00000000    0.00000000
     atom    9 type  1   force =     0.00000000    0.00000000    0.00000000
     atom   10 type  1   force =     0.00000000    0.00000000    0.00000000
     atom   11 type  1   force =     0.00000000    0.00000000    0.00000000
     atom   12 type  1   force =     0.00000000    0.00000000    0.00000000
     atom   13 type  1   force =     0.00000000    0.00000000    0.00000000
     atom   14 type  1   force =     0.00000000    0.00000000    0.00000000
     atom   15 type  1   force =     0.00000000    0.00000000    0.00000000
     atom   16 type  1   force =     0.00000000    0.00000000    0.00000000
     atom   17 type  2   force =     0.00000000    0.00000000    0.00000000
     atom   18 type  2   force =     0.00000000    0.00000000    0.00000000
     atom   19 type  2   force =     0.00000000    0.00000000    0.00000000
     atom   20 type  2   force =     0.00000000    0.00000000    0.00000000
     atom   21 type  2   force =     0.00000000    0.00000000    0.00000000
     atom   22 type  2   force =     0.00000000    0.00000000    0.00000000
     atom   23 type  2   force =     0.00000000    0.00000000    0.00000000
     atom   24 type  2   force =     0.00000000    0.00000000    0.00000000
     atom   25 type  2   force =     0.00000000    0.00000000    0.00000000
     atom   26 type  2   force =     0.00000000    0.00000000    0.00000000
     atom   27 type  2   force =     0.00000000    0.00000000    0.00000000
     atom   28 type  2   force =     0.00000000    0.00000000    0.00000000
     atom   29 type  2   force =     0.00000000    0.00000000    0.00000000
     atom   30 type  2   force =     0.00000000    0.00000000    0.00000000
     atom   31 type  2   force =     0.00000000    0.00000000    0.00000000
     atom   32 type  2   force =     0.00000000    0.00000000    0.00000000
     atom   33 type  2   force =     0.00000000    0.00000000    0.00000000
     atom   34 type  2   force =     0.00000000    0.00000000    0.00000000
     atom   35 type  2   force =     0.00000000    0.00000000    0.00000000
     atom   36 type  2   force =     0.00000000    0.00000000    0.00000000
     atom   37 type  2   force =     0.00000000    0.00000000    0.00000000
     atom   38 type  2   force =     0.00000000    0.00000000    0.00000000
     atom   39 type  2   force =     0.00000000    0.00000000    0.00000000
     atom   40 type  2   force =     0.00000000    0.00000000    0.00000000
     atom   41 type  3   force =     0.00000000    0.00000000    0.00000000
     atom   42 type  3   force =     0.00000000    0.00000000    0.00000000
     atom   43 type  3   force =     0.00000000    0.00000000    0.00000000
     atom   44 type  3   force =     0.00000000    0.00000000    0.00000000
     atom   45 type  3   force =     0.00000000    0.00000000    0.00000000
     atom   46 type  3   force =     0.00000000    0.00000000    0.00000000
     atom   47 type  3   force =     0.00000000    0.00000000    0.00000000
     atom   48 type  3   force =     0.00000000    0.00000000    0.00000000
     atom   49 type  2   force =     0.00000000    0.00000000    0.00000000
     atom   50 type  2   force =     0.00000000    0.00000000    0.00000000
     atom   51 type  2   force =     0.00000000    0.00000000    0.00000000
     atom   52 type  2   force =     0.00000000    0.00000000    0.00000000
     atom   53 type  2   force =     0.00000000    0.00000000    0.00000000
     atom   54 type  2   force =     0.00000000    0.00000000    0.00000000
     atom   55 type  2   force =     0.00000000    0.00000000    0.00000000
     atom   56 type  2   force =     0.00000000    0.00000000    0.00000000
     atom   57 type  3   force =     0.00000000    0.00000000    0.00000000
     atom   58 type  3   force =     0.00000000    0.00000000    0.00000000
     atom   59 type  3   force =     0.00000000    0.00000000    0.00000000
     atom   60 type  3   force =     0.00000000    0.00000000    0.00000000
     atom   61 type  3   force =     0.00000000    0.00000000    0.00000000
     atom   62 type  3   force =     0.00000000    0.00000000    0.00000000
     atom   63 type  3   force =     0.00000000    0.00000000    0.00000000
     atom   64 type  3   force =     0.00000000    0.00000000    0.00000000
     atom   65 type  1   force =     0.00000000    0.00000000    0.00000000
     atom   66 type  1   force =     0.00000000    0.00000000    0.00000000
     atom   67 type  1   force =     0.00000000    0.00000000    0.00000000
     atom   68 type  1   force =     0.00000000    0.00000000    0.00000000
     atom   69 type  1   force =     0.00000000    0.00000000    0.00000000
     atom   70 type  1   force =     0.00000000    0.00000000    0.00000000
     atom   71 type  1   force =     0.00000000    0.00000000    0.00000000
     atom   72 type  1   force =     0.00000000    0.00000000    0.00000000
     atom   73 type  1   force =     0.00000000    0.00000000    0.00000000
     atom   74 type  1   force =     0.00000000    0.00000000    0.00000000
     atom   75 type  1   force =     0.00000000    0.00000000    0.00000000
     atom   76 type  1   force =     0.00000000    0.00000000    0.00000000
     atom   77 type  1   force =     0.00000000    0.00000000    0.00000000
     atom   78 type  1   force =     0.00000000    0.00000000    0.00000000
     atom   79 type  1   force =     0.00000000    0.00000000    0.00000000
     atom   80 type  1   force =     0.00000000    0.00000000    0.00000000
     atom   81 type  2   force =     0.00000000    0.00000000    0.00000000
     atom   82 type  2   force =     0.00000000    0.00000000    0.00000000
     atom   83 type  2   force =     0.00000000    0.00000000    0.00000000
     atom   84 type  2   force =     0.00000000    0.00000000    0.00000000
     atom   85 type  2   force =     0.00000000    0.00000000    0.00000000
     atom   86 type  2   force =     0.00000000    0.00000000    0.00000000
     atom   87 type  2   force =     0.00000000    0.00000000    0.00000000
     atom   88 type  2   force =     0.00000000    0.00000000    0.00000000
     atom   89 type  3   force =     0.00000000    0.00000000    0.00000000
     atom   90 type  3   force =     0.00000000    0.00000000    0.00000000
     atom   91 type  3   force =     0.00000000    0.00000000    0.00000000
     atom   92 type  3   force =     0.00000000    0.00000000    0.00000000
     atom   93 type  3   force =     0.00000000    0.00000000    0.00000000
     atom   94 type  3   force =     0.00000000    0.00000000    0.00000000
     atom   95 type  3   force =     0.00000000    0.00000000    0.00000000
     atom   96 type  3   force =     0.00000000    0.00000000    0.00000000
     atom   97 type  1   force =     0.00000000    0.00000000    0.00000000
     atom   98 type  1   force =     0.00000000    0.00000000    0.00000000
     atom   99 type  1   force =     0.00000000    0.00000000    0.00000000
     atom  100 type  1   force =     0.00000000    0.00000000    0.00000000
     atom  101 type  1   force =     0.00000000    0.00000000    0.00000000
     atom  102 type  1   force =     0.00000000    0.00000000    0.00000000
     atom  103 type  1   force =     0.00000000    0.00000000    0.00000000
     atom  104 type  1   force =     0.00000000    0.00000000    0.00000000
     atom  105 type  2   force =     0.00000000    0.00000000    0.00000000
     atom  106 type  2   force =     0.00000000    0.00000000    0.00000000
     atom  107 type  2   force =     0.00000000    0.00000000    0.00000000
     atom  108 type  2   force =     0.00000000    0.00000000    0.00000000
     atom  109 type  2   force =     0.00000000    0.00000000    0.00000000
     atom  110 type  2   force =     0.00000000    0.00000000    0.00000000
     atom  111 type  2   force =     0.00000000    0.00000000    0.00000000
     atom  112 type  2   force =     0.00000000    0.00000000    0.00000000
     atom  113 type  3   force =     0.00000000    0.00000000    0.00000000
     atom  114 type  3   force =     0.00000000    0.00000000    0.00000000
     atom  115 type  3   force =     0.00000000    0.00000000    0.00000000
     atom  116 type  3   force =     0.00000000    0.00000000    0.00000000
     atom  117 type  3   force =     0.00000000    0.00000000    0.00000000
     atom  118 type  3   force =     0.00000000    0.00000000    0.00000000
     atom  119 type  3   force =     0.00000000    0.00000000    0.00000000
     atom  120 type  3   force =     0.00000000    0.00000000    0.00000000
     atom  121 type  1   force =     0.00000000    0.00000000    0.00000000
     atom  122 type  1   force =     0.00000000    0.00000000    0.00000000
     atom  123 type  1   force =     0.00000000    0.00000000    0.00000000
     atom  124 type  1   force =     0.00000000    0.00000000    0.00000000
     atom  125 type  1   force =     0.00000000    0.00000000    0.00000000
     atom  126 type  1   force =     0.00000000    0.00000000    0.00000000
     atom  127 type  1   force =     0.00000000    0.00000000    0.00000000
     atom  128 type  1   force =     0.00000000    0.00000000    0.00000000
     atom  129 type  1   force =     0.00000000    0.00000000    0.00000000
     atom  130 type  1   force =     0.00000000    0.00000000    0.00000000
     atom  131 type  1   force =     0.00000000    0.00000000    0.00000000
     atom  132 type  1   force =     0.00000000    0.00000000    0.00000000
     atom  133 type  1   force =     0.00000000    0.00000000    0.00000000
     atom  134 type  1   force =     0.00000000    0.00000000    0.00000000
     atom  135 type  1   force =     0.00000000    0.00000000    0.00000000
     atom  136 type  1   force =     0.00000000    0.00000000    0.00000000
     atom  137 type  2   force =     0.00000000    0.00000000    0.00000000
     atom  138 type  2   force =     0.00000000    0.00000000    0.00000000
     atom  139 type  2   force =     0.00000000    0.00000000    0.00000000
     atom  140 type  2   force =     0.00000000    0.00000000    0.00000000
     atom  141 type  2   force =     0.00000000    0.00000000    0.00000000
     atom  142 type  2   force =     0.00000000    0.00000000    0.00000000
     atom  143 type  2   force =     0.00000000    0.00000000    0.00000000
     atom  144 type  2   force =     0.00000000    0.00000000    0.00000000
     atom  145 type  2   force =     0.00000000    0.00000000    0.00000000
     atom  146 type  2   force =     0.00000000    0.00000000    0.00000000
     atom  147 type  2   force =     0.00000000    0.00000000    0.00000000
     atom  148 type  2   force =     0.00000000    0.00000000    0.00000000
     atom  149 type  2   force =     0.00000000    0.00000000    0.00000000
     atom  150 type  2   force =     0.00000000    0.00000000    0.00000000
     atom  151 type  2   force =     0.00000000    0.00000000    0.00000000
     atom  152 type  2   force =     0.00000000    0.00000000    0.00000000
     atom  153 type  2   force =     0.00000000    0.00000000    0.00000000
     atom  154 type  2   force =     0.00000000    0.00000000    0.00000000
     atom  155 type  2   force =     0.00000000    0.00000000    0.00000000
     atom  156 type  2   force =     0.00000000    0.00000000    0.00000000
     atom  157 type  2   force =     0.00000000    0.00000000    0.00000000
     atom  158 type  2   force =     0.00000000    0.00000000    0.00000000
     atom  159 type  2   force =     0.00000000    0.00000000    0.00000000
     atom  160 type  2   force =     0.00000000    0.00000000    0.00000000
     atom  161 type  3   force =     0.00000000    0.00000000    0.00000000
     atom  162 type  3   force =     0.00000000    0.00000000    0.00000000
     atom  163 type  3   force =     0.00000000    0.00000000    0.00000000
     atom  164 type  3   force =     0.00000000    0.00000000    0.00000000
     atom  165 type  3   force =     0.00000000    0.00000000    0.00000000
     atom  166 type  3   force =     0.00000000    0.00000000    0.00000000
     atom  167 type  3   force =     0.00000000    0.00000000    0.00000000
     atom  168 type  3   force =     0.00000000    0.00000000    0.00000000
     atom  169 type  2   force =     0.00000000    0.00000000    0.00000000
     atom  170 type  2   force =     0.00000000    0.00000000    0.00000000
     atom  171 type  2   force =     0.00000000    0.00000000    0.00000000
     atom  172 type  2   force =     0.00000000    0.00000000    0.00000000
     atom  173 type  2   force =     0.00000000    0.00000000    0.00000000
     atom  174 type  2   force =     0.00000000    0.00000000    0.00000000
     atom  175 type  2   force =     0.00000000    0.00000000    0.00000000
     atom  176 type  2   force =     0.00000000    0.00000000    0.00000000
     atom  177 type  3   force =     0.00000000    0.00000000    0.00000000
     atom  178 type  3   force =     0.00000000    0.00000000    0.00000000
     atom  179 type  3   force =     0.00000000    0.00000000    0.00000000
     atom  180 type  3   force =     0.00000000    0.00000000    0.00000000
     atom  181 type  3   force =     0.00000000    0.00000000    0.00000000
     atom  182 type  3   force =     0.00000000    0.00000000    0.00000000
     atom  183 type  3   force =     0.00000000    0.00000000    0.00000000
     atom  184 type  3   force =     0.00000000    0.00000000    0.00000000
     atom  185 type  1   force =     0.00000000    0.00000000    0.00000000
     atom  186 type  1   force =     0.00000000    0.00000000    0.00000000
     atom  187 type  1   force =     0.00000000    0.00000000    0.00000000
     atom  188 type  1   force =     0.00000000    0.00000000    0.00000000
     atom  189 type  1   force =     0.00000000    0.00000000    0.00000000
     atom  190 type  1   force =     0.00000000    0.00000000    0.00000000
     atom  191 type  1   force =     0.00000000    0.00000000    0.00000000
     atom  192 type  1   force =     0.00000000    0.00000000    0.00000000
     atom  193 type  1   force =     0.00000000    0.00000000    0.00000000
     atom  194 type  1   force =     0.00000000    0.00000000    0.00000000
     atom  195 type  1   force =     0.00000000    0.00000000    0.00000000
     atom  196 type  1   force =     0.00000000    0.00000000    0.00000000
     atom  197 type  1   force =     0.00000000    0.00000000    0.00000000
     atom  198 type  1   force =     0.00000000    0.00000000    0.00000000
     atom  199 type  1   force =     0.00000000    0.00000000    0.00000000
     atom  200 type  1   force =     0.00000000    0.00000000    0.00000000
     atom  201 type  2   force =     0.00000000    0.00000000    0.00000000
     atom  202 type  2   force =     0.00000000    0.00000000    0.00000000
     atom  203 type  2   force =     0.00000000    0.00000000    0.00000000
     atom  204 type  2   force =     0.00000000    0.00000000    0.00000000
     atom  205 type  2   force =     0.00000000    0.00000000    0.00000000
     atom  206 type  2   force =     0.00000000    0.00000000    0.00000000
     atom  207 type  2   force =     0.00000000    0.00000000    0.00000000
     atom  208 type  2   force =     0.00000000    0.00000000    0.00000000
     atom  209 type  3   force =     0.00000000    0.00000000    0.00000000
     atom  210 type  3   force =     0.00000000    0.00000000    0.00000000
     atom  211 type  3   force =     0.00000000    0.00000000    0.00000000
     atom  212 type  3   force =     0.00000000    0.00000000    0.00000000
     atom  213 type  3   force =     0.00000000    0.00000000    0.00000000
     atom  214 type  3   force =     0.00000000    0.00000000    0.00000000
     atom  215 type  3   force =     0.00000000    0.00000000    0.00000000
     atom  216 type  3   force =     0.00000000    0.00000000    0.00000000
     atom  217 type  1   force =     0.00000000    0.00000000    0.00000000
     atom  218 type  1   force =     0.00000000    0.00000000    0.00000000
     atom  219 type  1   force =     0.00000000    0.00000000    0.00000000
     atom  220 type  1   force =     0.00000000    0.00000000    0.00000000
     atom  221 type  1   force =     0.00000000    0.00000000    0.00000000
     atom  222 type  1   force =     0.00000000    0.00000000    0.00000000
     atom  223 type  1   force =     0.00000000    0.00000000    0.00000000
     atom  224 type  1   force =     0.00000000    0.00000000    0.00000000
     atom  225 type  2   force =     0.00000000    0.00000000    0.00000000
     atom  226 type  2   force =     0.00000000    0.00000000    0.00000000
     atom  227 type  2   force =     0.00000000    0.00000000    0.00000000
     atom  228 type  2   force =     0.00000000    0.00000000    0.00000000
     atom  229 type  2   force =     0.00000000    0.00000000    0.00000000
     atom  230 type  2   force =     0.00000000    0.00000000    0.00000000
     atom  231 type  2   force =     0.00000000    0.00000000    0.00000000
     atom  232 type  2   force =     0.00000000    0.00000000    0.00000000
     atom  233 type  3   force =     0.00000000    0.00000000    0.00000000
     atom  234 type  3   force =     0.00000000    0.00000000    0.00000000
     atom  235 type  3   force =     0.00000000    0.00000000    0.00000000
     atom  236 type  3   force =     0.00000000    0.00000000    0.00000000
     atom  237 type  3   force =     0.00000000    0.00000000    0.00000000
     atom  238 type  3   force =     0.00000000    0.00000000    0.00000000
     atom  239 type  3   force =     0.00000000    0.00000000    0.00000000
     atom  240 type  3   force =     0.00000000    0.00000000    0.00000000
     atom  241 type  1   force =     0.00000000    0.00000000    0.00000000
     atom  242 type  1   force =     0.00000000    0.00000000    0.00000000
     atom  243 type  1   force =     0.00000000    0.00000000    0.00000000
     atom  244 type  1   force =     0.00000000    0.00000000    0.00000000
     atom  245 type  1   force =     0.00000000    0.00000000    0.00000000
     atom  246 type  1   force =     0.00000000    0.00000000    0.00000000
     atom  247 type  1   force =     0.00000000    0.00000000    0.00000000
     atom  248 type  1   force =     0.00000000    0.00000000    0.00000000
     atom  249 type  1   force =     0.00000000    0.00000000    0.00000000
     atom  250 type  1   force =     0.00000000    0.00000000    0.00000000
     atom  251 type  1   force =     0.00000000    0.00000000    0.00000000
     atom  252 type  1   force =     0.00000000    0.00000000    0.00000000
     atom  253 type  1   force =     0.00000000    0.00000000    0.00000000
     atom  254 type  1   force =     0.00000000    0.00000000    0.00000000
     atom  255 type  1   force =     0.00000000    0.00000000    0.00000000
     atom  256 type  1   force =     0.00000000    0.00000000    0.00000000
     atom  257 type  2   force =     0.00000000    0.00000000    0.00000000
     atom  258 type  2   force =     0.00000000    0.00000000    0.00000000
     atom  259 type  2   force =     0.00000000    0.00000000    0.00000000
     atom  260 type  2   force =     0.00000000    0.00000000    0.00000000
     atom  261 type  2   force =     0.00000000    0.00000000    0.00000000
     atom  262 type  2   force =     0.00000000    0.00000000    0.00000000
     atom  263 type  2   force =     0.00000000    0.00000000    0.00000000
     atom  264 type  2   force =     0.00000000    0.00000000    0.00000000
     atom  265 type  2   force =     0.00000000    0.00000000    0.00000000
     atom  266 type  2   force =     0.00000000    0.00000000    0.00000000
     atom  267 type  2   force =     0.00000000    0.00000000    0.00000000
     atom  268 type  2   force =     0.00000000    0.00000000    0.00000000
     atom  269 type  2   force =     0.00000000    0.00000000    0.00000000
     atom  270 type  2   force =     0.00000000    0.00000000    0.00000000
     atom  271 type  2   force =     0.00000000    0.00000000    0.00000000
     atom  272 type  2   force =     0.00000000    0.00000000    0.00000000
     atom  273 type  2   force =     0.00000000    0.00000000    0.00000000
     atom  274 type  2   force =     0.00000000    0.00000000    0.00000000
     atom  275 type  2   force =     0.00000000    0.00000000    0.00000000
     atom  276 type  2   force =     0.00000000    0.00000000    0.00000000
     atom  277 type  2   force =     0.00000000    0.00000000    0.00000000
     atom  278 type  2   force =     0.00000000    0.00000000    0.00000000
     atom  279 type  2   force =     0.00000000    0.00000000    0.00000000
     atom  280 type  2   force =     0.00000000    0.00000000    0.00000000
     atom  281 type  3   force =     0.00000000    0.00000000    0.00000000
     atom  282 type  3   force =     0.00000000    0.00000000    0.00000000
     atom  283 type  3   force =     0.00000000    0.00000000    0.00000000
     atom  284 type  3   force =     0.00000000    0.00000000    0.00000000
     atom  285 type  3   force =     0.00000000    0.00000000    0.00000000
     atom  286 type  3   force =     0.00000000    0.00000000    0.00000000
     atom  287 type  3   force =     0.00000000    0.00000000    0.00000000
     atom  288 type  3   force =     0.00000000    0.00000000    0.00000000
     atom  289 type  2   force =     0.00000000    0.00000000    0.00000000
     atom  290 type  2   force =     0.00000000    0.00000000    0.00000000
     atom  291 type  2   force =     0.00000000    0.00000000    0.00000000
     atom  292 type  2   force =     0.00000000    0.00000000    0.00000000
     atom  293 type  2   force =     0.00000000    0.00000000    0.00000000
     atom  294 type  2   force =     0.00000000    0.00000000    0.00000000
     atom  295 type  2   force =     0.00000000    0.00000000    0.00000000
     atom  296 type  2   force =     0.00000000    0.00000000    0.00000000
     atom  297 type  3   force =     0.00000000    0.00000000    0.00000000
     atom  298 type  3   force =     0.00000000    0.00000000    0.00000000
     atom  299 type  3   force =     0.00000000    0.00000000    0.00000000
     atom  300 type  3   force =     0.00000000    0.00000000    0.00000000
     atom  301 type  3   force =     0.00000000    0.00000000    0.00000000
     atom  302 type  3   force =     0.00000000    0.00000000    0.00000000
     atom  303 type  3   force =     0.00000000    0.00000000    0.00000000
     atom  304 type  3   force =     0.00000000    0.00000000    0.00000000
     atom  305 type  1   force =     0.00000000    0.00000000    0.00000000
     atom  306 type  1   force =     0.00000000    0.00000000    0.00000000
     atom  307 type  1   force =     0.00000000    0.00000000    0.00000000
     atom  308 type  1   force =     0.00000000    0.00000000    0.00000000
     atom  309 type  1   force =     0.00000000    0.00000000    0.00000000
     atom  310 type  1   force =     0.00000000    0.00000000    0.00000000
     atom  311 type  1   force =     0.00000000    0.00000000    0.00000000
     atom  312 type  1   force =     0.00000000    0.00000000    0.00000000
     atom  313 type  1   force =     0.00000000    0.00000000    0.00000000
     atom  314 type  1   force =     0.00000000    0.00000000    0.00000000
     atom  315 type  1   force =     0.00000000    0.00000000    0.00000000
     atom  316 type  1   force =     0.00000000    0.00000000    0.00000000
     atom  317 type  1   force =     0.00000000    0.00000000    0.00000000
     atom  318 type  1   force =     0.00000000    0.00000000    0.00000000
     atom  319 type  1   force =     0.00000000    0.00000000    0.00000000
     atom  320 type  1   force =     0.00000000    0.00000000    0.00000000
     atom  321 type  2   force =     0.00000000    0.00000000    0.00000000
     atom  322 type  2   force =     0.00000000    0.00000000    0.00000000
     atom  323 type  2   force =     0.00000000    0.00000000    0.00000000
     atom  324 type  2   force =     0.00000000    0.00000000    0.00000000
     atom  325 type  2   force =     0.00000000    0.00000000    0.00000000
     atom  326 type  2   force =     0.00000000    0.00000000    0.00000000
     atom  327 type  2   force =     0.00000000    0.00000000    0.00000000
     atom  328 type  2   force =     0.00000000    0.00000000    0.00000000
     atom  329 type  3   force =     0.00000000    0.00000000    0.00000000
     atom  330 type  3   force =     0.00000000    0.00000000    0.00000000
     atom  331 type  3   force =     0.00000000    0.00000000    0.00000000
     atom  332 type  3   force =     0.00000000    0.00000000    0.00000000
     atom  333 type  3   force =     0.00000000    0.00000000    0.00000000
     atom  334 type  3   force =     0.00000000    0.00000000    0.00000000
     atom  335 type  3   force =     0.00000000    0.00000000    0.00000000
     atom  336 type  3   force =     0.00000000    0.00000000    0.00000000
     atom  337 type  1   force =     0.00000000    0.00000000    0.00000000
     atom  338 type  1   force =     0.00000000    0.00000000    0.00000000
     atom  339 type  1   force =     0.00000000    0.00000000    0.00000000
     atom  340 type  1   force =     0.00000000    0.00000000    0.00000000
     atom  341 type  1   force =     0.00000000    0.00000000    0.00000000
     atom  342 type  1   force =     0.00000000    0.00000000    0.00000000
     atom  343 type  1   force =     0.00000000    0.00000000    0.00000000
     atom  344 type  1   force =     0.00000000    0.00000000    0.00000000
     atom  345 type  2   force =     0.00000000    0.00000000    0.00000000
     atom  346 type  2   force =     0.00000000    0.00000000    0.00000000
     atom  347 type  2   force =     0.00000000    0.00000000    0.00000000
     atom  348 type  2   force =     0.00000000    0.00000000    0.00000000
     atom  349 type  2   force =     0.00000000    0.00000000    0.00000000
     atom  350 type  2   force =     0.00000000    0.00000000    0.00000000
     atom  351 type  2   force =     0.00000000    0.00000000    0.00000000
     atom  352 type  2   force =     0.00000000    0.00000000    0.00000000
     atom  353 type  3   force =     0.00000000    0.00000000    0.00000000
     atom  354 type  3   force =     0.00000000    0.00000000    0.00000000
     atom  355 type  3   force =     0.00000000    0.00000000    0.00000000
     atom  356 type  3   force =     0.00000000    0.00000000    0.00000000
     atom  357 type  3   force =     0.00000000    0.00000000    0.00000000
     atom  358 type  3   force =     0.00000000    0.00000000    0.00000000
     atom  359 type  3   force =     0.00000000    0.00000000    0.00000000
     atom  360 type  3   force =     0.00000000    0.00000000    0.00000000
     atom  361 type  1   force =     0.00000000    0.00000000    0.00000000
     atom  362 type  1   force =     0.00000000    0.00000000    0.00000000
     atom  363 type  1   force =     0.00000000    0.00000000    0.00000000
     atom  364 type  1   force =     0.00000000    0.00000000    0.00000000
     atom  365 type  1   force =     0.00000000    0.00000000    0.00000000
     atom  366 type  1   force =     0.00000000    0.00000000    0.00000000
     atom  367 type  1   force =     0.00000000    0.00000000    0.00000000
     atom  368 type  1   force =     0.00000000    0.00000000    0.00000000
     atom  369 type  1   force =     0.00000000    0.00000000    0.00000000
     atom  370 type  1   force =     0.00000000    0.00000000    0.00000000
     atom  371 type  1   force =     0.00000000    0.00000000    0.00000000
     atom  372 type  1   force =     0.00000000    0.00000000    0.00000000
     atom  373 type  1   force =     0.00000000    0.00000000    0.00000000
     atom  374 type  1   force =     0.00000000    0.00000000    0.00000000
     atom  375 type  1   force =     0.00000000    0.00000000    0.00000000
     atom  376 type  1   force =     0.00000000    0.00000000    0.00000000
     atom  377 type  2   force =     0.00000000    0.00000000    0.00000000
     atom  378 type  2   force =     0.00000000    0.00000000    0.00000000
     atom  379 type  2   force =     0.00000000    0.00000000    0.00000000
     atom  380 type  2   force =     0.00000000    0.00000000    0.00000000
     atom  381 type  2   force =     0.00000000    0.00000000    0.00000000
     atom  382 type  2   force =     0.00000000    0.00000000    0.00000000
     atom  383 type  2   force =     0.00000000    0.00000000    0.00000000
     atom  384 type  2   force =     0.00000000    0.00000000    0.00000000
     atom  385 type  2   force =     0.00000000    0.00000000    0.00000000
     atom  386 type  2   force =     0.00000000    0.00000000    0.00000000
     atom  387 type  2   force =     0.00000000    0.00000000    0.00000000
     atom  388 type  2   force =     0.00000000    0.00000000    0.00000000
     atom  389 type  2   force =     0.00000000    0.00000000    0.00000000
     atom  390 type  2   force =     0.00000000    0.00000000    0.00000000
     atom  391 type  2   force =     0.00000000    0.00000000    0.00000000
     atom  392 type  2   force =     0.00000000    0.00000000    0.00000000
     atom  393 type  2   force =     0.00000000    0.00000000    0.00000000
     atom  394 type  2   force =     0.00000000    0.00000000    0.00000000
     atom  395 type  2   force =     0.00000000    0.00000000    0.00000000
     atom  396 type  2   force =     0.00000000    0.00000000    0.00000000
     atom  397 type  2   force =     0.00000000    0.00000000    0.00000000
     atom  398 type  2   force =     0.00000000    0.00000000    0.00000000
     atom  399 type  2   force =     0.00000000    0.00000000    0.00000000
     atom  400 type  2   force =     0.00000000    0.00000000    0.00000000
     atom  401 type  3   force =     0.00000000    0.00000000    0.00000000
     atom  402 type  3   force =     0.00000000    0.00000000    0.00000000
     atom  403 type  3   force =     0.00000000    0.00000000    0.00000000
     atom  404 type  3   force =     0.00000000    0.00000000    0.00000000
     atom  405 type  3   force =     0.00000000    0.00000000    0.00000000
     atom  406 type  3   force =     0.00000000    0.00000000    0.00000000
     atom  407 type  3   force =     0.00000000    0.00000000    0.00000000
     atom  408 type  3   force =     0.00000000    0.00000000    0.00000000
     atom  409 type  2   force =     0.00000000    0.00000000    0.00000000
     atom  410 type  2   force =     0.00000000    0.00000000    0.00000000
     atom  411 type  2   force =     0.00000000    0.00000000    0.00000000
     atom  412 type  2   force =     0.00000000    0.00000000    0.00000000
     atom  413 type  2   force =     0.00000000    0.00000000    0.00000000
     atom  414 type  2   force =     0.00000000    0.00000000    0.00000000
     atom  415 type  2   force =     0.00000000    0.00000000    0.00000000
     atom  416 type  2   force =     0.00000000    0.00000000    0.00000000
     atom  417 type  3   force =     0.00000000    0.00000000    0.00000000
     atom  418 type  3   force =     0.00000000    0.00000000    0.00000000
     atom  419 type  3   force =     0.00000000    0.00000000    0.00000000
     atom  420 type  3   force =     0.00000000    0.00000000    0.00000000
     atom  421 type  3   force =     0.00000000    0.00000000    0.00000000
     atom  422 type  3   force =     0.00000000    0.00000000    0.00000000
     atom  423 type  3   force =     0.00000000    0.00000000    0.00000000
     atom  424 type  3   force =     0.00000000    0.00000000    0.00000000
     atom  425 type  1   force =     0.00000000    0.00000000    0.00000000
     atom  426 type  1   force =     0.00000000    0.00000000    0.00000000
     atom  427 type  1   force =     0.00000000    0.00000000    0.00000000
     atom  428 type  1   force =     0.00000000    0.00000000    0.00000000
     atom  429 type  1   force =     0.00000000    0.00000000    0.00000000
     atom  430 type  1   force =     0.00000000    0.00000000    0.00000000
     atom  431 type  1   force =     0.00000000    0.00000000    0.00000000
     atom  432 type  1   force =     0.00000000    0.00000000    0.00000000
     atom  433 type  1   force =     0.00000000    0.00000000    0.00000000
     atom  434 type  1   force =     0.00000000    0.00000000    0.00000000
     atom  435 type  1   force =     0.00000000    0.00000000    0.00000000
     atom  436 type  1   force =     0.00000000    0.00000000    0.00000000
     atom  437 type  1   force =     0.00000000    0.00000000    0.00000000
     atom  438 type  1   force =     0.00000000    0.00000000    0.00000000
     atom  439 type  1   force =     0.00000000    0.00000000    0.00000000
     atom  440 type  1   force =     0.00000000    0.00000000    0.00000000
     atom  441 type  2   force =     0.00000000    0.00000000    0.00000000
     atom  442 type  2   force =     0.00000000    0.00000000    0.00000000
     atom  443 type  2   force =     0.00000000    0.00000000    0.00000000
     atom  444 type  2   force =     0.00000000    0.00000000    0.00000000
     atom  445 type  2   force =     0.00000000    0.00000000    0.00000000
     atom  446 type  2   force =     0.00000000    0.00000000    0.00000000
     atom  447 type  2   force =     0.00000000    0.00000000    0.00000000
     atom  448 type  2   force =     0.00000000    0.00000000    0.00000000
     atom  449 type  3   force =     0.00000000    0.00000000    0.00000000
     atom  450 type  3   force =     0.00000000    0.00000000    0.00000000
     atom  451 type  3   force =     0.00000000    0.00000000    0.00000000
     atom  452 type  3   force =     0.00000000    0.00000000    0.00000000
     atom  453 type  3   force =     0.00000000    0.00000000    0.00000000
     atom  454 type  3   force =     0.00000000    0.00000000    0.00000000
     atom  455 type  3   force =     0.00000000    0.00000000    0.00000000
     atom  456 type  3   force =     0.00000000    0.00000000    0.00000000
     atom  457 type  1   force =     0.00000000    0.00000000    0.00000000
     atom  458 type  1   force =     0.00000000    0.00000000    0.00000000
     atom  459 type  1   force =     0.00000000    0.00000000    0.00000000
     atom  460 type  1   force =     0.00000000    0.00000000    0.00000000
     atom  461 type  1   force =     0.00000000    0.00000000    0.00000000
     atom  462 type  1   force =     0.00000000    0.00000000    0.00000000
     atom  463 type  1   force =     0.00000000    0.00000000    0.00000000
     atom  464 type  1   force =     0.00000000    0.00000000    0.00000000
     atom  465 type  2   force =     0.00000000    0.00000000    0.00000000
     atom  466 type  2   force =     0.00000000    0.00000000    0.00000000
     atom  467 type  2   force =     0.00000000    0.00000000    0.00000000
     atom  468 type  2   force =     0.00000000    0.00000000    0.00000000
     atom  469 type  2   force =     0.00000000    0.00000000    0.00000000
     atom  470 type  2   force =     0.00000000    0.00000000    0.00000000
     atom  471 type  2   force =     0.00000000    0.00000000    0.00000000
     atom  472 type  2   force =     0.00000000    0.00000000    0.00000000
     atom  473 type  3   force =     0.00000000    0.00000000    0.00000000
     atom  474 type  3   force =     0.00000000    0.00000000    0.00000000
     atom  475 type  3   force =     0.00000000    0.00000000    0.00000000
     atom  476 type  3   force =     0.00000000    0.00000000    0.00000000
     atom  477 type  3   force =     0.00000000    0.00000000    0.00000000
     atom  478 type  3   force =     0.00000000    0.00000000    0.00000000
     atom  479 type  3   force =     0.00000000    0.00000000    0.00000000
     atom  480 type  3   force =     0.00000000    0.00000000    0.00000000
     atom  481 type  4   force =     0.00000000    0.00000000    0.00000000
     atom  482 type  4   force =     0.00000000    0.00000000    0.00000000
     atom  483 type  4   force =     0.00000000    0.00000000    0.00000000
     atom  484 type  4   force =     0.00000000    0.00000000    0.00000000
     atom  485 type  4   force =     0.00000000    0.00000000    0.00000000
     atom  486 type  4   force =     0.00000000    0.00000000    0.00000000
     atom  487 type  4   force =     0.00000000    0.00000000    0.00000000
     atom  488 type  4   force =     0.00000000    0.00000000    0.00000000
     atom  489 type  4   force =     0.00000000    0.00000000    0.00000000
     atom  490 type  4   force =     0.00000000    0.00000000    0.00000000
     atom  491 type  4   force =     0.00000000    0.00000000    0.00000000
     atom  492 type  4   force =     0.00000000    0.00000000    0.00000000
     atom  493 type  4   force =     0.00000000    0.00000000    0.00000000
     atom  494 type  4   force =     0.00000000    0.00000000    0.00000000
     atom  495 type  4   force =     0.00000000    0.00000000    0.00000000
     atom  496 type  4   force =     0.00000000    0.00000000    0.00000000
     The SCF correction term to forces
     atom    1 type  1   force =     0.00000902   -0.00000543   -0.00000132
     atom    2 type  1   force =     0.00000833   -0.00000538   -0.00000103
     atom    3 type  1   force =     0.00000918   -0.00000408   -0.00000017
     atom    4 type  1   force =     0.00000801   -0.00000476   -0.00000076
     atom    5 type  1   force =     0.00001075   -0.00000629   -0.00000118
     atom    6 type  1   force =     0.00000508   -0.00000261   -0.00000026
     atom    7 type  1   force =     0.00000905   -0.00000211    0.00000040
     atom    8 type  1   force =     0.00001036   -0.00000560   -0.00000085
     atom    9 type  1   force =     0.00001163    0.00000027    0.00000122
     atom   10 type  1   force =     0.00001079    0.00000178    0.00000232
     atom   11 type  1   force =     0.00000919    0.00000252    0.00000289
     atom   12 type  1   force =     0.00000960    0.00000384    0.00000335
     atom   13 type  1   force =     0.00000500    0.00000704    0.00000459
     atom   14 type  1   force =     0.00001381   -0.00000178    0.00000062
     atom   15 type  1   force =     0.00001292   -0.00000011    0.00000148
     atom   16 type  1   force =     0.00000719    0.00000611    0.00000424
     atom   17 type  2   force =    -0.00000088    0.00000640    0.00000159
     atom   18 type  2   force =    -0.00000114    0.00000652    0.00000168
     atom   19 type  2   force =    -0.00000041    0.00000683    0.00000195
     atom   20 type  2   force =    -0.00000116    0.00000709    0.00000193
     atom   21 type  2   force =     0.00000090    0.00000841    0.00000236
     atom   22 type  2   force =    -0.00000186    0.00000620    0.00000147
     atom   23 type  2   force =    -0.00000163    0.00000688    0.00000149
     atom   24 type  2   force =    -0.00000098    0.00000869    0.00000200
     atom   25 type  2   force =    -0.00000252    0.00000529    0.00000377
     atom   26 type  2   force =    -0.00000193    0.00000613    0.00000444
     atom   27 type  2   force =    -0.00000163    0.00000659    0.00000487
     atom   28 type  2   force =    -0.00000158    0.00000716    0.00000514
     atom   29 type  2   force =    -0.00000146    0.00000943    0.00000624
     atom   30 type  2   force =    -0.00000182    0.00000461    0.00000367
     atom   31 type  2   force =    -0.00000183    0.00000550    0.00000391
     atom   32 type  2   force =    -0.00000028    0.00000928    0.00000607
     atom   33 type  2   force =    -0.00000589    0.00000364    0.00000257
     atom   34 type  2   force =    -0.00000754    0.00000249    0.00000230
     atom   35 type  2   force =    -0.00000747    0.00000283    0.00000218
     atom   36 type  2   force =    -0.00000732    0.00000346    0.00000241
     atom   37 type  2   force =    -0.00000682    0.00000276    0.00000212
     atom   38 type  2   force =    -0.00000701    0.00000292    0.00000245
     atom   39 type  2   force =    -0.00000657    0.00000312    0.00000260
     atom   40 type  2   force =    -0.00000755    0.00000292    0.00000237
     atom   41 type  3   force =    -0.00000065   -0.00000100    0.00000127
     atom   42 type  3   force =    -0.00000086   -0.00000112    0.00000120
     atom   43 type  3   force =    -0.00000086   -0.00000107    0.00000118
     atom   44 type  3   force =    -0.00000084   -0.00000108    0.00000128
     atom   45 type  3   force =    -0.00000080   -0.00000109    0.00000113
     atom   46 type  3   force =    -0.00000087   -0.00000084    0.00000125
     atom   47 type  3   force =    -0.00000075   -0.00000093    0.00000129
     atom   48 type  3   force =    -0.00000086   -0.00000118    0.00000122
     atom   49 type  2   force =     0.00000052    0.00000633   -0.00000263
     atom   50 type  2   force =    -0.00000021    0.00000621   -0.00000288
     atom   51 type  2   force =    -0.00000015    0.00000649   -0.00000304
     atom   52 type  2   force =     0.00000030    0.00000670   -0.00000299
     atom   53 type  2   force =    -0.00000021    0.00000523   -0.00000299
     atom   54 type  2   force =    -0.00000027    0.00000525   -0.00000247
     atom   55 type  2   force =     0.00000010    0.00000559   -0.00000246
     atom   56 type  2   force =    -0.00000006    0.00000589   -0.00000307
     atom   57 type  3   force =     0.00000142    0.00000076   -0.00000071
     atom   58 type  3   force =     0.00000140    0.00000082   -0.00000078
     atom   59 type  3   force =     0.00000141    0.00000082   -0.00000083
     atom   60 type  3   force =     0.00000151    0.00000078   -0.00000081
     atom   61 type  3   force =     0.00000131    0.00000066   -0.00000082
     atom   62 type  3   force =     0.00000128    0.00000071   -0.00000068
     atom   63 type  3   force =     0.00000136    0.00000080   -0.00000070
     atom   64 type  3   force =     0.00000146    0.00000067   -0.00000086
     atom   65 type  1   force =     0.00000200    0.00001089    0.00000861
     atom   66 type  1   force =     0.00000106    0.00001119    0.00000913
     atom   67 type  1   force =     0.00000051    0.00001109    0.00000921
     atom   68 type  1   force =     0.00000020    0.00001124    0.00000901
     atom   69 type  1   force =    -0.00000313    0.00001282    0.00000919
     atom   70 type  1   force =     0.00000467    0.00001019    0.00000917
     atom   71 type  1   force =     0.00000351    0.00001070    0.00000884
     atom   72 type  1   force =     0.00000032    0.00001193    0.00000889
     atom   73 type  1   force =     0.00001462    0.00001490    0.00001210
     atom   74 type  1   force =     0.00001487    0.00001587    0.00001327
     atom   75 type  1   force =     0.00001381    0.00001531    0.00001312
     atom   76 type  1   force =     0.00001460    0.00001682    0.00001376
     atom   77 type  1   force =     0.00001226    0.00001652    0.00001306
     atom   78 type  1   force =     0.00001655    0.00001486    0.00001292
     atom   79 type  1   force =     0.00001616    0.00001559    0.00001308
     atom   80 type  1   force =     0.00001428    0.00001758    0.00001379
     atom   81 type  2   force =    -0.00000884    0.00000501   -0.00000139
     atom   82 type  2   force =    -0.00000882    0.00000515   -0.00000163
     atom   83 type  2   force =    -0.00000853    0.00000522   -0.00000130
     atom   84 type  2   force =    -0.00000990    0.00000558   -0.00000138
     atom   85 type  2   force =    -0.00000785    0.00000576   -0.00000084
     atom   86 type  2   force =    -0.00001055    0.00000586   -0.00000173
     atom   87 type  2   force =    -0.00001044    0.00000609   -0.00000158
     atom   88 type  2   force =    -0.00000949    0.00000651   -0.00000135
     atom   89 type  3   force =    -0.00000152    0.00000057   -0.00000046
     atom   90 type  3   force =    -0.00000155    0.00000058   -0.00000036
     atom   91 type  3   force =    -0.00000154    0.00000060   -0.00000037
     atom   92 type  3   force =    -0.00000138    0.00000059   -0.00000034
     atom   93 type  3   force =    -0.00000177    0.00000077   -0.00000050
     atom   94 type  3   force =    -0.00000123    0.00000048   -0.00000013
     atom   95 type  3   force =    -0.00000144    0.00000059   -0.00000030
     atom   96 type  3   force =    -0.00000178    0.00000069   -0.00000043
     atom   97 type  1   force =    -0.00000860    0.00000043   -0.00000329
     atom   98 type  1   force =    -0.00000886    0.00000066   -0.00000368
     atom   99 type  1   force =    -0.00000977    0.00000060   -0.00000378
     atom  100 type  1   force =    -0.00000849    0.00000076   -0.00000317
     atom  101 type  1   force =    -0.00001015    0.00000125   -0.00000373
     atom  102 type  1   force =    -0.00000718    0.00000107   -0.00000309
     atom  103 type  1   force =    -0.00000841    0.00000114   -0.00000368
     atom  104 type  1   force =    -0.00000979    0.00000141   -0.00000377
     atom  105 type  2   force =     0.00000654   -0.00000775   -0.00000070
     atom  106 type  2   force =     0.00000718   -0.00000763   -0.00000083
     atom  107 type  2   force =     0.00000725   -0.00000776   -0.00000085
     atom  108 type  2   force =     0.00000713   -0.00000780   -0.00000062
     atom  109 type  2   force =     0.00000773   -0.00000783   -0.00000086
     atom  110 type  2   force =     0.00000757   -0.00000769   -0.00000063
     atom  111 type  2   force =     0.00000750   -0.00000810   -0.00000068
     atom  112 type  2   force =     0.00000763   -0.00000774   -0.00000087
     atom  113 type  3   force =    -0.00000027    0.00000112   -0.00000004
     atom  114 type  3   force =    -0.00000017    0.00000123   -0.00000005
     atom  115 type  3   force =    -0.00000027    0.00000123   -0.00000008
     atom  116 type  3   force =    -0.00000032    0.00000122   -0.00000010
     atom  117 type  3   force =    -0.00000016    0.00000117   -0.00000010
     atom  118 type  3   force =    -0.00000013    0.00000121   -0.00000005
     atom  119 type  3   force =    -0.00000011    0.00000118   -0.00000002
     atom  120 type  3   force =    -0.00000025    0.00000125   -0.00000010
     atom  121 type  1   force =    -0.00000835    0.00000539   -0.00000142
     atom  122 type  1   force =    -0.00000865    0.00000530   -0.00000052
     atom  123 type  1   force =    -0.00000731    0.00000467   -0.00000130
     atom  124 type  1   force =    -0.00000808    0.00000434   -0.00000087
     atom  125 type  1   force =    -0.00000932    0.00000641   -0.00000163
     atom  126 type  1   force =    -0.00000794    0.00000286   -0.00000010
     atom  127 type  1   force =    -0.00000660    0.00000402   -0.00000122
     atom  128 type  1   force =    -0.00000904    0.00000630   -0.00000142
     atom  129 type  1   force =    -0.00001049   -0.00000173    0.00000229
     atom  130 type  1   force =    -0.00001153   -0.00000061    0.00000188
     atom  131 type  1   force =    -0.00001058   -0.00000178    0.00000167
     atom  132 type  1   force =    -0.00000906   -0.00000347    0.00000301
     atom  133 type  1   force =    -0.00001304    0.00000168    0.00000034
     atom  134 type  1   force =    -0.00000761   -0.00000530    0.00000382
     atom  135 type  1   force =    -0.00000864   -0.00000404    0.00000303
     atom  136 type  1   force =    -0.00001321    0.00000120    0.00000080
     atom  137 type  2   force =     0.00000080   -0.00000692    0.00000149
     atom  138 type  2   force =     0.00000116   -0.00000649    0.00000186
     atom  139 type  2   force =     0.00000072   -0.00000686    0.00000177
     atom  140 type  2   force =     0.00000052   -0.00000706    0.00000193
     atom  141 type  2   force =     0.00000130   -0.00000613    0.00000121
     atom  142 type  2   force =     0.00000017   -0.00000764    0.00000239
     atom  143 type  2   force =    -0.00000004   -0.00000746    0.00000174
     atom  144 type  2   force =     0.00000111   -0.00000632    0.00000137
     atom  145 type  2   force =     0.00000186   -0.00000616    0.00000418
     atom  146 type  2   force =     0.00000224   -0.00000565    0.00000434
     atom  147 type  2   force =     0.00000239   -0.00000639    0.00000429
     atom  148 type  2   force =     0.00000164   -0.00000727    0.00000506
     atom  149 type  2   force =     0.00000237   -0.00000502    0.00000350
     atom  150 type  2   force =     0.00000127   -0.00000864    0.00000600
     atom  151 type  2   force =     0.00000248   -0.00000736    0.00000473
     atom  152 type  2   force =     0.00000276   -0.00000485    0.00000348
     atom  153 type  2   force =     0.00000714   -0.00000268    0.00000198
     atom  154 type  2   force =     0.00000679   -0.00000320    0.00000270
     atom  155 type  2   force =     0.00000588   -0.00000358    0.00000230
     atom  156 type  2   force =     0.00000694   -0.00000312    0.00000215
     atom  157 type  2   force =     0.00000709   -0.00000330    0.00000229
     atom  158 type  2   force =     0.00000747   -0.00000259    0.00000237
     atom  159 type  2   force =     0.00000737   -0.00000294    0.00000227
     atom  160 type  2   force =     0.00000707   -0.00000311    0.00000246
     atom  161 type  3   force =     0.00000080    0.00000108    0.00000111
     atom  162 type  3   force =     0.00000081    0.00000097    0.00000130
     atom  163 type  3   force =     0.00000071    0.00000078    0.00000123
     atom  164 type  3   force =     0.00000085    0.00000087    0.00000121
     atom  165 type  3   force =     0.00000083    0.00000082    0.00000124
     atom  166 type  3   force =     0.00000087    0.00000115    0.00000122
     atom  167 type  3   force =     0.00000088    0.00000106    0.00000119
     atom  168 type  3   force =     0.00000086    0.00000094    0.00000126
     atom  169 type  2   force =    -0.00000027   -0.00000536   -0.00000262
     atom  170 type  2   force =     0.00000009   -0.00000566   -0.00000303
     atom  171 type  2   force =     0.00000001   -0.00000612   -0.00000307
     atom  172 type  2   force =    -0.00000032   -0.00000551   -0.00000264
     atom  173 type  2   force =     0.00000013   -0.00000556   -0.00000298
     atom  174 type  2   force =     0.00000028   -0.00000570   -0.00000253
     atom  175 type  2   force =     0.00000022   -0.00000599   -0.00000280
     atom  176 type  2   force =     0.00000007   -0.00000578   -0.00000311
     atom  177 type  3   force =    -0.00000136   -0.00000068   -0.00000072
     atom  178 type  3   force =    -0.00000131   -0.00000073   -0.00000082
     atom  179 type  3   force =    -0.00000141   -0.00000086   -0.00000084
     atom  180 type  3   force =    -0.00000145   -0.00000069   -0.00000074
     atom  181 type  3   force =    -0.00000144   -0.00000065   -0.00000084
     atom  182 type  3   force =    -0.00000125   -0.00000079   -0.00000070
     atom  183 type  3   force =    -0.00000135   -0.00000087   -0.00000078
     atom  184 type  3   force =    -0.00000146   -0.00000070   -0.00000086
     atom  185 type  1   force =    -0.00000094   -0.00001120    0.00000870
     atom  186 type  1   force =    -0.00000202   -0.00001115    0.00000919
     atom  187 type  1   force =    -0.00000084   -0.00001176    0.00000892
     atom  188 type  1   force =    -0.00000001   -0.00001173    0.00000903
     atom  189 type  1   force =    -0.00000384   -0.00001056    0.00000867
     atom  190 type  1   force =     0.00000017   -0.00001232    0.00000948
     atom  191 type  1   force =     0.00000137   -0.00001217    0.00000906
     atom  192 type  1   force =    -0.00000316   -0.00001108    0.00000908
     atom  193 type  1   force =    -0.00001437   -0.00001539    0.00001273
     atom  194 type  1   force =    -0.00001507   -0.00001531    0.00001279
     atom  195 type  1   force =    -0.00001454   -0.00001534    0.00001229
     atom  196 type  1   force =    -0.00001429   -0.00001629    0.00001323
     atom  197 type  1   force =    -0.00001638   -0.00001446    0.00001222
     atom  198 type  1   force =    -0.00001416   -0.00001700    0.00001359
     atom  199 type  1   force =    -0.00001327   -0.00001610    0.00001299
     atom  200 type  1   force =    -0.00001580   -0.00001472    0.00001255
     atom  201 type  2   force =     0.00000933   -0.00000559   -0.00000170
     atom  202 type  2   force =     0.00000987   -0.00000555   -0.00000135
     atom  203 type  2   force =     0.00000927   -0.00000558   -0.00000127
     atom  204 type  2   force =     0.00000883   -0.00000555   -0.00000128
     atom  205 type  2   force =     0.00001011   -0.00000558   -0.00000183
     atom  206 type  2   force =     0.00000802   -0.00000559   -0.00000101
     atom  207 type  2   force =     0.00000730   -0.00000509   -0.00000127
     atom  208 type  2   force =     0.00000943   -0.00000528   -0.00000171
     atom  209 type  3   force =     0.00000157   -0.00000063   -0.00000043
     atom  210 type  3   force =     0.00000161   -0.00000066   -0.00000036
     atom  211 type  3   force =     0.00000148   -0.00000069   -0.00000028
     atom  212 type  3   force =     0.00000139   -0.00000066   -0.00000032
     atom  213 type  3   force =     0.00000176   -0.00000070   -0.00000050
     atom  214 type  3   force =     0.00000113   -0.00000060   -0.00000021
     atom  215 type  3   force =     0.00000127   -0.00000049   -0.00000023
     atom  216 type  3   force =     0.00000168   -0.00000065   -0.00000045
     atom  217 type  1   force =     0.00000931   -0.00000101   -0.00000363
     atom  218 type  1   force =     0.00000991   -0.00000070   -0.00000370
     atom  219 type  1   force =     0.00000948   -0.00000070   -0.00000349
     atom  220 type  1   force =     0.00000894   -0.00000097   -0.00000312
     atom  221 type  1   force =     0.00000984   -0.00000141   -0.00000392
     atom  222 type  1   force =     0.00000803   -0.00000046   -0.00000316
     atom  223 type  1   force =     0.00000691   -0.00000053   -0.00000320
     atom  224 type  1   force =     0.00000901   -0.00000109   -0.00000384
     atom  225 type  2   force =    -0.00000734    0.00000812   -0.00000059
     atom  226 type  2   force =    -0.00000757    0.00000782   -0.00000068
     atom  227 type  2   force =    -0.00000778    0.00000808   -0.00000083
     atom  228 type  2   force =    -0.00000809    0.00000852   -0.00000086
     atom  229 type  2   force =    -0.00000726    0.00000737   -0.00000086
     atom  230 type  2   force =    -0.00000698    0.00000763   -0.00000055
     atom  231 type  2   force =    -0.00000704    0.00000768   -0.00000044
     atom  232 type  2   force =    -0.00000803    0.00000799   -0.00000082
     atom  233 type  3   force =     0.00000016   -0.00000116   -0.00000006
     atom  234 type  3   force =     0.00000018   -0.00000122   -0.00000008
     atom  235 type  3   force =     0.00000011   -0.00000125   -0.00000008
     atom  236 type  3   force =     0.00000011   -0.00000119   -0.00000007
     atom  237 type  3   force =     0.00000022   -0.00000125   -0.00000012
     atom  238 type  3   force =     0.00000021   -0.00000120   -0.00000007
     atom  239 type  3   force =     0.00000020   -0.00000128   -0.00000005
     atom  240 type  3   force =     0.00000016   -0.00000122   -0.00000011
     atom  241 type  1   force =    -0.00000769   -0.00000514    0.00000294
     atom  242 type  1   force =    -0.00000478   -0.00000587    0.00000123
     atom  243 type  1   force =    -0.00000521   -0.00000814    0.00000098
     atom  244 type  1   force =    -0.00000633   -0.00000663    0.00000192
     atom  245 type  1   force =    -0.00000654   -0.00000596    0.00000206
     atom  246 type  1   force =    -0.00000475   -0.00000592    0.00000078
     atom  247 type  1   force =    -0.00000543   -0.00000577    0.00000146
     atom  248 type  1   force =    -0.00000575   -0.00000589    0.00000158
     atom  249 type  1   force =    -0.00000193   -0.00001234    0.00000003
     atom  250 type  1   force =     0.00000398   -0.00000850   -0.00000345
     atom  251 type  1   force =     0.00000102   -0.00001076   -0.00000193
     atom  252 type  1   force =    -0.00000067   -0.00001212   -0.00000063
     atom  253 type  1   force =     0.00000017   -0.00001074   -0.00000128
     atom  254 type  1   force =     0.00000277   -0.00000957   -0.00000260
     atom  255 type  1   force =     0.00000150   -0.00001008   -0.00000170
     atom  256 type  1   force =     0.00000251   -0.00000896   -0.00000272
     atom  257 type  2   force =     0.00000605   -0.00000038   -0.00000119
     atom  258 type  2   force =     0.00000750   -0.00000018   -0.00000215
     atom  259 type  2   force =     0.00000647    0.00000055   -0.00000198
     atom  260 type  2   force =     0.00000683    0.00000007   -0.00000166
     atom  261 type  2   force =     0.00000592    0.00000041   -0.00000232
     atom  262 type  2   force =     0.00000790   -0.00000064   -0.00000167
     atom  263 type  2   force =     0.00000704   -0.00000069   -0.00000172
     atom  264 type  2   force =     0.00000640    0.00000023   -0.00000226
     atom  265 type  2   force =     0.00000372    0.00000392   -0.00000260
     atom  266 type  2   force =     0.00000759    0.00000270   -0.00000520
     atom  267 type  2   force =     0.00000613    0.00000232   -0.00000456
     atom  268 type  2   force =     0.00000514    0.00000309   -0.00000363
     atom  269 type  2   force =     0.00000523    0.00000322   -0.00000430
     atom  270 type  2   force =     0.00000684    0.00000287   -0.00000440
     atom  271 type  2   force =     0.00000596    0.00000281   -0.00000409
     atom  272 type  2   force =     0.00000637    0.00000296   -0.00000487
     atom  273 type  2   force =     0.00000337    0.00000582   -0.00000201
     atom  274 type  2   force =     0.00000362    0.00000616   -0.00000265
     atom  275 type  2   force =     0.00000302    0.00000641   -0.00000256
     atom  276 type  2   force =     0.00000319    0.00000661   -0.00000230
     atom  277 type  2   force =     0.00000299    0.00000690   -0.00000288
     atom  278 type  2   force =     0.00000406    0.00000598   -0.00000222
     atom  279 type  2   force =     0.00000357    0.00000636   -0.00000233
     atom  280 type  2   force =     0.00000324    0.00000687   -0.00000279
     atom  281 type  3   force =    -0.00000088    0.00000062   -0.00000115
     atom  282 type  3   force =    -0.00000080    0.00000074   -0.00000130
     atom  283 type  3   force =    -0.00000080    0.00000078   -0.00000127
     atom  284 type  3   force =    -0.00000104    0.00000073   -0.00000124
     atom  285 type  3   force =    -0.00000078    0.00000088   -0.00000131
     atom  286 type  3   force =    -0.00000091    0.00000060   -0.00000125
     atom  287 type  3   force =    -0.00000095    0.00000063   -0.00000126
     atom  288 type  3   force =    -0.00000076    0.00000089   -0.00000135
     atom  289 type  2   force =     0.00000617   -0.00000015    0.00000319
     atom  290 type  2   force =     0.00000575   -0.00000032    0.00000279
     atom  291 type  2   force =     0.00000497   -0.00000028    0.00000276
     atom  292 type  2   force =     0.00000644   -0.00000035    0.00000335
     atom  293 type  2   force =     0.00000414    0.00000028    0.00000242
     atom  294 type  2   force =     0.00000684   -0.00000088    0.00000320
     atom  295 type  2   force =     0.00000650   -0.00000063    0.00000304
     atom  296 type  2   force =     0.00000443    0.00000019    0.00000264
     atom  297 type  3   force =     0.00000089   -0.00000135    0.00000085
     atom  298 type  3   force =     0.00000074   -0.00000154    0.00000081
     atom  299 type  3   force =     0.00000062   -0.00000146    0.00000079
     atom  300 type  3   force =     0.00000085   -0.00000143    0.00000091
     atom  301 type  3   force =     0.00000055   -0.00000143    0.00000072
     atom  302 type  3   force =     0.00000089   -0.00000156    0.00000087
     atom  303 type  3   force =     0.00000083   -0.00000153    0.00000083
     atom  304 type  3   force =     0.00000051   -0.00000137    0.00000076
     atom  305 type  1   force =     0.00001155   -0.00000048   -0.00000926
     atom  306 type  1   force =     0.00001252    0.00000202   -0.00000962
     atom  307 type  1   force =     0.00001149   -0.00000155   -0.00000942
     atom  308 type  1   force =     0.00001185   -0.00000165   -0.00000961
     atom  309 type  1   force =     0.00001143   -0.00000025   -0.00000996
     atom  310 type  1   force =     0.00001270    0.00000069   -0.00000940
     atom  311 type  1   force =     0.00001247    0.00000026   -0.00000962
     atom  312 type  1   force =     0.00001201    0.00000152   -0.00000991
     atom  313 type  1   force =     0.00001265   -0.00001338   -0.00001110
     atom  314 type  1   force =     0.00001582   -0.00001385   -0.00001339
     atom  315 type  1   force =     0.00001522   -0.00001502   -0.00001297
     atom  316 type  1   force =     0.00001410   -0.00001468   -0.00001198
     atom  317 type  1   force =     0.00001387   -0.00001394   -0.00001235
     atom  318 type  1   force =     0.00001527   -0.00001352   -0.00001254
     atom  319 type  1   force =     0.00001450   -0.00001356   -0.00001215
     atom  320 type  1   force =     0.00001504   -0.00001329   -0.00001312
     atom  321 type  2   force =     0.00000434    0.00000920    0.00000195
     atom  322 type  2   force =     0.00000504    0.00000805    0.00000124
     atom  323 type  2   force =     0.00000489    0.00000805    0.00000130
     atom  324 type  2   force =     0.00000526    0.00000971    0.00000167
     atom  325 type  2   force =     0.00000405    0.00000814    0.00000121
     atom  326 type  2   force =     0.00000550    0.00000899    0.00000142
     atom  327 type  2   force =     0.00000548    0.00000935    0.00000145
     atom  328 type  2   force =     0.00000430    0.00000819    0.00000131
     atom  329 type  3   force =     0.00000029    0.00000168    0.00000056
     atom  330 type  3   force =     0.00000036    0.00000144    0.00000029
     atom  331 type  3   force =     0.00000051    0.00000138    0.00000033
     atom  332 type  3   force =     0.00000042    0.00000165    0.00000047
     atom  333 type  3   force =     0.00000040    0.00000144    0.00000042
     atom  334 type  3   force =     0.00000036    0.00000156    0.00000033
     atom  335 type  3   force =     0.00000049    0.00000149    0.00000039
     atom  336 type  3   force =     0.00000040    0.00000141    0.00000041
     atom  337 type  1   force =     0.00000049    0.00000919    0.00000420
     atom  338 type  1   force =     0.00000041    0.00000787    0.00000351
     atom  339 type  1   force =     0.00000024    0.00000791    0.00000343
     atom  340 type  1   force =     0.00000086    0.00000918    0.00000415
     atom  341 type  1   force =    -0.00000065    0.00000885    0.00000308
     atom  342 type  1   force =     0.00000114    0.00000809    0.00000403
     atom  343 type  1   force =     0.00000098    0.00000908    0.00000374
     atom  344 type  1   force =    -0.00000044    0.00000858    0.00000328
     atom  345 type  2   force =    -0.00000815   -0.00000729    0.00000082
     atom  346 type  2   force =    -0.00000786   -0.00000670    0.00000047
     atom  347 type  2   force =    -0.00000775   -0.00000676    0.00000041
     atom  348 type  2   force =    -0.00000823   -0.00000752    0.00000082
     atom  349 type  2   force =    -0.00000744   -0.00000647    0.00000069
     atom  350 type  2   force =    -0.00000818   -0.00000641    0.00000082
     atom  351 type  2   force =    -0.00000823   -0.00000704    0.00000103
     atom  352 type  2   force =    -0.00000789   -0.00000726    0.00000054
     atom  353 type  3   force =     0.00000119    0.00000015    0.00000009
     atom  354 type  3   force =     0.00000116    0.00000020    0.00000002
     atom  355 type  3   force =     0.00000113    0.00000009    0.00000004
     atom  356 type  3   force =     0.00000117    0.00000020    0.00000013
     atom  357 type  3   force =     0.00000119    0.00000007    0.00000005
     atom  358 type  3   force =     0.00000127    0.00000022    0.00000005
     atom  359 type  3   force =     0.00000131    0.00000017    0.00000007
     atom  360 type  3   force =     0.00000119    0.00000018    0.00000007
     atom  361 type  1   force =     0.00000707    0.00000534    0.00000214
     atom  362 type  1   force =     0.00000461    0.00000670    0.00000094
     atom  363 type  1   force =     0.00000550    0.00000587    0.00000088
     atom  364 type  1   force =     0.00000643    0.00000461    0.00000210
     atom  365 type  1   force =     0.00000655    0.00000550    0.00000184
     atom  366 type  1   force =     0.00000487    0.00000636    0.00000123
     atom  367 type  1   force =     0.00000588    0.00000460    0.00000151
     atom  368 type  1   force =     0.00000614    0.00000577    0.00000186
     atom  369 type  1   force =    -0.00000259    0.00000919   -0.00000309
     atom  370 type  1   force =    -0.00000057    0.00001038   -0.00000133
     atom  371 type  1   force =     0.00000041    0.00001113   -0.00000099
     atom  372 type  1   force =    -0.00000341    0.00000892   -0.00000311
     atom  373 type  1   force =    -0.00000131    0.00001012   -0.00000197
     atom  374 type  1   force =    -0.00000159    0.00001004   -0.00000222
     atom  375 type  1   force =    -0.00000079    0.00000991   -0.00000194
     atom  376 type  1   force =    -0.00000162    0.00001079   -0.00000174
     atom  377 type  2   force =    -0.00000667    0.00000025   -0.00000237
     atom  378 type  2   force =    -0.00000668    0.00000057   -0.00000161
     atom  379 type  2   force =    -0.00000637    0.00000021   -0.00000171
     atom  380 type  2   force =    -0.00000691   -0.00000008   -0.00000237
     atom  381 type  2   force =    -0.00000709    0.00000104   -0.00000163
     atom  382 type  2   force =    -0.00000614   -0.00000022   -0.00000218
     atom  383 type  2   force =    -0.00000608   -0.00000025   -0.00000221
     atom  384 type  2   force =    -0.00000754    0.00000045   -0.00000144
     atom  385 type  2   force =    -0.00000655   -0.00000278   -0.00000504
     atom  386 type  2   force =    -0.00000526   -0.00000350   -0.00000364
     atom  387 type  2   force =    -0.00000463   -0.00000325   -0.00000360
     atom  388 type  2   force =    -0.00000707   -0.00000224   -0.00000530
     atom  389 type  2   force =    -0.00000575   -0.00000358   -0.00000381
     atom  390 type  2   force =    -0.00000606   -0.00000363   -0.00000448
     atom  391 type  2   force =    -0.00000579   -0.00000320   -0.00000460
     atom  392 type  2   force =    -0.00000622   -0.00000292   -0.00000390
     atom  393 type  2   force =    -0.00000331   -0.00000634   -0.00000271
     atom  394 type  2   force =    -0.00000355   -0.00000630   -0.00000223
     atom  395 type  2   force =    -0.00000331   -0.00000666   -0.00000236
     atom  396 type  2   force =    -0.00000348   -0.00000638   -0.00000281
     atom  397 type  2   force =    -0.00000376   -0.00000528   -0.00000219
     atom  398 type  2   force =    -0.00000344   -0.00000630   -0.00000267
     atom  399 type  2   force =    -0.00000296   -0.00000707   -0.00000278
     atom  400 type  2   force =    -0.00000355   -0.00000608   -0.00000198
     atom  401 type  3   force =     0.00000080   -0.00000073   -0.00000129
     atom  402 type  3   force =     0.00000090   -0.00000067   -0.00000121
     atom  403 type  3   force =     0.00000098   -0.00000069   -0.00000124
     atom  404 type  3   force =     0.00000074   -0.00000078   -0.00000133
     atom  405 type  3   force =     0.00000089   -0.00000052   -0.00000120
     atom  406 type  3   force =     0.00000057   -0.00000089   -0.00000129
     atom  407 type  3   force =     0.00000094   -0.00000084   -0.00000130
     atom  408 type  3   force =     0.00000103   -0.00000063   -0.00000117
     atom  409 type  2   force =    -0.00000612    0.00000030    0.00000294
     atom  410 type  2   force =    -0.00000486    0.00000021    0.00000253
     atom  411 type  2   force =    -0.00000508    0.00000030    0.00000249
     atom  412 type  2   force =    -0.00000640    0.00000025    0.00000312
     atom  413 type  2   force =    -0.00000393   -0.00000033    0.00000275
     atom  414 type  2   force =    -0.00000637    0.00000087    0.00000318
     atom  415 type  2   force =    -0.00000694    0.00000094    0.00000338
     atom  416 type  2   force =    -0.00000502    0.00000003    0.00000277
     atom  417 type  3   force =    -0.00000084    0.00000144    0.00000080
     atom  418 type  3   force =    -0.00000062    0.00000150    0.00000074
     atom  419 type  3   force =    -0.00000062    0.00000148    0.00000074
     atom  420 type  3   force =    -0.00000088    0.00000142    0.00000086
     atom  421 type  3   force =    -0.00000049    0.00000140    0.00000080
     atom  422 type  3   force =    -0.00000088    0.00000151    0.00000088
     atom  423 type  3   force =    -0.00000089    0.00000155    0.00000091
     atom  424 type  3   force =    -0.00000064    0.00000156    0.00000080
     atom  425 type  1   force =    -0.00001202   -0.00000145   -0.00000976
     atom  426 type  1   force =    -0.00001222   -0.00000089   -0.00000956
     atom  427 type  1   force =    -0.00001178   -0.00000001   -0.00000977
     atom  428 type  1   force =    -0.00001200   -0.00000096   -0.00001000
     atom  429 type  1   force =    -0.00001230   -0.00000117   -0.00000926
     atom  430 type  1   force =    -0.00001225   -0.00000106   -0.00000974
     atom  431 type  1   force =    -0.00001181   -0.00000057   -0.00000985
     atom  432 type  1   force =    -0.00001245    0.00000009   -0.00000935
     atom  433 type  1   force =    -0.00001517    0.00001377   -0.00001315
     atom  434 type  1   force =    -0.00001359    0.00001300   -0.00001176
     atom  435 type  1   force =    -0.00001333    0.00001335   -0.00001186
     atom  436 type  1   force =    -0.00001562    0.00001383   -0.00001361
     atom  437 type  1   force =    -0.00001405    0.00001299   -0.00001180
     atom  438 type  1   force =    -0.00001500    0.00001377   -0.00001288
     atom  439 type  1   force =    -0.00001413    0.00001395   -0.00001260
     atom  440 type  1   force =    -0.00001517    0.00001402   -0.00001246
     atom  441 type  2   force =    -0.00000475   -0.00000775    0.00000091
     atom  442 type  2   force =    -0.00000483   -0.00000916    0.00000150
     atom  443 type  2   force =    -0.00000498   -0.00001007    0.00000167
     atom  444 type  2   force =    -0.00000488   -0.00000790    0.00000104
     atom  445 type  2   force =    -0.00000476   -0.00000816    0.00000142
     atom  446 type  2   force =    -0.00000362   -0.00000715    0.00000130
     atom  447 type  2   force =    -0.00000440   -0.00000918    0.00000145
     atom  448 type  2   force =    -0.00000584   -0.00000916    0.00000148
     atom  449 type  3   force =    -0.00000040   -0.00000171    0.00000055
     atom  450 type  3   force =    -0.00000050   -0.00000130    0.00000029
     atom  451 type  3   force =    -0.00000047   -0.00000137    0.00000025
     atom  452 type  3   force =    -0.00000037   -0.00000162    0.00000044
     atom  453 type  3   force =    -0.00000040   -0.00000154    0.00000048
     atom  454 type  3   force =    -0.00000051   -0.00000152    0.00000031
     atom  455 type  3   force =    -0.00000028   -0.00000149    0.00000036
     atom  456 type  3   force =    -0.00000029   -0.00000134    0.00000039
     atom  457 type  1   force =    -0.00000077   -0.00000989    0.00000396
     atom  458 type  1   force =    -0.00000028   -0.00000789    0.00000312
     atom  459 type  1   force =     0.00000002   -0.00000816    0.00000304
     atom  460 type  1   force =    -0.00000067   -0.00000911    0.00000367
     atom  461 type  1   force =     0.00000049   -0.00000972    0.00000354
     atom  462 type  1   force =    -0.00000150   -0.00000817    0.00000410
     atom  463 type  1   force =    -0.00000074   -0.00000778    0.00000404
     atom  464 type  1   force =     0.00000103   -0.00000808    0.00000335
     atom  465 type  2   force =     0.00000798    0.00000689    0.00000094
     atom  466 type  2   force =     0.00000817    0.00000685    0.00000056
     atom  467 type  2   force =     0.00000749    0.00000646    0.00000063
     atom  468 type  2   force =     0.00000798    0.00000739    0.00000101
     atom  469 type  2   force =     0.00000740    0.00000695    0.00000043
     atom  470 type  2   force =     0.00000866    0.00000723    0.00000084
     atom  471 type  2   force =     0.00000844    0.00000738    0.00000080
     atom  472 type  2   force =     0.00000752    0.00000715    0.00000059
     atom  473 type  3   force =    -0.00000127   -0.00000017    0.00000009
     atom  474 type  3   force =    -0.00000123   -0.00000007    0.00000002
     atom  475 type  3   force =    -0.00000119   -0.00000014    0.00000002
     atom  476 type  3   force =    -0.00000130   -0.00000016    0.00000009
     atom  477 type  3   force =    -0.00000113   -0.00000014    0.00000009
     atom  478 type  3   force =    -0.00000117   -0.00000011    0.00000004
     atom  479 type  3   force =    -0.00000118   -0.00000016    0.00000009
     atom  480 type  3   force =    -0.00000124   -0.00000007    0.00000005
     atom  481 type  4   force =     0.00000201    0.00000028   -0.00000459
     atom  482 type  4   force =    -0.00000075    0.00000091    0.00000539
     atom  483 type  4   force =     0.00000285   -0.00000360   -0.00000097
     atom  484 type  4   force =     0.00000134   -0.00000083   -0.00000531
     atom  485 type  4   force =     0.00000169    0.00000065    0.00000290
     atom  486 type  4   force =    -0.00000304   -0.00000240   -0.00000771
     atom  487 type  4   force =     0.00000252   -0.00000368   -0.00000678
     atom  488 type  4   force =     0.00000000   -0.00000111    0.00000431
     atom  489 type  4   force =    -0.00000053    0.00000046   -0.00000231
     atom  490 type  4   force =    -0.00000015    0.00000094   -0.00000068
     atom  491 type  4   force =     0.00000148   -0.00000198    0.00000025
     atom  492 type  4   force =    -0.00000221   -0.00000196   -0.00000066
     atom  493 type  4   force =    -0.00000209   -0.00000097   -0.00000193
     atom  494 type  4   force =     0.00000109   -0.00000048   -0.00000041
     atom  495 type  4   force =     0.00000127   -0.00000050   -0.00000227
     atom  496 type  4   force =     0.00000012   -0.00000020   -0.00000279

     Total force =     0.024733     Total SCF correction =     0.000226


     Computing stress (Cartesian axis) and pressure

          total   stress  (Ry/bohr**3)                   (kbar)     P=       -2.02
  -0.00001461  -0.00000051   0.00000006           -2.15       -0.08        0.01
  -0.00000051  -0.00001442   0.00000003           -0.08       -2.12        0.00
   0.00000006   0.00000003  -0.00001210            0.01        0.00       -1.78

     kinetic stress (kbar)  10030.31      0.04      0.01
                                0.04  10030.35     -0.00
                                0.01     -0.00  10716.52

     local   stress (kbar) -23378.87      0.30      0.76
                                0.30 -23378.17     -0.07
                                0.76     -0.07  -2297.25

     nonloc. stress (kbar)   2420.52     -0.02      0.00
                               -0.02   2420.52      0.00
                                0.00      0.00   2341.33

     hartree stress (kbar)  13178.53      0.03     -0.31
                                0.03  13178.22      0.02
                               -0.31      0.02   6149.24

     exc-cor stress (kbar)  -1776.01     -0.00     -0.00
                               -0.00  -1776.01     -0.00
                               -0.00     -0.00  -1797.57

     corecor stress (kbar)  -1052.43      0.00     -0.00
                                0.00  -1052.43     -0.00
                               -0.00     -0.00  -1036.21

     ewald   stress (kbar)    575.81     -0.42     -0.44
                               -0.42    575.40      0.06
                               -0.44      0.06 -14077.84

     hubbard stress (kbar)      0.00      0.00      0.00
                                0.00      0.00      0.00
                                0.00      0.00      0.00

     DFT-D   stress (kbar)      0.00      0.00      0.00
                                0.00      0.00      0.00
                                0.00      0.00      0.00

     XDM     stress (kbar)      0.00      0.00      0.00
                                0.00      0.00      0.00
                                0.00      0.00      0.00

     dft-nl  stress (kbar)      0.00      0.00      0.00
                                0.00      0.00      0.00
                                0.00      0.00      0.00

     TS-vdW  stress (kbar)      0.00      0.00      0.00
                                0.00      0.00      0.00
                                0.00      0.00      0.00

     MDB     stress (kbar)      0.00      0.00      0.00
                                0.00      0.00      0.00
                                0.00      0.00      0.00

     3D-RISM stress (kbar)      0.00      0.00      0.00
                                0.00      0.00      0.00
                                0.00      0.00      0.00


     init_run     :    150.11s CPU    155.00s WALL (       1 calls)
     electrons    :   6473.49s CPU   6622.16s WALL (       1 calls)
     forces       :     76.90s CPU     80.49s WALL (       1 calls)
     stress       :   1707.97s CPU   1723.32s WALL (       1 calls)

     Called by init_run:
     wfcinit      :    139.56s CPU    143.48s WALL (       1 calls)
     wfcinit:atom :      0.17s CPU      0.29s WALL (       1 calls)
     wfcinit:wfcr :    137.77s CPU    141.10s WALL (       1 calls)
     potinit      :      3.97s CPU      4.02s WALL (       1 calls)
     hinit0       :      3.67s CPU      3.70s WALL (       1 calls)

     Called by electrons:
     c_bands      :   5921.61s CPU   6030.15s WALL (      19 calls)
     sum_band     :    505.19s CPU    532.96s WALL (      19 calls)
     v_of_rho     :      5.85s CPU      6.13s WALL (      20 calls)
     v_h          :      0.42s CPU      0.44s WALL (      20 calls)
     v_xc         :      5.96s CPU      6.26s WALL (      22 calls)
     newd         :     26.93s CPU     39.49s WALL (      20 calls)
     PAW_pot      :     13.06s CPU     13.11s WALL (      20 calls)
     mix_rho      :      2.02s CPU      2.21s WALL (      19 calls)

     Called by c_bands:
     init_us_2    :     11.56s CPU     13.39s WALL (      39 calls)
     init_us_2:cp :     11.56s CPU     13.39s WALL (      39 calls)
     cegterg      :   5897.08s CPU   6003.39s WALL (      19 calls)

     Called by sum_band:
     sum_band:wei :      0.00s CPU      0.00s WALL (      19 calls)
     sum_band:loo :    480.44s CPU    493.19s WALL (      19 calls)
     sum_band:buf :      0.00s CPU      0.00s WALL (      19 calls)
     sum_band:ini :      5.52s CPU      6.38s WALL (      19 calls)
     sum_band:cal :    279.69s CPU    282.77s WALL (      19 calls)
     sum_band:bec :      0.93s CPU      0.93s WALL (      19 calls)
     addusdens    :     20.96s CPU     34.71s WALL (      19 calls)
                                        0.00s GPU  (      19 calls)
     addusd:skk   :      5.32s CPU     11.42s WALL (      76 calls)
                                        0.00s GPU  (      76 calls)

     Called by *egterg:
     cdiaghg      :    539.42s CPU    543.67s WALL (     105 calls)
     cegterg:over :    807.54s CPU    812.69s WALL (      86 calls)
     cegterg:upda :    358.70s CPU    363.37s WALL (      86 calls)
     cegterg:last :    840.19s CPU    848.52s WALL (      45 calls)
     cdiaghg:chol :     13.33s CPU     13.37s WALL (     105 calls)
     cdiaghg:inve :      2.20s CPU      2.21s WALL (     105 calls)
     cdiaghg:para :     46.37s CPU     48.38s WALL (     210 calls)
     h_psi        :   2583.15s CPU   2653.70s WALL (     106 calls)
     s_psi        :    603.47s CPU    608.42s WALL (     106 calls)
     g_psi        :      2.64s CPU      2.67s WALL (      86 calls)

     Called by h_psi:
     h_psi:calbec :    836.37s CPU    847.47s WALL (     106 calls)
     vloc_psi     :   1105.50s CPU   1157.31s WALL (     106 calls)
     add_vuspsi   :    638.25s CPU    643.45s WALL (     106 calls)

     General routines
     calbec       :   1188.21s CPU   1203.15s WALL (     130 calls)
     fft          :      8.98s CPU      9.40s WALL (     283 calls)
     ffts         :      0.76s CPU      0.88s WALL (      39 calls)
     fftw         :   1214.18s CPU   1273.07s WALL (  134346 calls)
     interpolate  :      0.74s CPU      0.81s WALL (      20 calls)

     Parallel routines

     PAW routines
     PAW_pot      :     13.06s CPU     13.11s WALL (      20 calls)

     PWSCF        :      2h20m CPU      2h23m WALL


   This run was terminated on:  14:55:27  20May2025            

=------------------------------------------------------------------------------=
   JOB DONE.
=------------------------------------------------------------------------------=
