
     Program PWSCF v.7.2 starts on 21May2025 at 23: 8:12 

     This program is part of the open-source Quantum ESPRESSO suite
     for quantum simulation of materials; please cite
         "P. Giannozzi et al., J. Phys.:Condens. Matter 21 395502 (2009);
         "P. Giannozzi et al., J. Phys.:Condens. Matter 29 465901 (2017);
         "P. Giannozzi et al., J. Chem. Phys. 152 154105 (2020);
          URL http://www.quantum-espresso.org", 
     in publications or presentations arising from this work. More details at
     http://www.quantum-espresso.org/quote

     Parallel version (MPI), running on    32 processors

     MPI processes distributed on     1 nodes
     189582 MiB available memory on the printing compute node when the environment starts

     Waiting for input...
     Reading input from standard input

     Current dimensions of program PWSCF are:
     Max number of different atomic species (ntypx) = 10
     Max number of k-points (npk) =  40000
     Max angular momentum in pseudopotentials (lmaxx) =  4
     file C.pbesol-n-kjpaw_psl.1.0.0.UPF: wavefunction(s)  2S 2P renormalized

     R & G space division:  proc/nbgrp/npool/nimage =      32
     Subspace diagonalization in iterative solution of the eigenvalue problem:
     one sub-group per band group will be used
     custom distributed-memory algorithm (size of sub-group:  5*  5 procs)


     Parallelization info
     --------------------
     sticks:   dense  smooth     PW     G-vecs:    dense   smooth      PW
     Min         878     844    211                80117    75361    9423
     Max         882     845    212                80120    75364    9425
     Sum       28159   27021   6771              2563819  2411581  301561

     Using Slab Decomposition



     bravais-lattice index     =            0
     lattice parameter (alat)  =      37.6381  a.u.
     unit-cell volume          =   38409.3354 (a.u.)^3
     number of atoms/cell      =          496
     number of atomic types    =            4
     number of electrons       =      2016.00
     number of Kohn-Sham states=         1008
     kinetic-energy cutoff     =      60.0000  Ry
     charge density cutoff     =     250.0000  Ry
     scf convergence threshold =      1.2E-08
     mixing beta               =       0.4000
     number of iterations used =            8  plain     mixing
     Exchange-correlation= SLA  PW   PSX  PSC
                           (   1   4  10   8   0   0   0)

     celldm(1)=  37.638096  celldm(2)=   0.000000  celldm(3)=   0.000000
     celldm(4)=   0.000000  celldm(5)=   0.000000  celldm(6)=   0.000000

     crystal axes: (cart. coord. in units of alat)
               a(1) = (  -0.509774   0.509774   0.693009 )  
               a(2) = (   0.509774  -0.509774   0.693009 )  
               a(3) = (   0.509774   0.509774  -0.693009 )  

     reciprocal axes: (cart. coord. in units 2 pi/alat)
               b(1) = (  0.000000  0.980827  0.721491 )  
               b(2) = (  0.980827  0.000000  0.721491 )  
               b(3) = (  0.980827  0.980827  0.000000 )  


     PseudoPot. # 1 for N  read from file:
     ./pseudo/N.pbesol-theos.UPF
     MD5 check sum: 1b64827339d390a5a22afef3ff345c9d
     Pseudo is Ultrasoft + core correction, Zval =  5.0
     Generated using "atomic" code by A. Dal Corso  v.5.1
     Using radial grid of 1085 points,  4 beta functions with: 
                l(1) =   0
                l(2) =   0
                l(3) =   1
                l(4) =   1
     Q(r) pseudized with 0 coefficients 


     PseudoPot. # 2 for C  read from file:
     ./pseudo/C.pbesol-n-kjpaw_psl.1.0.0.UPF
     MD5 check sum: 5f3a56537b2bcef3348431d8311bb923
     Pseudo is Projector augmented-wave + core cor, Zval =  4.0
     Generated using "atomic" code by A. Dal Corso  v.6.0 svn rev. 13079
     Shape of augmentation charge: PSQ
     Using radial grid of 1073 points,  4 beta functions with: 
                l(1) =   0
                l(2) =   0
                l(3) =   1
                l(4) =   1
     Q(r) pseudized with 0 coefficients 


     PseudoPot. # 3 for H  read from file:
     ./pseudo/H.pbesol-rrkjus_psl.1.0.0.UPF
     MD5 check sum: 0324ed591cc0147dc3d88cad0d33f665
     Pseudo is Ultrasoft, Zval =  1.0
     Generated using "atomic" code by A. Dal Corso  v.6.0 svn rev. 13079
     Using radial grid of  929 points,  2 beta functions with: 
                l(1) =   0
                l(2) =   0
     Q(r) pseudized with 0 coefficients 


     PseudoPot. # 4 for Zn read from file:
     ./pseudo/zn_pbesol_v1.uspp.F.UPF
     MD5 check sum: 7d8615e52efe7c1e2b1899de8658bae2
     Pseudo is Ultrasoft, Zval = 20.0
     Generated by new atomic code, or converted to UPF format
     Using radial grid of  943 points,  6 beta functions with: 
                l(1) =   0
                l(2) =   0
                l(3) =   1
                l(4) =   1
                l(5) =   2
                l(6) =   2
     Q(r) pseudized with  8 coefficients,  rinner =    1.100   1.100   1.100
                                                       1.100   1.100

     atomic species   valence    mass     pseudopotential
        N              5.00    14.00670     N ( 1.00)
        C              4.00    12.01070     C ( 1.00)
        H              1.00     1.00794     H ( 1.00)
        Zn            20.00    65.38000     Zn( 1.00)

     No symmetry found


                                    s                        frac. trans.

      isym =  1     identity                                     

 cryst.   s( 1) = (     1          0          0      )
                  (     0          1          0      )
                  (     0          0          1      )

 cart.    s( 1) = (  1.0000000  0.0000000  0.0000000 )
                  (  0.0000000  1.0000000  0.0000000 )
                  (  0.0000000  0.0000000  1.0000000 )


   Cartesian axes

     site n.     atom                  positions (alat units)
         1           N   tau(   1) = (   0.2710468  -0.0829864   0.1173636  )
         2           N   tau(   2) = (   0.0161599   0.1719005   0.4638680  )
         3           N   tau(   3) = (   0.5259337  -0.3378733   0.4638680  )
         4           N   tau(   4) = (   0.2710468  -0.0829864   0.8103725  )
         5           N   tau(   5) = (   0.5259337   0.1719005  -0.2291408  )
         6           N   tau(   6) = (   0.2710468   0.4267874   0.1173636  )
         7           N   tau(   7) = (   0.7808206  -0.0829864   0.1173636  )
         8           N   tau(   8) = (   0.5259337   0.1719005   0.4638680  )
         9           N   tau(   9) = (   0.0792892   0.1480962   0.4576515  )
        10           N   tau(  10) = (  -0.1755977   0.4029831   0.8041559  )
        11           N   tau(  11) = (   0.3341761  -0.1067907   0.8041559  )
        12           N   tau(  12) = (   0.0792892   0.1480962   1.1506604  )
        13           N   tau(  13) = (   0.3341761   0.4029831   0.1111471  )
        14           N   tau(  14) = (   0.0792892   0.6578701   0.4576515  )
        15           N   tau(  15) = (   0.5890630   0.1480962   0.4576515  )
        16           N   tau(  16) = (   0.3341761   0.4029831   0.8041559  )
        17           C   tau(  17) = (  -0.0968335   0.1355948   0.4273593  )
        18           C   tau(  18) = (  -0.3517204   0.3904817   0.7738637  )
        19           C   tau(  19) = (   0.1580534  -0.1192921   0.7738637  )
        20           C   tau(  20) = (  -0.0968335   0.1355948   1.1203682  )
        21           C   tau(  21) = (   0.1580534   0.3904817   0.0808549  )
        22           C   tau(  22) = (  -0.0968335   0.6453687   0.4273593  )
        23           C   tau(  23) = (   0.4129403   0.1355948   0.4273593  )
        24           C   tau(  24) = (   0.1580534   0.3904817   0.7738637  )
        25           C   tau(  25) = (  -0.0244840   0.1283983   0.4318794  )
        26           C   tau(  26) = (  -0.2793710   0.3832852   0.7783839  )
        27           C   tau(  27) = (   0.2304029  -0.1264886   0.7783839  )
        28           C   tau(  28) = (  -0.0244840   0.1283983   1.1248883  )
        29           C   tau(  29) = (   0.2304029   0.3832852   0.0853750  )
        30           C   tau(  30) = (  -0.0244840   0.6381721   0.4318794  )
        31           C   tau(  31) = (   0.4852898   0.1283983   0.4318794  )
        32           C   tau(  32) = (   0.2304029   0.3832852   0.7783839  )
        33           C   tau(  33) = (   0.1135697   0.3364209   0.0858899  )
        34           C   tau(  34) = (  -0.1413172   0.5913078   0.4323944  )
        35           C   tau(  35) = (   0.3684566   0.0815340   0.4323944  )
        36           C   tau(  36) = (   0.1135697   0.3364209   0.7788988  )
        37           C   tau(  37) = (   0.3684566   0.5913078  -0.2606145  )
        38           C   tau(  38) = (   0.1135697   0.8461947   0.0858899  )
        39           C   tau(  39) = (   0.6233435   0.3364209   0.0858899  )
        40           C   tau(  40) = (   0.3684566   0.5913078   0.4323944  )
        41           H   tau(  41) = (   0.1320089   0.2848859   0.0919123  )
        42           H   tau(  42) = (  -0.1228780   0.5397728   0.4384168  )
        43           H   tau(  43) = (   0.3868958   0.0299990   0.4384168  )
        44           H   tau(  44) = (   0.1320089   0.2848859   0.7849212  )
        45           H   tau(  45) = (   0.3868958   0.5397728  -0.2545921  )
        46           H   tau(  46) = (   0.1320089   0.7946597   0.0919123  )
        47           H   tau(  47) = (   0.6417827   0.2848859   0.0919123  )
        48           H   tau(  48) = (   0.3868958   0.5397728   0.4384168  )
        49           C   tau(  49) = (   0.0234072   0.4166034   0.0803957  )
        50           C   tau(  50) = (  -0.2314797   0.6714904   0.4269002  )
        51           C   tau(  51) = (   0.2782941   0.1617165   0.4269002  )
        52           C   tau(  52) = (   0.0234072   0.4166034   0.7734046  )
        53           C   tau(  53) = (   0.2782941   0.6714904  -0.2661087  )
        54           C   tau(  54) = (   0.0234072   0.9263773   0.0803957  )
        55           C   tau(  55) = (   0.5331811   0.4166034   0.0803957  )
        56           C   tau(  56) = (   0.2782941   0.6714904   0.4269002  )
        57           H   tau(  57) = (  -0.0300067   0.4299903   0.0814174  )
        58           H   tau(  58) = (  -0.2848936   0.6848772   0.4279218  )
        59           H   tau(  59) = (   0.2248802   0.1751034   0.4279218  )
        60           H   tau(  60) = (  -0.0300067   0.4299903   0.7744263  )
        61           H   tau(  61) = (   0.2248802   0.6848772  -0.2650870  )
        62           H   tau(  62) = (  -0.0300067   0.9397641   0.0814174  )
        63           H   tau(  63) = (   0.4797671   0.4299903   0.0814174  )
        64           H   tau(  64) = (   0.2248802   0.6848772   0.4279218  )
        65           N   tau(  65) = (   0.0137429   0.0791523   0.4063605  )
        66           N   tau(  66) = (  -0.2411440   0.3340392   0.7528650  )
        67           N   tau(  67) = (   0.2686298  -0.1757347   0.7528650  )
        68           N   tau(  68) = (   0.0137429   0.0791523   1.0993694  )
        69           N   tau(  69) = (   0.2686298   0.3340392   0.0598561  )
        70           N   tau(  70) = (   0.0137429   0.5889261   0.4063605  )
        71           N   tau(  71) = (   0.5235167   0.0791523   0.4063605  )
        72           N   tau(  72) = (   0.2686298   0.3340392   0.7528650  )
        73           N   tau(  73) = (   0.0781345   0.0932388   0.4233310  )
        74           N   tau(  74) = (  -0.1770233   0.3478549   0.7702037  )
        75           N   tau(  75) = (   0.3327505  -0.1619189   0.7702037  )
        76           N   tau(  76) = (   0.0778636   0.0929680   1.1167081  )
        77           N   tau(  77) = (   0.3327505   0.3478549   0.0771948  )
        78           N   tau(  78) = (   0.0778636   0.6027418   0.4236992  )
        79           N   tau(  79) = (   0.5876374   0.0929680   0.4236992  )
        80           N   tau(  80) = (   0.3327505   0.3478549   0.7702037  )
        81           C   tau(  81) = (  -0.1238286   0.2001118   0.4205514  )
        82           C   tau(  82) = (  -0.3787155   0.4549987   0.7670558  )
        83           C   tau(  83) = (   0.1310583  -0.0547751   0.7670558  )
        84           C   tau(  84) = (  -0.1238286   0.2001118   1.1135603  )
        85           C   tau(  85) = (   0.1310583   0.4549987   0.0740469  )
        86           C   tau(  86) = (  -0.1238286   0.7098857   0.4205514  )
        87           C   tau(  87) = (   0.3859452   0.2001118   0.4205514  )
        88           C   tau(  88) = (   0.1310583   0.4549987   0.7670558  )
        89           H   tau(  89) = (   0.1645114  -0.0114933   0.0672613  )
        90           H   tau(  90) = (  -0.0903755   0.2433936   0.4137658  )
        91           H   tau(  91) = (   0.4193983  -0.2663802   0.4137658  )
        92           H   tau(  92) = (   0.1645114  -0.0114933   0.7602702  )
        93           H   tau(  93) = (   0.4193983   0.2433936  -0.2792431  )
        94           H   tau(  94) = (   0.1645114   0.4982805   0.0672613  )
        95           H   tau(  95) = (   0.6742852  -0.0114933   0.0672613  )
        96           H   tau(  96) = (   0.4193983   0.2433936   0.4137658  )
        97           N   tau(  97) = (   0.0658052  -0.0414701   0.0746064  )
        98           N   tau(  98) = (  -0.1890817   0.2134168   0.4211109  )
        99           N   tau(  99) = (   0.3206921  -0.2963571   0.4211109  )
       100           N   tau( 100) = (   0.0658052  -0.0414701   0.7676153  )
       101           N   tau( 101) = (   0.3206921   0.2134168  -0.2718980  )
       102           N   tau( 102) = (   0.0658052   0.4683037   0.0746064  )
       103           N   tau( 103) = (   0.5755790  -0.0414701   0.0746064  )
       104           N   tau( 104) = (   0.3206921   0.2134168   0.4211109  )
       105           C   tau( 105) = (  -0.0451994   0.1596322   0.0850839  )
       106           C   tau( 106) = (  -0.3000863   0.4145191   0.4315883  )
       107           C   tau( 107) = (   0.2096875  -0.0952547   0.4315883  )
       108           C   tau( 108) = (  -0.0451994   0.1596322   0.7780928  )
       109           C   tau( 109) = (   0.2096875   0.4145191  -0.2614205  )
       110           C   tau( 110) = (  -0.0451994   0.6694060   0.0850839  )
       111           C   tau( 111) = (   0.4645744   0.1596322   0.0850839  )
       112           C   tau( 112) = (   0.2096875   0.4145191   0.4315883  )
       113           H   tau( 113) = (   0.0082067   0.3098036   0.0895138  )
       114           H   tau( 114) = (  -0.2466802   0.5646905   0.4360182  )
       115           H   tau( 115) = (   0.2630936   0.0549167   0.4360182  )
       116           H   tau( 116) = (   0.0082067   0.3098036   0.7825226  )
       117           H   tau( 117) = (   0.2630936   0.5646905  -0.2569907  )
       118           H   tau( 118) = (   0.0082067   0.8195774   0.0895138  )
       119           H   tau( 119) = (   0.5179805   0.3098036   0.0895138  )
       120           H   tau( 120) = (   0.2630936   0.5646905   0.4360182  )
       121           N   tau( 121) = (   0.2387270   0.0829864   0.1173636  )
       122           N   tau( 122) = (  -0.0161599   0.3378733   0.4638680  )
       123           N   tau( 123) = (   0.4936139  -0.1719005   0.4638680  )
       124           N   tau( 124) = (   0.2387270   0.0829864   0.8103725  )
       125           N   tau( 125) = (   0.4936139   0.3378733  -0.2291408  )
       126           N   tau( 126) = (   0.2387270   0.5927603   0.1173636  )
       127           N   tau( 127) = (   0.7485008   0.0829864   0.1173636  )
       128           N   tau( 128) = (   0.4936139   0.3378733   0.4638680  )
       129           N   tau( 129) = (   0.1755977   0.1067907   0.1111471  )
       130           N   tau( 130) = (  -0.0792892   0.3616776   0.4576515  )
       131           N   tau( 131) = (   0.4304846  -0.1480962   0.4576515  )
       132           N   tau( 132) = (   0.1755977   0.1067907   0.8041559  )
       133           N   tau( 133) = (   0.4304846   0.3616776  -0.2353574  )
       134           N   tau( 134) = (   0.1755977   0.6165645   0.1111471  )
       135           N   tau( 135) = (   0.6853715   0.1067907   0.1111471  )
       136           N   tau( 136) = (   0.4304846   0.3616776   0.4576515  )
       137           C   tau( 137) = (   0.3517204   0.1192921   0.0808549  )
       138           C   tau( 138) = (   0.0968335   0.3741790   0.4273593  )
       139           C   tau( 139) = (   0.6066073  -0.1355948   0.4273593  )
       140           C   tau( 140) = (   0.3517204   0.1192921   0.7738637  )
       141           C   tau( 141) = (   0.6066073   0.3741790  -0.2656496  )
       142           C   tau( 142) = (   0.3517204   0.6290659   0.0808549  )
       143           C   tau( 143) = (   0.8614942   0.1192921   0.0808549  )
       144           C   tau( 144) = (   0.6066073   0.3741790   0.4273593  )
       145           C   tau( 145) = (   0.2793710   0.1264886   0.0853750  )
       146           C   tau( 146) = (   0.0244840   0.3813755   0.4318794  )
       147           C   tau( 147) = (   0.5342579  -0.1283983   0.4318794  )
       148           C   tau( 148) = (   0.2793710   0.1264886   0.7783839  )
       149           C   tau( 149) = (   0.5342579   0.3813755  -0.2611294  )
       150           C   tau( 150) = (   0.2793710   0.6362624   0.0853750  )
       151           C   tau( 151) = (   0.7891448   0.1264886   0.0853750  )
       152           C   tau( 152) = (   0.5342579   0.3813755   0.4318794  )
       153           C   tau( 153) = (   0.1413172  -0.0815340   0.4323944  )
       154           C   tau( 154) = (  -0.1135697   0.1733530   0.7788988  )
       155           C   tau( 155) = (   0.3962041  -0.3364209   0.7788988  )
       156           C   tau( 156) = (   0.1413172  -0.0815340   1.1254033  )
       157           C   tau( 157) = (   0.3962041   0.1733530   0.0858899  )
       158           C   tau( 158) = (   0.1413172   0.4282399   0.4323944  )
       159           C   tau( 159) = (   0.6510910  -0.0815340   0.4323944  )
       160           C   tau( 160) = (   0.3962041   0.1733530   0.7788988  )
       161           H   tau( 161) = (   0.1228780  -0.0299990   0.4384168  )
       162           H   tau( 162) = (  -0.1320089   0.2248879   0.7849212  )
       163           H   tau( 163) = (   0.3777649  -0.2848859   0.7849212  )
       164           H   tau( 164) = (   0.1228780  -0.0299990   1.1314256  )
       165           H   tau( 165) = (   0.3777649   0.2248879   0.0919123  )
       166           H   tau( 166) = (   0.1228780   0.4797748   0.4384168  )
       167           H   tau( 167) = (   0.6326518  -0.0299990   0.4384168  )
       168           H   tau( 168) = (   0.3777649   0.2248879   0.7849212  )
       169           C   tau( 169) = (  -0.0234072   0.0931704   0.0803957  )
       170           C   tau( 170) = (  -0.2782942   0.3480573   0.4269002  )
       171           C   tau( 171) = (   0.2314797  -0.1617165   0.4269002  )
       172           C   tau( 172) = (  -0.0234072   0.0931704   0.7734046  )
       173           C   tau( 173) = (   0.2314797   0.3480573  -0.2661087  )
       174           C   tau( 174) = (  -0.0234072   0.6029442   0.0803957  )
       175           C   tau( 175) = (   0.4863666   0.0931704   0.0803957  )
       176           C   tau( 176) = (   0.2314797   0.3480573   0.4269002  )
       177           H   tau( 177) = (   0.0300067   0.0797836   0.0814174  )
       178           H   tau( 178) = (  -0.2248802   0.3346705   0.4279218  )
       179           H   tau( 179) = (   0.2848936  -0.1751034   0.4279218  )
       180           H   tau( 180) = (   0.0300067   0.0797836   0.7744263  )
       181           H   tau( 181) = (   0.2848936   0.3346705  -0.2650870  )
       182           H   tau( 182) = (   0.0300067   0.5895574   0.0814174  )
       183           H   tau( 183) = (   0.5397805   0.0797836   0.0814174  )
       184           H   tau( 184) = (   0.2848936   0.3346705   0.4279218  )
       185           N   tau( 185) = (   0.2411440   0.1757347   0.0598561  )
       186           N   tau( 186) = (  -0.0137429   0.4306216   0.4063605  )
       187           N   tau( 187) = (   0.4960309  -0.0791523   0.4063605  )
       188           N   tau( 188) = (   0.2411440   0.1757347   0.7528650  )
       189           N   tau( 189) = (   0.4960309   0.4306216  -0.2866484  )
       190           N   tau( 190) = (   0.2411440   0.6855085   0.0598561  )
       191           N   tau( 191) = (   0.7509178   0.1757347   0.0598561  )
       192           N   tau( 192) = (   0.4960309   0.4306216   0.4063605  )
       193           N   tau( 193) = (   0.1770233   0.1619189   0.0771948  )
       194           N   tau( 194) = (  -0.0778636   0.4168059   0.4236992  )
       195           N   tau( 195) = (   0.4319102  -0.0929680   0.4236992  )
       196           N   tau( 196) = (   0.1770233   0.1619189   0.7702037  )
       197           N   tau( 197) = (   0.4319102   0.4168059  -0.2693096  )
       198           N   tau( 198) = (   0.1770233   0.6716928   0.0771948  )
       199           N   tau( 199) = (   0.6867971   0.1619189   0.0771948  )
       200           N   tau( 200) = (   0.4319102   0.4168059   0.4236992  )
       201           C   tau( 201) = (   0.3787155   0.0547751   0.0740469  )
       202           C   tau( 202) = (   0.1238286   0.3096620   0.4205514  )
       203           C   tau( 203) = (   0.6336024  -0.2001118   0.4205514  )
       204           C   tau( 204) = (   0.3787155   0.0547751   0.7670558  )
       205           C   tau( 205) = (   0.6336024   0.3096620  -0.2724575  )
       206           C   tau( 206) = (   0.3787155   0.5645489   0.0740469  )
       207           C   tau( 207) = (   0.8884893   0.0547751   0.0740469  )
       208           C   tau( 208) = (   0.6336024   0.3096620   0.4205514  )
       209           H   tau( 209) = (   0.3452624   0.0114933   0.0672613  )
       210           H   tau( 210) = (   0.0903755   0.2663802   0.4137658  )
       211           H   tau( 211) = (   0.6001493  -0.2433936   0.4137658  )
       212           H   tau( 212) = (   0.3452624   0.0114933   0.7602702  )
       213           H   tau( 213) = (   0.6001493   0.2663802  -0.2792431  )
       214           H   tau( 214) = (   0.3452624   0.5212672   0.0672613  )
       215           H   tau( 215) = (   0.8550362   0.0114933   0.0672613  )
       216           H   tau( 216) = (   0.6001493   0.2663802   0.4137658  )
       217           N   tau( 217) = (   0.4439686   0.0414701   0.0746064  )
       218           N   tau( 218) = (   0.1890817   0.2963571   0.4211109  )
       219           N   tau( 219) = (   0.6988555  -0.2134168   0.4211109  )
       220           N   tau( 220) = (   0.4439686   0.0414701   0.7676153  )
       221           N   tau( 221) = (   0.6988555   0.2963571  -0.2718980  )
       222           N   tau( 222) = (   0.4439686   0.5512440   0.0746064  )
       223           N   tau( 223) = (   0.9537424   0.0414701   0.0746064  )
       224           N   tau( 224) = (   0.6988555   0.2963571   0.4211109  )
       225           C   tau( 225) = (   0.0451994   0.3501416   0.0850839  )
       226           C   tau( 226) = (  -0.2096875   0.6050285   0.4315883  )
       227           C   tau( 227) = (   0.3000863   0.0952547   0.4315883  )
       228           C   tau( 228) = (   0.0451994   0.3501416   0.7780928  )
       229           C   tau( 229) = (   0.3000863   0.6050285  -0.2614205  )
       230           C   tau( 230) = (   0.0451994   0.8599154   0.0850839  )
       231           C   tau( 231) = (   0.5549732   0.3501416   0.0850839  )
       232           C   tau( 232) = (   0.3000863   0.6050285   0.4315883  )
       233           H   tau( 233) = (  -0.0082067   0.1999702   0.0895138  )
       234           H   tau( 234) = (  -0.2630936   0.4548571   0.4360182  )
       235           H   tau( 235) = (   0.2466802  -0.0549167   0.4360182  )
       236           H   tau( 236) = (  -0.0082067   0.1999702   0.7825226  )
       237           H   tau( 237) = (   0.2466802   0.4548571  -0.2569907  )
       238           H   tau( 238) = (  -0.0082067   0.7097440   0.0895138  )
       239           H   tau( 239) = (   0.5015671   0.1999702   0.0895138  )
       240           H   tau( 240) = (   0.2466802   0.4548571   0.4360182  )
       241           N   tau( 241) = (   0.1719005  -0.0161599   0.2291408  )
       242           N   tau( 242) = (  -0.0829864   0.2387270   0.5756453  )
       243           N   tau( 243) = (   0.4267874  -0.2710468   0.5756453  )
       244           N   tau( 244) = (   0.1719005  -0.0161599   0.9221497  )
       245           N   tau( 245) = (   0.4267874   0.2387270  -0.1173636  )
       246           N   tau( 246) = (   0.1719005   0.4936139   0.2291408  )
       247           N   tau( 247) = (   0.6816743  -0.0161599   0.2291408  )
       248           N   tau( 248) = (   0.4267874   0.2387270   0.5756453  )
       249           N   tau( 249) = (   0.1480962  -0.0792892   0.2353574  )
       250           N   tau( 250) = (  -0.1067907   0.1755977   0.5818618  )
       251           N   tau( 251) = (   0.4029831  -0.3341761   0.5818618  )
       252           N   tau( 252) = (   0.1480962  -0.0792892   0.9283662  )
       253           N   tau( 253) = (   0.4029831   0.1755977  -0.1111471  )
       254           N   tau( 254) = (   0.1480962   0.4304846   0.2353574  )
       255           N   tau( 255) = (   0.6578701  -0.0792892   0.2353574  )
       256           N   tau( 256) = (   0.4029831   0.1755977   0.5818618  )
       257           C   tau( 257) = (   0.1355948   0.0968335   0.2656496  )
       258           C   tau( 258) = (  -0.1192921   0.3517204   0.6121540  )
       259           C   tau( 259) = (   0.3904817  -0.1580534   0.6121540  )
       260           C   tau( 260) = (   0.1355948   0.0968335   0.9586584  )
       261           C   tau( 261) = (   0.3904817   0.3517204  -0.0808549  )
       262           C   tau( 262) = (   0.1355948   0.6066073   0.2656496  )
       263           C   tau( 263) = (   0.6453687   0.0968335   0.2656496  )
       264           C   tau( 264) = (   0.3904817   0.3517204   0.6121540  )
       265           C   tau( 265) = (   0.1283983   0.0244840   0.2611294  )
       266           C   tau( 266) = (  -0.1264886   0.2793710   0.6076339  )
       267           C   tau( 267) = (   0.3832852  -0.2304029   0.6076339  )
       268           C   tau( 268) = (   0.1283983   0.0244840   0.9541383  )
       269           C   tau( 269) = (   0.3832852   0.2793710  -0.0853750  )
       270           C   tau( 270) = (   0.1283983   0.5342579   0.2611294  )
       271           C   tau( 271) = (   0.6381721   0.0244840   0.2611294  )
       272           C   tau( 272) = (   0.3832852   0.2793710   0.6076339  )
       273           C   tau( 273) = (   0.0815340   0.1413172   0.2606145  )
       274           C   tau( 274) = (  -0.1733530   0.3962041   0.6071189  )
       275           C   tau( 275) = (   0.3364209  -0.1135697   0.6071189  )
       276           C   tau( 276) = (   0.0815340   0.1413172   0.9536234  )
       277           C   tau( 277) = (   0.3364209   0.3962041  -0.0858899  )
       278           C   tau( 278) = (   0.0815340   0.6510910   0.2606145  )
       279           C   tau( 279) = (   0.5913078   0.1413172   0.2606145  )
       280           C   tau( 280) = (   0.3364209   0.3962041   0.6071189  )
       281           H   tau( 281) = (   0.0299990   0.1228780   0.2545921  )
       282           H   tau( 282) = (  -0.2248879   0.3777649   0.6010965  )
       283           H   tau( 283) = (   0.2848859  -0.1320089   0.6010965  )
       284           H   tau( 284) = (   0.0299990   0.1228780   0.9476010  )
       285           H   tau( 285) = (   0.2848859   0.3777649  -0.0919123  )
       286           H   tau( 286) = (   0.0299990   0.6326518   0.2545921  )
       287           H   tau( 287) = (   0.5397728   0.1228780   0.2545921  )
       288           H   tau( 288) = (   0.2848859   0.3777649   0.6010965  )
       289           C   tau( 289) = (   0.1617165   0.2314797   0.2661087  )
       290           C   tau( 290) = (  -0.0931704   0.4863666   0.6126131  )
       291           C   tau( 291) = (   0.4166034  -0.0234072   0.6126131  )
       292           C   tau( 292) = (   0.1617165   0.2314797   0.9591176  )
       293           C   tau( 293) = (   0.4166034   0.4863666  -0.0803957  )
       294           C   tau( 294) = (   0.1617165   0.7412535   0.2661087  )
       295           C   tau( 295) = (   0.6714904   0.2314797   0.2661087  )
       296           C   tau( 296) = (   0.4166034   0.4863666   0.6126131  )
       297           H   tau( 297) = (   0.1751034   0.2848936   0.2650870  )
       298           H   tau( 298) = (  -0.0797836   0.5397805   0.6115915  )
       299           H   tau( 299) = (   0.4299903   0.0300067   0.6115915  )
       300           H   tau( 300) = (   0.1751034   0.2848936   0.9580959  )
       301           H   tau( 301) = (   0.4299903   0.5397805  -0.0814174  )
       302           H   tau( 302) = (   0.1751034   0.7946674   0.2650870  )
       303           H   tau( 303) = (   0.6848772   0.2848936   0.2650870  )
       304           H   tau( 304) = (   0.4299903   0.5397805   0.6115915  )
       305           N   tau( 305) = (   0.0791523  -0.0137429   0.2866484  )
       306           N   tau( 306) = (  -0.1757347   0.2411440   0.6331528  )
       307           N   tau( 307) = (   0.3340392  -0.2686298   0.6331528  )
       308           N   tau( 308) = (   0.0791523  -0.0137429   0.9796572  )
       309           N   tau( 309) = (   0.3340392   0.2411440  -0.0598561  )
       310           N   tau( 310) = (   0.0791523   0.4960309   0.2866484  )
       311           N   tau( 311) = (   0.5889261  -0.0137429   0.2866484  )
       312           N   tau( 312) = (   0.3340392   0.2411440   0.6331528  )
       313           N   tau( 313) = (   0.0929680  -0.0778636   0.2693096  )
       314           N   tau( 314) = (  -0.1619189   0.1770233   0.6158141  )
       315           N   tau( 315) = (   0.3478549  -0.3327505   0.6158141  )
       316           N   tau( 316) = (   0.0929680  -0.0778636   0.9623185  )
       317           N   tau( 317) = (   0.3478549   0.1770233  -0.0771948  )
       318           N   tau( 318) = (   0.0929680   0.4319102   0.2693096  )
       319           N   tau( 319) = (   0.6027418  -0.0778636   0.2693096  )
       320           N   tau( 320) = (   0.3478549   0.1770233   0.6158141  )
       321           C   tau( 321) = (   0.2001118   0.1238286   0.2724575  )
       322           C   tau( 322) = (  -0.0547751   0.3787155   0.6189619  )
       323           C   tau( 323) = (   0.4549987  -0.1310583   0.6189619  )
       324           C   tau( 324) = (   0.2001118   0.1238286   0.9654664  )
       325           C   tau( 325) = (   0.4549987   0.3787155  -0.0740469  )
       326           C   tau( 326) = (   0.2001118   0.6336024   0.2724575  )
       327           C   tau( 327) = (   0.7098857   0.1238286   0.2724575  )
       328           C   tau( 328) = (   0.4549987   0.3787155   0.6189619  )
       329           H   tau( 329) = (   0.2433936   0.0903755   0.2792431  )
       330           H   tau( 330) = (  -0.0114933   0.3452624   0.6257475  )
       331           H   tau( 331) = (   0.4982805  -0.1645114   0.6257475  )
       332           H   tau( 332) = (   0.2433936   0.0903755   0.9722520  )
       333           H   tau( 333) = (   0.4982805   0.3452624  -0.0672613  )
       334           H   tau( 334) = (   0.2433936   0.6001493   0.2792431  )
       335           H   tau( 335) = (   0.7531674   0.0903755   0.2792431  )
       336           H   tau( 336) = (   0.4982805   0.3452624   0.6257475  )
       337           N   tau( 337) = (   0.2134168   0.1890817   0.2718980  )
       338           N   tau( 338) = (  -0.0414701   0.4439686   0.6184024  )
       339           N   tau( 339) = (   0.4683037  -0.0658052   0.6184024  )
       340           N   tau( 340) = (   0.2134168   0.1890817   0.9649069  )
       341           N   tau( 341) = (   0.4683037   0.4439686  -0.0746064  )
       342           N   tau( 342) = (   0.2134168   0.6988555   0.2718980  )
       343           N   tau( 343) = (   0.7231906   0.1890817   0.2718980  )
       344           N   tau( 344) = (   0.4683037   0.4439686   0.6184024  )
       345           C   tau( 345) = (  -0.0952547   0.3000863   0.2614205  )
       346           C   tau( 346) = (  -0.3501416   0.5549732   0.6079250  )
       347           C   tau( 347) = (   0.1596322   0.0451994   0.6079250  )
       348           C   tau( 348) = (  -0.0952547   0.3000863   0.9544294  )
       349           C   tau( 349) = (   0.1596322   0.5549732  -0.0850839  )
       350           C   tau( 350) = (  -0.0952547   0.8098601   0.2614205  )
       351           C   tau( 351) = (   0.4145191   0.3000863   0.2614205  )
       352           C   tau( 352) = (   0.1596322   0.5549732   0.6079250  )
       353           H   tau( 353) = (   0.0549167   0.2466802   0.2569907  )
       354           H   tau( 354) = (  -0.1999702   0.5015671   0.6034951  )
       355           H   tau( 355) = (   0.3098036  -0.0082067   0.6034951  )
       356           H   tau( 356) = (   0.0549167   0.2466802   0.9499995  )
       357           H   tau( 357) = (   0.3098036   0.5015671  -0.0895138  )
       358           H   tau( 358) = (   0.0549167   0.7564540   0.2569907  )
       359           H   tau( 359) = (   0.5646905   0.2466802   0.2569907  )
       360           H   tau( 360) = (   0.3098036   0.5015671   0.6034951  )
       361           N   tau( 361) = (   0.3378733   0.0161599   0.2291408  )
       362           N   tau( 362) = (   0.0829864   0.2710468   0.5756453  )
       363           N   tau( 363) = (   0.5927603  -0.2387270   0.5756453  )
       364           N   tau( 364) = (   0.3378733   0.0161599   0.9221497  )
       365           N   tau( 365) = (   0.5927603   0.2710468  -0.1173636  )
       366           N   tau( 366) = (   0.3378733   0.5259337   0.2291408  )
       367           N   tau( 367) = (   0.8476472   0.0161599   0.2291408  )
       368           N   tau( 368) = (   0.5927603   0.2710468   0.5756453  )
       369           N   tau( 369) = (   0.1067907   0.3341761  -0.1111471  )
       370           N   tau( 370) = (  -0.1480962   0.5890630   0.2353574  )
       371           N   tau( 371) = (   0.3616776   0.0792892   0.2353574  )
       372           N   tau( 372) = (   0.1067907   0.3341761   0.5818618  )
       373           N   tau( 373) = (   0.3616776   0.5890630  -0.4576515  )
       374           N   tau( 374) = (   0.1067907   0.8439499  -0.1111471  )
       375           N   tau( 375) = (   0.6165645   0.3341761  -0.1111471  )
       376           N   tau( 376) = (   0.3616776   0.5890630   0.2353574  )
       377           C   tau( 377) = (   0.1192921   0.1580534  -0.0808549  )
       378           C   tau( 378) = (  -0.1355948   0.4129403   0.2656496  )
       379           C   tau( 379) = (   0.3741790  -0.0968335   0.2656496  )
       380           C   tau( 380) = (   0.1192921   0.1580534   0.6121540  )
       381           C   tau( 381) = (   0.3741790   0.4129403  -0.4273593  )
       382           C   tau( 382) = (   0.1192921   0.6678273  -0.0808549  )
       383           C   tau( 383) = (   0.6290659   0.1580534  -0.0808549  )
       384           C   tau( 384) = (   0.3741790   0.4129403   0.2656496  )
       385           C   tau( 385) = (   0.1264886   0.2304029  -0.0853750  )
       386           C   tau( 386) = (  -0.1283983   0.4852898   0.2611294  )
       387           C   tau( 387) = (   0.3813755  -0.0244840   0.2611294  )
       388           C   tau( 388) = (   0.1264886   0.2304029   0.6076339  )
       389           C   tau( 389) = (   0.3813755   0.4852898  -0.4318794  )
       390           C   tau( 390) = (   0.1264886   0.7401767  -0.0853750  )
       391           C   tau( 391) = (   0.6362624   0.2304029  -0.0853750  )
       392           C   tau( 392) = (   0.3813755   0.4852898   0.2611294  )
       393           C   tau( 393) = (   0.1733530   0.1135697  -0.0858899  )
       394           C   tau( 394) = (  -0.0815340   0.3684566   0.2606145  )
       395           C   tau( 395) = (   0.4282399  -0.1413172   0.2606145  )
       396           C   tau( 396) = (   0.1733530   0.1135697   0.6071189  )
       397           C   tau( 397) = (   0.4282399   0.3684566  -0.4323944  )
       398           C   tau( 398) = (   0.1733530   0.6233435  -0.0858899  )
       399           C   tau( 399) = (   0.6831268   0.1135697  -0.0858899  )
       400           C   tau( 400) = (   0.4282399   0.3684566   0.2606145  )
       401           H   tau( 401) = (   0.2248879   0.1320089  -0.0919123  )
       402           H   tau( 402) = (  -0.0299990   0.3868958   0.2545921  )
       403           H   tau( 403) = (   0.4797748  -0.1228780   0.2545921  )
       404           H   tau( 404) = (   0.2248879   0.1320089   0.6010965  )
       405           H   tau( 405) = (   0.4797748   0.3868958  -0.4384168  )
       406           H   tau( 406) = (   0.2248879   0.6417827  -0.0919123  )
       407           H   tau( 407) = (   0.7346617   0.1320089  -0.0919123  )
       408           H   tau( 408) = (   0.4797748   0.3868958   0.2545921  )
       409           C   tau( 409) = (  -0.1617165   0.2782942   0.2661087  )
       410           C   tau( 410) = (  -0.4166034   0.5331811   0.6126131  )
       411           C   tau( 411) = (   0.0931704   0.0234072   0.6126131  )
       412           C   tau( 412) = (  -0.1617165   0.2782942   0.9591176  )
       413           C   tau( 413) = (   0.0931704   0.5331811  -0.0803957  )
       414           C   tau( 414) = (  -0.1617165   0.7880680   0.2661087  )
       415           C   tau( 415) = (   0.3480573   0.2782942   0.2661087  )
       416           C   tau( 416) = (   0.0931704   0.5331811   0.6126131  )
       417           H   tau( 417) = (  -0.1751034   0.2248802   0.2650870  )
       418           H   tau( 418) = (  -0.4299903   0.4797671   0.6115915  )
       419           H   tau( 419) = (   0.0797836  -0.0300067   0.6115915  )
       420           H   tau( 420) = (  -0.1751034   0.2248802   0.9580959  )
       421           H   tau( 421) = (   0.0797836   0.4797671  -0.0814174  )
       422           H   tau( 422) = (  -0.1751034   0.7346540   0.2650870  )
       423           H   tau( 423) = (   0.3346705   0.2248802   0.2650870  )
       424           H   tau( 424) = (   0.0797836   0.4797671   0.6115915  )
       425           N   tau( 425) = (   0.1757347   0.2686298  -0.0598561  )
       426           N   tau( 426) = (  -0.0791523   0.5235167   0.2866484  )
       427           N   tau( 427) = (   0.4306216   0.0137429   0.2866484  )
       428           N   tau( 428) = (   0.1757347   0.2686298   0.6331528  )
       429           N   tau( 429) = (   0.4306216   0.5235167  -0.4063605  )
       430           N   tau( 430) = (   0.1757347   0.7784037  -0.0598561  )
       431           N   tau( 431) = (   0.6855085   0.2686298  -0.0598561  )
       432           N   tau( 432) = (   0.4306216   0.5235167   0.2866484  )
       433           N   tau( 433) = (   0.1619189   0.3327505  -0.0771948  )
       434           N   tau( 434) = (  -0.0929680   0.5876374   0.2693096  )
       435           N   tau( 435) = (   0.4168059   0.0778636   0.2693096  )
       436           N   tau( 436) = (   0.1619189   0.3327505   0.6158141  )
       437           N   tau( 437) = (   0.4168059   0.5876374  -0.4236992  )
       438           N   tau( 438) = (   0.1619189   0.8425243  -0.0771948  )
       439           N   tau( 439) = (   0.6716928   0.3327505  -0.0771948  )
       440           N   tau( 440) = (   0.4168059   0.5876374   0.2693096  )
       441           C   tau( 441) = (   0.0547751   0.1310583  -0.0740469  )
       442           C   tau( 442) = (  -0.2001118   0.3859452   0.2724575  )
       443           C   tau( 443) = (   0.3096620  -0.1238286   0.2724575  )
       444           C   tau( 444) = (   0.0547751   0.1310583   0.6189619  )
       445           C   tau( 445) = (   0.3096620   0.3859452  -0.4205514  )
       446           C   tau( 446) = (   0.0547751   0.6408321  -0.0740469  )
       447           C   tau( 447) = (   0.5645489   0.1310583  -0.0740469  )
       448           C   tau( 448) = (   0.3096620   0.3859452   0.2724575  )
       449           H   tau( 449) = (   0.2663802  -0.0903755   0.2792431  )
       450           H   tau( 450) = (   0.0114933   0.1645114   0.6257475  )
       451           H   tau( 451) = (   0.5212672  -0.3452624   0.6257475  )
       452           H   tau( 452) = (   0.2663802  -0.0903755   0.9722520  )
       453           H   tau( 453) = (   0.5212672   0.1645114  -0.0672613  )
       454           H   tau( 454) = (   0.2663802   0.4193983   0.2792431  )
       455           H   tau( 455) = (   0.7761541  -0.0903755   0.2792431  )
       456           H   tau( 456) = (   0.5212672   0.1645114   0.6257475  )
       457           N   tau( 457) = (   0.2963571  -0.1890817   0.2718980  )
       458           N   tau( 458) = (   0.0414701   0.0658052   0.6184024  )
       459           N   tau( 459) = (   0.5512440  -0.4439686   0.6184024  )
       460           N   tau( 460) = (   0.2963571  -0.1890817   0.9649069  )
       461           N   tau( 461) = (   0.5512440   0.0658052  -0.0746064  )
       462           N   tau( 462) = (   0.2963571   0.3206921   0.2718980  )
       463           N   tau( 463) = (   0.8061309  -0.1890817   0.2718980  )
       464           N   tau( 464) = (   0.5512440   0.0658052   0.6184024  )
       465           C   tau( 465) = (   0.0952547   0.2096875   0.2614205  )
       466           C   tau( 466) = (  -0.1596322   0.4645744   0.6079250  )
       467           C   tau( 467) = (   0.3501416  -0.0451994   0.6079250  )
       468           C   tau( 468) = (   0.0952547   0.2096875   0.9544294  )
       469           C   tau( 469) = (   0.3501416   0.4645744  -0.0850839  )
       470           C   tau( 470) = (   0.0952547   0.7194613   0.2614205  )
       471           C   tau( 471) = (   0.6050285   0.2096875   0.2614205  )
       472           C   tau( 472) = (   0.3501416   0.4645744   0.6079250  )
       473           H   tau( 473) = (  -0.0549167   0.2630936   0.2569907  )
       474           H   tau( 474) = (  -0.3098036   0.5179805   0.6034951  )
       475           H   tau( 475) = (   0.1999702   0.0082067   0.6034951  )
       476           H   tau( 476) = (  -0.0549167   0.2630936   0.9499995  )
       477           H   tau( 477) = (   0.1999702   0.5179805  -0.0895138  )
       478           H   tau( 478) = (  -0.0549167   0.7728675   0.2569907  )
       479           H   tau( 479) = (   0.4548571   0.2630936   0.2569907  )
       480           H   tau( 480) = (   0.1999702   0.5179805   0.6034951  )
       481           Zn  tau( 481) = (   0.2548869   0.0000000   0.1732522  )
       482           Zn  tau( 482) = (   0.0000000   0.2548869   0.5197567  )
       483           Zn  tau( 483) = (   0.5097738  -0.2548869   0.5197567  )
       484           Zn  tau( 484) = (   0.2548869   0.0000000   0.8662611  )
       485           Zn  tau( 485) = (   0.5097738   0.2548869  -0.1732522  )
       486           Zn  tau( 486) = (   0.2548869   0.5097738   0.1732522  )
       487           Zn  tau( 487) = (   0.7646607   0.0000000   0.1732522  )
       488           Zn  tau( 488) = (   0.5097738   0.2548869   0.5197567  )
       489           Zn  tau( 489) = (   0.0000000   0.0000000   0.3465044  )
       490           Zn  tau( 490) = (  -0.2548869   0.2548869   0.6930089  )
       491           Zn  tau( 491) = (   0.2548869  -0.2548869   0.6930089  )
       492           Zn  tau( 492) = (   0.0000000   0.0000000   1.0395133  )
       493           Zn  tau( 493) = (   0.2548869   0.2548869   0.0000000  )
       494           Zn  tau( 494) = (   0.0000000   0.5097738   0.3465044  )
       495           Zn  tau( 495) = (   0.5097738   0.0000000   0.3465044  )
       496           Zn  tau( 496) = (   0.2548869   0.2548869   0.6930089  )

   Crystallographic axes

     site n.     atom                  positions (cryst. coord.)
         1           N   tau(   1) = (  0.0032815  0.3505269  0.1844547  )
         2           N   tau(   2) = (  0.5032815  0.3505269  0.1844547  )
         3           N   tau(   3) = (  0.0032815  0.8505269  0.1844547  )
         4           N   tau(   4) = (  0.5032815  0.8505269  0.1844547  )
         5           N   tau(   5) = (  0.0032815  0.3505269  0.6844547  )
         6           N   tau(   6) = (  0.5032815  0.3505269  0.6844547  )
         7           N   tau(   7) = (  0.0032815  0.8505269  0.6844547  )
         8           N   tau(   8) = (  0.5032815  0.8505269  0.6844547  )
         9           N   tau(   9) = (  0.4754485  0.4079607  0.2230258  )
        10           N   tau(  10) = (  0.9754485  0.4079607  0.2230258  )
        11           N   tau(  11) = (  0.4754485  0.9079607  0.2230258  )
        12           N   tau(  12) = (  0.9754485  0.9079607  0.2230258  )
        13           N   tau(  13) = (  0.4754485  0.4079607  0.7230258  )
        14           N   tau(  14) = (  0.9754485  0.4079607  0.7230258  )
        15           N   tau(  15) = (  0.4754485  0.9079607  0.7230258  )
        16           N   tau(  16) = (  0.9754485  0.9079607  0.7230258  )
        17           C   tau(  17) = (  0.4413312  0.2133592  0.0380182  )
        18           C   tau(  18) = (  0.9413312  0.2133592  0.0380182  )
        19           C   tau(  19) = (  0.4413312  0.7133592  0.0380182  )
        20           C   tau(  20) = (  0.9413312  0.7133592  0.0380182  )
        21           C   tau(  21) = (  0.4413312  0.2133592  0.5380182  )
        22           C   tau(  22) = (  0.9413312  0.2133592  0.5380182  )
        23           C   tau(  23) = (  0.4413312  0.7133592  0.5380182  )
        24           C   tau(  24) = (  0.9413312  0.7133592  0.5380182  )
        25           C   tau(  25) = (  0.4375339  0.2875827  0.1019219  )
        26           C   tau(  26) = (  0.9375339  0.2875827  0.1019219  )
        27           C   tau(  27) = (  0.4375339  0.7875827  0.1019219  )
        28           C   tau(  28) = (  0.9375339  0.7875827  0.1019219  )
        29           C   tau(  29) = (  0.4375339  0.2875827  0.6019219  )
        30           C   tau(  30) = (  0.9375339  0.2875827  0.6019219  )
        31           C   tau(  31) = (  0.4375339  0.7875827  0.6019219  )
        32           C   tau(  32) = (  0.9375339  0.7875827  0.6019219  )
        33           C   tau(  33) = (  0.3919396  0.1733611  0.4413630  )
        34           C   tau(  34) = (  0.8919396  0.1733611  0.4413630  )
        35           C   tau(  35) = (  0.3919396  0.6733611  0.4413630  )
        36           C   tau(  36) = (  0.8919396  0.6733611  0.4413630  )
        37           C   tau(  37) = (  0.3919396  0.1733611  0.9413630  )
        38           C   tau(  38) = (  0.8919396  0.1733611  0.9413630  )
        39           C   tau(  39) = (  0.3919396  0.6733611  0.9413630  )
        40           C   tau(  40) = (  0.8919396  0.6733611  0.9413630  )
        41           H   tau(  41) = (  0.3457378  0.1957919  0.4089018  )
        42           H   tau(  42) = (  0.8457378  0.1957919  0.4089018  )
        43           H   tau(  43) = (  0.3457378  0.6957919  0.4089018  )
        44           H   tau(  44) = (  0.8457378  0.6957919  0.4089018  )
        45           H   tau(  45) = (  0.3457378  0.1957919  0.9089018  )
        46           H   tau(  46) = (  0.8457378  0.1957919  0.9089018  )
        47           H   tau(  47) = (  0.3457378  0.6957919  0.9089018  )
        48           H   tau(  48) = (  0.8457378  0.6957919  0.9089018  )
        49           C   tau(  49) = (  0.4666208  0.0809633  0.4315744  )
        50           C   tau(  50) = (  0.9666208  0.0809633  0.4315744  )
        51           C   tau(  51) = (  0.4666208  0.5809633  0.4315744  )
        52           C   tau(  52) = (  0.9666208  0.5809633  0.4315744  )
        53           C   tau(  53) = (  0.4666208  0.0809633  0.9315744  )
        54           C   tau(  54) = (  0.9666208  0.0809633  0.9315744  )
        55           C   tau(  55) = (  0.4666208  0.5809633  0.9315744  )
        56           C   tau(  56) = (  0.9666208  0.5809633  0.9315744  )
        57           H   tau(  57) = (  0.4804881  0.0293106  0.3923147  )
        58           H   tau(  58) = (  0.9804881  0.0293106  0.3923147  )
        59           H   tau(  59) = (  0.4804881  0.5293106  0.3923147  )
        60           H   tau(  60) = (  0.9804881  0.5293106  0.3923147  )
        61           H   tau(  61) = (  0.4804881  0.0293106  0.8923147  )
        62           H   tau(  62) = (  0.9804881  0.0293106  0.8923147  )
        63           H   tau(  63) = (  0.4804881  0.5293106  0.8923147  )
        64           H   tau(  64) = (  0.9804881  0.5293106  0.8923147  )
        65           N   tau(  65) = (  0.3708203  0.3066651  0.0911141  )
        66           N   tau(  66) = (  0.8708203  0.3066651  0.0911141  )
        67           N   tau(  67) = (  0.3708203  0.8066651  0.0911141  )
        68           N   tau(  68) = (  0.8708203  0.8066651  0.0911141  )
        69           N   tau(  69) = (  0.3708203  0.3066651  0.5911141  )
        70           N   tau(  70) = (  0.8708203  0.3066651  0.5911141  )
        71           N   tau(  71) = (  0.3708203  0.8066651  0.5911141  )
        72           N   tau(  72) = (  0.8708203  0.8066651  0.5911141  )
        73           N   tau(  73) = (  0.3968809  0.3820661  0.1680876  )
        74           N   tau(  74) = (  0.8968809  0.3820661  0.1675562  )
        75           N   tau(  75) = (  0.3968809  0.8820661  0.1675562  )
        76           N   tau(  76) = (  0.8968809  0.8820661  0.1675562  )
        77           N   tau(  77) = (  0.3968809  0.3820661  0.6675562  )
        78           N   tau(  78) = (  0.8968809  0.3820661  0.6675562  )
        79           N   tau(  79) = (  0.3968809  0.8820661  0.6675562  )
        80           N   tau(  80) = (  0.8968809  0.8820661  0.6675562  )
        81           C   tau(  81) = (  0.4996994  0.1819698  0.0748207  )
        82           C   tau(  82) = (  0.9996994  0.1819698  0.0748207  )
        83           C   tau(  83) = (  0.4996994  0.6819698  0.0748207  )
        84           C   tau(  84) = (  0.9996994  0.6819698  0.0748207  )
        85           C   tau(  85) = (  0.4996994  0.1819698  0.5748207  )
        86           C   tau(  86) = (  0.9996994  0.1819698  0.5748207  )
        87           C   tau(  87) = (  0.4996994  0.6819698  0.5748207  )
        88           C   tau(  88) = (  0.9996994  0.6819698  0.5748207  )
        89           H   tau(  89) = (  0.0372555  0.2098857  0.1500843  )
        90           H   tau(  90) = (  0.5372555  0.2098857  0.1500843  )
        91           H   tau(  91) = (  0.0372555  0.7098857  0.1500843  )
        92           H   tau(  92) = (  0.5372555  0.7098857  0.1500843  )
        93           H   tau(  93) = (  0.0372555  0.2098857  0.6500843  )
        94           H   tau(  94) = (  0.5372555  0.2098857  0.6500843  )
        95           H   tau(  95) = (  0.0372555  0.7098857  0.6500843  )
        96           H   tau(  96) = (  0.5372555  0.7098857  0.6500843  )
        97           N   tau(  97) = (  0.0131529  0.1183715  0.0238685  )
        98           N   tau(  98) = (  0.5131529  0.1183715  0.0238685  )
        99           N   tau(  99) = (  0.0131529  0.6183715  0.0238685  )
       100           N   tau( 100) = (  0.5131529  0.6183715  0.0238685  )
       101           N   tau( 101) = (  0.0131529  0.1183715  0.5238685  )
       102           N   tau( 102) = (  0.5131529  0.1183715  0.5238685  )
       103           N   tau( 103) = (  0.0131529  0.6183715  0.5238685  )
       104           N   tau( 104) = (  0.5131529  0.6183715  0.5238685  )
       105           C   tau( 105) = (  0.2179589  0.0170545  0.1122388  )
       106           C   tau( 106) = (  0.7179589  0.0170545  0.1122388  )
       107           C   tau( 107) = (  0.2179589  0.5170545  0.1122388  )
       108           C   tau( 108) = (  0.7179589  0.5170545  0.1122388  )
       109           C   tau( 109) = (  0.2179589  0.0170545  0.6122388  )
       110           C   tau( 110) = (  0.7179589  0.0170545  0.6122388  )
       111           C   tau( 111) = (  0.2179589  0.5170545  0.6122388  )
       112           C   tau( 112) = (  0.7179589  0.5170545  0.6122388  )
       113           H   tau( 113) = (  0.3684472  0.0726328  0.3119132  )
       114           H   tau( 114) = (  0.8684472  0.0726328  0.3119132  )
       115           H   tau( 115) = (  0.3684472  0.5726328  0.3119132  )
       116           H   tau( 116) = (  0.8684472  0.5726328  0.3119132  )
       117           H   tau( 117) = (  0.3684472  0.0726328  0.8119132  )
       118           H   tau( 118) = (  0.8684472  0.0726328  0.8119132  )
       119           H   tau( 119) = (  0.3684472  0.5726328  0.8119132  )
       120           H   tau( 120) = (  0.8684472  0.5726328  0.8119132  )
       121           N   tau( 121) = (  0.1660722  0.3188268  0.3155453  )
       122           N   tau( 122) = (  0.6660722  0.3188268  0.3155453  )
       123           N   tau( 123) = (  0.1660722  0.8188268  0.3155453  )
       124           N   tau( 124) = (  0.6660722  0.8188268  0.3155453  )
       125           N   tau( 125) = (  0.1660722  0.3188268  0.8155453  )
       126           N   tau( 126) = (  0.6660722  0.3188268  0.8155453  )
       127           N   tau( 127) = (  0.1660722  0.8188268  0.8155453  )
       128           N   tau( 128) = (  0.6660722  0.8188268  0.8155453  )
       129           N   tau( 129) = (  0.1849349  0.2524227  0.2769742  )
       130           N   tau( 130) = (  0.6849349  0.2524227  0.2769742  )
       131           N   tau( 131) = (  0.1849349  0.7524227  0.2769742  )
       132           N   tau( 132) = (  0.6849349  0.7524227  0.2769742  )
       133           N   tau( 133) = (  0.1849349  0.2524227  0.7769742  )
       134           N   tau( 134) = (  0.6849349  0.2524227  0.7769742  )
       135           N   tau( 135) = (  0.1849349  0.7524227  0.7769742  )
       136           N   tau( 136) = (  0.6849349  0.7524227  0.7769742  )
       137           C   tau( 137) = (  0.1753410  0.4033130  0.4619818  )
       138           C   tau( 138) = (  0.6753410  0.4033130  0.4619818  )
       139           C   tau( 139) = (  0.1753410  0.9033130  0.4619818  )
       140           C   tau( 140) = (  0.6753410  0.9033130  0.4619818  )
       141           C   tau( 141) = (  0.1753410  0.4033130  0.9619818  )
       142           C   tau( 142) = (  0.6753410  0.4033130  0.9619818  )
       143           C   tau( 143) = (  0.1753410  0.9033130  0.9619818  )
       144           C   tau( 144) = (  0.6753410  0.9033130  0.9619818  )
       145           C   tau( 145) = (  0.1856608  0.3356120  0.3980781  )
       146           C   tau( 146) = (  0.6856608  0.3356120  0.3980781  )
       147           C   tau( 147) = (  0.1856608  0.8356120  0.3980781  )
       148           C   tau( 148) = (  0.6856608  0.8356120  0.3980781  )
       149           C   tau( 149) = (  0.1856608  0.3356120  0.8980781  )
       150           C   tau( 150) = (  0.6856608  0.3356120  0.8980781  )
       151           C   tau( 151) = (  0.1856608  0.8356120  0.8980781  )
       152           C   tau( 152) = (  0.6856608  0.8356120  0.8980781  )
       153           C   tau( 153) = (  0.2319981  0.4505766  0.0586370  )
       154           C   tau( 154) = (  0.7319981  0.4505766  0.0586370  )
       155           C   tau( 155) = (  0.2319981  0.9505766  0.0586370  )
       156           C   tau( 156) = (  0.7319981  0.9505766  0.0586370  )
       157           C   tau( 157) = (  0.2319981  0.4505766  0.5586370  )
       158           C   tau( 158) = (  0.7319981  0.4505766  0.5586370  )
       159           C   tau( 159) = (  0.2319981  0.9505766  0.5586370  )
       160           C   tau( 160) = (  0.7319981  0.9505766  0.5586370  )
       161           H   tau( 161) = (  0.2868901  0.4368360  0.0910982  )
       162           H   tau( 162) = (  0.7868901  0.4368360  0.0910982  )
       163           H   tau( 163) = (  0.2868901  0.9368360  0.0910982  )
       164           H   tau( 164) = (  0.7868901  0.9368360  0.0910982  )
       165           H   tau( 165) = (  0.2868901  0.4368360  0.5910982  )
       166           H   tau( 166) = (  0.7868901  0.4368360  0.5910982  )
       167           H   tau( 167) = (  0.2868901  0.9368360  0.5910982  )
       168           H   tau( 168) = (  0.7868901  0.9368360  0.5910982  )
       169           C   tau( 169) = (  0.1493889  0.0350464  0.0684256  )
       170           C   tau( 170) = (  0.6493889  0.0350464  0.0684256  )
       171           C   tau( 171) = (  0.1493889  0.5350464  0.0684256  )
       172           C   tau( 172) = (  0.6493889  0.5350464  0.0684256  )
       173           C   tau( 173) = (  0.1493889  0.0350464  0.5684256  )
       174           C   tau( 174) = (  0.6493889  0.0350464  0.5684256  )
       175           C   tau( 175) = (  0.1493889  0.5350464  0.5684256  )
       176           C   tau( 176) = (  0.6493889  0.5350464  0.5684256  )
       177           H   tau( 177) = (  0.1369958  0.0881734  0.1076853  )
       178           H   tau( 178) = (  0.6369958  0.0881734  0.1076853  )
       179           H   tau( 179) = (  0.1369958  0.5881734  0.1076853  )
       180           H   tau( 180) = (  0.6369958  0.5881734  0.1076853  )
       181           H   tau( 181) = (  0.1369958  0.0881734  0.6076853  )
       182           H   tau( 182) = (  0.6369958  0.0881734  0.6076853  )
       183           H   tau( 183) = (  0.1369958  0.5881734  0.6076853  )
       184           H   tau( 184) = (  0.6369958  0.5881734  0.6076853  )
       185           N   tau( 185) = (  0.2155510  0.2797062  0.4088859  )
       186           N   tau( 186) = (  0.7155510  0.2797062  0.4088859  )
       187           N   tau( 187) = (  0.2155510  0.7797062  0.4088859  )
       188           N   tau( 188) = (  0.7155510  0.7797062  0.4088859  )
       189           N   tau( 189) = (  0.2155510  0.2797062  0.9088859  )
       190           N   tau( 190) = (  0.7155510  0.2797062  0.9088859  )
       191           N   tau( 191) = (  0.2155510  0.7797062  0.9088859  )
       192           N   tau( 192) = (  0.7155510  0.7797062  0.9088859  )
       193           N   tau( 193) = (  0.2145099  0.2293247  0.3324438  )
       194           N   tau( 194) = (  0.7145099  0.2293247  0.3324438  )
       195           N   tau( 195) = (  0.2145099  0.7293247  0.3324438  )
       196           N   tau( 196) = (  0.7145099  0.7293247  0.3324438  )
       197           N   tau( 197) = (  0.2145099  0.2293247  0.8324438  )
       198           N   tau( 198) = (  0.7145099  0.2293247  0.8324438  )
       199           N   tau( 199) = (  0.2145099  0.7293247  0.8324438  )
       200           N   tau( 200) = (  0.7145099  0.7293247  0.8324438  )
       201           C   tau( 201) = (  0.1071491  0.4248787  0.4251793  )
       202           C   tau( 202) = (  0.6071491  0.4248787  0.4251793  )
       203           C   tau( 203) = (  0.1071491  0.9248787  0.4251793  )
       204           C   tau( 204) = (  0.6071491  0.9248787  0.4251793  )
       205           C   tau( 205) = (  0.1071491  0.4248787  0.9251793  )
       206           C   tau( 206) = (  0.6071491  0.4248787  0.9251793  )
       207           C   tau( 207) = (  0.1071491  0.9248787  0.9251793  )
       208           C   tau( 208) = (  0.6071491  0.9248787  0.9251793  )
       209           H   tau( 209) = (  0.0598014  0.3871712  0.3499157  )
       210           H   tau( 210) = (  0.5598014  0.3871712  0.3499157  )
       211           H   tau( 211) = (  0.0598014  0.8871712  0.3499157  )
       212           H   tau( 212) = (  0.5598014  0.8871712  0.3499157  )
       213           H   tau( 213) = (  0.0598014  0.3871712  0.8499157  )
       214           H   tau( 214) = (  0.5598014  0.3871712  0.8499157  )
       215           H   tau( 215) = (  0.0598014  0.8871712  0.8499157  )
       216           H   tau( 216) = (  0.5598014  0.8871712  0.8499157  )
       217           N   tau( 217) = (  0.0945030  0.4892844  0.4761315  )
       218           N   tau( 218) = (  0.5945030  0.4892844  0.4761315  )
       219           N   tau( 219) = (  0.0945030  0.9892844  0.4761315  )
       220           N   tau( 220) = (  0.5945030  0.9892844  0.4761315  )
       221           N   tau( 221) = (  0.0945030  0.4892844  0.9761315  )
       222           N   tau( 222) = (  0.5945030  0.4892844  0.9761315  )
       223           N   tau( 223) = (  0.0945030  0.9892844  0.9761315  )
       224           N   tau( 224) = (  0.5945030  0.9892844  0.9761315  )
       225           C   tau( 225) = (  0.4048157  0.1057201  0.3877612  )
       226           C   tau( 226) = (  0.9048157  0.1057201  0.3877612  )
       227           C   tau( 227) = (  0.4048157  0.6057201  0.3877612  )
       228           C   tau( 228) = (  0.9048157  0.6057201  0.3877612  )
       229           C   tau( 229) = (  0.4048157  0.1057201  0.8877612  )
       230           C   tau( 230) = (  0.9048157  0.1057201  0.8877612  )
       231           C   tau( 231) = (  0.4048157  0.6057201  0.8877612  )
       232           C   tau( 232) = (  0.9048157  0.6057201  0.8877612  )
       233           H   tau( 233) = (  0.2607196  0.0565340  0.1880868  )
       234           H   tau( 234) = (  0.7607196  0.0565340  0.1880868  )
       235           H   tau( 235) = (  0.2607196  0.5565340  0.1880868  )
       236           H   tau( 236) = (  0.7607196  0.5565340  0.1880868  )
       237           H   tau( 237) = (  0.2607196  0.0565340  0.6880868  )
       238           H   tau( 238) = (  0.7607196  0.0565340  0.6880868  )
       239           H   tau( 239) = (  0.2607196  0.5565340  0.6880868  )
       240           H   tau( 240) = (  0.7607196  0.5565340  0.6880868  )
       241           N   tau( 241) = (  0.1494731  0.3339278  0.1527546  )
       242           N   tau( 242) = (  0.6494731  0.3339278  0.1527546  )
       243           N   tau( 243) = (  0.1494731  0.8339278  0.1527546  )
       244           N   tau( 244) = (  0.6494731  0.8339278  0.1527546  )
       245           N   tau( 245) = (  0.1494731  0.3339278  0.6527546  )
       246           N   tau( 246) = (  0.6494731  0.3339278  0.6527546  )
       247           N   tau( 247) = (  0.1494731  0.8339278  0.6527546  )
       248           N   tau( 248) = (  0.6494731  0.8339278  0.6527546  )
       249           N   tau( 249) = (  0.0920393  0.3150651  0.0674878  )
       250           N   tau( 250) = (  0.5920393  0.3150651  0.0674878  )
       251           N   tau( 251) = (  0.0920393  0.8150651  0.0674878  )
       252           N   tau( 252) = (  0.5920393  0.8150651  0.0674878  )
       253           N   tau( 253) = (  0.0920393  0.3150651  0.5674878  )
       254           N   tau( 254) = (  0.5920393  0.3150651  0.5674878  )
       255           N   tau( 255) = (  0.0920393  0.8150651  0.5674878  )
       256           N   tau( 256) = (  0.5920393  0.8150651  0.5674878  )
       257           C   tau( 257) = (  0.2866408  0.3246590  0.2279720  )
       258           C   tau( 258) = (  0.7866408  0.3246590  0.2279720  )
       259           C   tau( 259) = (  0.2866408  0.8246590  0.2279720  )
       260           C   tau( 260) = (  0.7866408  0.8246590  0.2279720  )
       261           C   tau( 261) = (  0.2866408  0.3246590  0.7279720  )
       262           C   tau( 262) = (  0.7866408  0.3246590  0.7279720  )
       263           C   tau( 263) = (  0.2866408  0.8246590  0.7279720  )
       264           C   tau( 264) = (  0.7866408  0.8246590  0.7279720  )
       265           C   tau( 265) = (  0.2124173  0.3143392  0.1499511  )
       266           C   tau( 266) = (  0.7124173  0.3143392  0.1499511  )
       267           C   tau( 267) = (  0.2124173  0.8143392  0.1499511  )
       268           C   tau( 268) = (  0.7124173  0.8143392  0.1499511  )
       269           C   tau( 269) = (  0.2124173  0.3143392  0.6499511  )
       270           C   tau( 270) = (  0.7124173  0.3143392  0.6499511  )
       271           C   tau( 271) = (  0.2124173  0.8143392  0.6499511  )
       272           C   tau( 272) = (  0.7124173  0.8143392  0.6499511  )
       273           C   tau( 273) = (  0.3266389  0.2680019  0.2185785  )
       274           C   tau( 274) = (  0.8266389  0.2680019  0.2185785  )
       275           C   tau( 275) = (  0.3266389  0.7680019  0.2185785  )
       276           C   tau( 276) = (  0.8266389  0.7680019  0.2185785  )
       277           C   tau( 277) = (  0.3266389  0.2680019  0.7185785  )
       278           C   tau( 278) = (  0.8266389  0.2680019  0.7185785  )
       279           C   tau( 279) = (  0.3266389  0.7680019  0.7185785  )
       280           C   tau( 280) = (  0.8266389  0.7680019  0.7185785  )
       281           H   tau( 281) = (  0.3042081  0.2131099  0.1499459  )
       282           H   tau( 282) = (  0.8042081  0.2131099  0.1499459  )
       283           H   tau( 283) = (  0.3042081  0.7131099  0.1499459  )
       284           H   tau( 284) = (  0.8042081  0.7131099  0.1499459  )
       285           H   tau( 285) = (  0.3042081  0.2131099  0.6499459  )
       286           H   tau( 286) = (  0.8042081  0.2131099  0.6499459  )
       287           H   tau( 287) = (  0.3042081  0.7131099  0.6499459  )
       288           H   tau( 288) = (  0.8042081  0.7131099  0.6499459  )
       289           C   tau( 289) = (  0.4190367  0.3506111  0.3856575  )
       290           C   tau( 290) = (  0.9190367  0.3506111  0.3856575  )
       291           C   tau( 291) = (  0.4190367  0.8506111  0.3856575  )
       292           C   tau( 292) = (  0.9190367  0.8506111  0.3856575  )
       293           C   tau( 293) = (  0.4190367  0.3506111  0.8856575  )
       294           C   tau( 294) = (  0.9190367  0.3506111  0.8856575  )
       295           C   tau( 295) = (  0.4190367  0.8506111  0.8856575  )
       296           C   tau( 296) = (  0.9190367  0.8506111  0.8856575  )
       297           H   tau( 297) = (  0.4706894  0.3630042  0.4511775  )
       298           H   tau( 298) = (  0.9706894  0.3630042  0.4511775  )
       299           H   tau( 299) = (  0.4706894  0.8630042  0.4511775  )
       300           H   tau( 300) = (  0.9706894  0.8630042  0.4511775  )
       301           H   tau( 301) = (  0.4706894  0.3630042  0.9511775  )
       302           H   tau( 302) = (  0.9706894  0.3630042  0.9511775  )
       303           H   tau( 303) = (  0.4706894  0.8630042  0.9511775  )
       304           H   tau( 304) = (  0.9706894  0.8630042  0.9511775  )
       305           N   tau( 305) = (  0.1933349  0.2844490  0.0641553  )
       306           N   tau( 306) = (  0.6933349  0.2844490  0.0641553  )
       307           N   tau( 307) = (  0.1933349  0.7844490  0.0641553  )
       308           N   tau( 308) = (  0.6933349  0.7844490  0.0641553  )
       309           N   tau( 309) = (  0.1933349  0.2844490  0.5641553  )
       310           N   tau( 310) = (  0.6933349  0.2844490  0.5641553  )
       311           N   tau( 311) = (  0.1933349  0.7844490  0.5641553  )
       312           N   tau( 312) = (  0.6933349  0.7844490  0.5641553  )
       313           N   tau( 313) = (  0.1179339  0.2854901  0.0148148  )
       314           N   tau( 314) = (  0.6179339  0.2854901  0.0148148  )
       315           N   tau( 315) = (  0.1179339  0.7854901  0.0148148  )
       316           N   tau( 316) = (  0.6179339  0.7854901  0.0148148  )
       317           N   tau( 317) = (  0.1179339  0.2854901  0.5148148  )
       318           N   tau( 318) = (  0.6179339  0.2854901  0.5148148  )
       319           N   tau( 319) = (  0.1179339  0.7854901  0.5148148  )
       320           N   tau( 320) = (  0.6179339  0.7854901  0.5148148  )
       321           C   tau( 321) = (  0.3180302  0.3928509  0.3177296  )
       322           C   tau( 322) = (  0.8180302  0.3928509  0.3177296  )
       323           C   tau( 323) = (  0.3180302  0.8928509  0.3177296  )
       324           C   tau( 324) = (  0.8180302  0.8928509  0.3177296  )
       325           C   tau( 325) = (  0.3180302  0.3928509  0.8177296  )
       326           C   tau( 326) = (  0.8180302  0.3928509  0.8177296  )
       327           C   tau( 327) = (  0.3180302  0.8928509  0.8177296  )
       328           C   tau( 328) = (  0.8180302  0.8928509  0.8177296  )
       329           H   tau( 329) = (  0.2901143  0.4401986  0.3273698  )
       330           H   tau( 330) = (  0.7901143  0.4401986  0.3273698  )
       331           H   tau( 331) = (  0.2901143  0.9401986  0.3273698  )
       332           H   tau( 332) = (  0.7901143  0.9401986  0.3273698  )
       333           H   tau( 333) = (  0.2901143  0.4401986  0.8273698  )
       334           H   tau( 334) = (  0.7901143  0.4401986  0.8273698  )
       335           H   tau( 335) = (  0.2901143  0.9401986  0.8273698  )
       336           H   tau( 336) = (  0.7901143  0.9401986  0.8273698  )
       337           N   tau( 337) = (  0.3816285  0.4054970  0.3947814  )
       338           N   tau( 338) = (  0.8816285  0.4054970  0.3947814  )
       339           N   tau( 339) = (  0.3816285  0.9054970  0.3947814  )
       340           N   tau( 340) = (  0.8816285  0.9054970  0.3947814  )
       341           N   tau( 341) = (  0.3816285  0.4054970  0.8947814  )
       342           N   tau( 342) = (  0.8816285  0.4054970  0.8947814  )
       343           N   tau( 343) = (  0.3816285  0.9054970  0.8947814  )
       344           N   tau( 344) = (  0.8816285  0.9054970  0.8947814  )
       345           C   tau( 345) = (  0.4829455  0.0951843  0.2009044  )
       346           C   tau( 346) = (  0.9829455  0.0951843  0.2009044  )
       347           C   tau( 347) = (  0.4829455  0.5951843  0.2009044  )
       348           C   tau( 348) = (  0.9829455  0.5951843  0.2009044  )
       349           C   tau( 349) = (  0.4829455  0.0951843  0.7009044  )
       350           C   tau( 350) = (  0.9829455  0.0951843  0.7009044  )
       351           C   tau( 351) = (  0.4829455  0.5951843  0.7009044  )
       352           C   tau( 352) = (  0.9829455  0.5951843  0.7009044  )
       353           H   tau( 353) = (  0.4273672  0.2392804  0.2958144  )
       354           H   tau( 354) = (  0.9273672  0.2392804  0.2958144  )
       355           H   tau( 355) = (  0.4273672  0.7392804  0.2958144  )
       356           H   tau( 356) = (  0.9273672  0.7392804  0.2958144  )
       357           H   tau( 357) = (  0.4273672  0.2392804  0.7958144  )
       358           H   tau( 358) = (  0.9273672  0.2392804  0.7958144  )
       359           H   tau( 359) = (  0.4273672  0.7392804  0.7958144  )
       360           H   tau( 360) = (  0.9273672  0.7392804  0.7958144  )
       361           N   tau( 361) = (  0.1811732  0.4967185  0.3472454  )
       362           N   tau( 362) = (  0.6811732  0.4967185  0.3472454  )
       363           N   tau( 363) = (  0.1811732  0.9967185  0.3472454  )
       364           N   tau( 364) = (  0.6811732  0.9967185  0.3472454  )
       365           N   tau( 365) = (  0.1811732  0.4967185  0.8472454  )
       366           N   tau( 366) = (  0.6811732  0.4967185  0.8472454  )
       367           N   tau( 367) = (  0.1811732  0.9967185  0.8472454  )
       368           N   tau( 368) = (  0.6811732  0.9967185  0.8472454  )
       369           N   tau( 369) = (  0.2475773  0.0245515  0.4325122  )
       370           N   tau( 370) = (  0.7475773  0.0245515  0.4325122  )
       371           N   tau( 371) = (  0.2475773  0.5245515  0.4325122  )
       372           N   tau( 372) = (  0.7475773  0.5245515  0.4325122  )
       373           N   tau( 373) = (  0.2475773  0.0245515  0.9325122  )
       374           N   tau( 374) = (  0.7475773  0.0245515  0.9325122  )
       375           N   tau( 375) = (  0.2475773  0.5245515  0.9325122  )
       376           N   tau( 376) = (  0.7475773  0.5245515  0.9325122  )
       377           C   tau( 377) = (  0.0966870  0.0586688  0.2720280  )
       378           C   tau( 378) = (  0.5966870  0.0586688  0.2720280  )
       379           C   tau( 379) = (  0.0966870  0.5586688  0.2720280  )
       380           C   tau( 380) = (  0.5966870  0.5586688  0.2720280  )
       381           C   tau( 381) = (  0.0966870  0.0586688  0.7720280  )
       382           C   tau( 382) = (  0.5966870  0.0586688  0.7720280  )
       383           C   tau( 383) = (  0.0966870  0.5586688  0.7720280  )
       384           C   tau( 384) = (  0.5966870  0.5586688  0.7720280  )
       385           C   tau( 385) = (  0.1643880  0.0624661  0.3500489  )
       386           C   tau( 386) = (  0.6643880  0.0624661  0.3500489  )
       387           C   tau( 387) = (  0.1643880  0.5624661  0.3500489  )
       388           C   tau( 388) = (  0.6643880  0.5624661  0.3500489  )
       389           C   tau( 389) = (  0.1643880  0.0624661  0.8500489  )
       390           C   tau( 390) = (  0.6643880  0.0624661  0.8500489  )
       391           C   tau( 391) = (  0.1643880  0.5624661  0.8500489  )
       392           C   tau( 392) = (  0.6643880  0.5624661  0.8500489  )
       393           C   tau( 393) = (  0.0494234  0.1080604  0.2814215  )
       394           C   tau( 394) = (  0.5494234  0.1080604  0.2814215  )
       395           C   tau( 395) = (  0.0494234  0.6080604  0.2814215  )
       396           C   tau( 396) = (  0.5494234  0.6080604  0.2814215  )
       397           C   tau( 397) = (  0.0494234  0.1080604  0.7814215  )
       398           C   tau( 398) = (  0.5494234  0.1080604  0.7814215  )
       399           C   tau( 399) = (  0.0494234  0.6080604  0.7814215  )
       400           C   tau( 400) = (  0.5494234  0.6080604  0.7814215  )
       401           H   tau( 401) = (  0.0631640  0.1542622  0.3500541  )
       402           H   tau( 402) = (  0.5631640  0.1542622  0.3500541  )
       403           H   tau( 403) = (  0.0631640  0.6542622  0.3500541  )
       404           H   tau( 404) = (  0.5631640  0.6542622  0.3500541  )
       405           H   tau( 405) = (  0.0631640  0.1542622  0.8500541  )
       406           H   tau( 406) = (  0.5631640  0.1542622  0.8500541  )
       407           H   tau( 407) = (  0.0631640  0.6542622  0.8500541  )
       408           H   tau( 408) = (  0.5631640  0.6542622  0.8500541  )
       409           C   tau( 409) = (  0.4649536  0.0333792  0.1143425  )
       410           C   tau( 410) = (  0.9649536  0.0333792  0.1143425  )
       411           C   tau( 411) = (  0.4649536  0.5333792  0.1143425  )
       412           C   tau( 412) = (  0.9649536  0.5333792  0.1143425  )
       413           C   tau( 413) = (  0.4649536  0.0333792  0.6143425  )
       414           C   tau( 414) = (  0.9649536  0.0333792  0.6143425  )
       415           C   tau( 415) = (  0.4649536  0.5333792  0.6143425  )
       416           C   tau( 416) = (  0.9649536  0.5333792  0.6143425  )
       417           H   tau( 417) = (  0.4118266  0.0195119  0.0488225  )
       418           H   tau( 418) = (  0.9118266  0.0195119  0.0488225  )
       419           H   tau( 419) = (  0.4118266  0.5195119  0.0488225  )
       420           H   tau( 420) = (  0.9118266  0.5195119  0.0488225  )
       421           H   tau( 421) = (  0.4118266  0.0195119  0.5488225  )
       422           H   tau( 422) = (  0.9118266  0.0195119  0.5488225  )
       423           H   tau( 423) = (  0.4118266  0.5195119  0.5488225  )
       424           H   tau( 424) = (  0.9118266  0.5195119  0.5488225  )
       425           N   tau( 425) = (  0.2202938  0.1291797  0.4358447  )
       426           N   tau( 426) = (  0.7202938  0.1291797  0.4358447  )
       427           N   tau( 427) = (  0.2202938  0.6291797  0.4358447  )
       428           N   tau( 428) = (  0.7202938  0.6291797  0.4358447  )
       429           N   tau( 429) = (  0.2202938  0.1291797  0.9358447  )
       430           N   tau( 430) = (  0.7202938  0.1291797  0.9358447  )
       431           N   tau( 431) = (  0.2202938  0.6291797  0.9358447  )
       432           N   tau( 432) = (  0.7202938  0.6291797  0.9358447  )
       433           N   tau( 433) = (  0.2706753  0.1031191  0.4851852  )
       434           N   tau( 434) = (  0.7706753  0.1031191  0.4851852  )
       435           N   tau( 435) = (  0.2706753  0.6031191  0.4851852  )
       436           N   tau( 436) = (  0.7706753  0.6031191  0.4851852  )
       437           N   tau( 437) = (  0.2706753  0.1031191  0.9851852  )
       438           N   tau( 438) = (  0.7706753  0.1031191  0.9851852  )
       439           N   tau( 439) = (  0.2706753  0.6031191  0.9851852  )
       440           N   tau( 440) = (  0.7706753  0.6031191  0.9851852  )
       441           C   tau( 441) = (  0.0751213  0.0003006  0.1822704  )
       442           C   tau( 442) = (  0.5751213  0.0003006  0.1822704  )
       443           C   tau( 443) = (  0.0751213  0.5003006  0.1822704  )
       444           C   tau( 444) = (  0.5751213  0.5003006  0.1822704  )
       445           C   tau( 445) = (  0.0751213  0.0003006  0.6822704  )
       446           C   tau( 446) = (  0.5751213  0.0003006  0.6822704  )
       447           C   tau( 447) = (  0.0751213  0.5003006  0.6822704  )
       448           C   tau( 448) = (  0.5751213  0.5003006  0.6822704  )
       449           H   tau( 449) = (  0.1128288  0.4627445  0.1726302  )
       450           H   tau( 450) = (  0.6128288  0.4627445  0.1726302  )
       451           H   tau( 451) = (  0.1128288  0.9627445  0.1726302  )
       452           H   tau( 452) = (  0.6128288  0.9627445  0.1726302  )
       453           H   tau( 453) = (  0.1128288  0.4627445  0.6726302  )
       454           H   tau( 454) = (  0.6128288  0.4627445  0.6726302  )
       455           H   tau( 455) = (  0.1128288  0.9627445  0.6726302  )
       456           H   tau( 456) = (  0.6128288  0.9627445  0.6726302  )
       457           N   tau( 457) = (  0.0107156  0.4868471  0.1052186  )
       458           N   tau( 458) = (  0.5107156  0.4868471  0.1052186  )
       459           N   tau( 459) = (  0.0107156  0.9868471  0.1052186  )
       460           N   tau( 460) = (  0.5107156  0.9868471  0.1052186  )
       461           N   tau( 461) = (  0.0107156  0.4868471  0.6052186  )
       462           N   tau( 462) = (  0.5107156  0.4868471  0.6052186  )
       463           N   tau( 463) = (  0.0107156  0.9868471  0.6052186  )
       464           N   tau( 464) = (  0.5107156  0.9868471  0.6052186  )
       465           C   tau( 465) = (  0.3942799  0.2820411  0.2990956  )
       466           C   tau( 466) = (  0.8942799  0.2820411  0.2990956  )
       467           C   tau( 467) = (  0.3942799  0.7820411  0.2990956  )
       468           C   tau( 468) = (  0.8942799  0.7820411  0.2990956  )
       469           C   tau( 469) = (  0.3942799  0.2820411  0.7990956  )
       470           C   tau( 470) = (  0.8942799  0.2820411  0.7990956  )
       471           C   tau( 471) = (  0.3942799  0.7820411  0.7990956  )
       472           C   tau( 472) = (  0.8942799  0.7820411  0.7990956  )
       473           H   tau( 473) = (  0.4434660  0.1315528  0.2041856  )
       474           H   tau( 474) = (  0.9434660  0.1315528  0.2041856  )
       475           H   tau( 475) = (  0.4434660  0.6315528  0.2041856  )
       476           H   tau( 476) = (  0.9434660  0.6315528  0.2041856  )
       477           H   tau( 477) = (  0.4434660  0.1315528  0.7041856  )
       478           H   tau( 478) = (  0.9434660  0.1315528  0.7041856  )
       479           H   tau( 479) = (  0.4434660  0.6315528  0.7041856  )
       480           H   tau( 480) = (  0.9434660  0.6315528  0.7041856  )
       481           Zn  tau( 481) = (  0.1250000  0.3750000  0.2500000  )
       482           Zn  tau( 482) = (  0.6250000  0.3750000  0.2500000  )
       483           Zn  tau( 483) = (  0.1250000  0.8750000  0.2500000  )
       484           Zn  tau( 484) = (  0.6250000  0.8750000  0.2500000  )
       485           Zn  tau( 485) = (  0.1250000  0.3750000  0.7500000  )
       486           Zn  tau( 486) = (  0.6250000  0.3750000  0.7500000  )
       487           Zn  tau( 487) = (  0.1250000  0.8750000  0.7500000  )
       488           Zn  tau( 488) = (  0.6250000  0.8750000  0.7500000  )
       489           Zn  tau( 489) = (  0.2500000  0.2500000  0.0000000  )
       490           Zn  tau( 490) = (  0.7500000  0.2500000  0.0000000  )
       491           Zn  tau( 491) = (  0.2500000  0.7500000  0.0000000  )
       492           Zn  tau( 492) = (  0.7500000  0.7500000  0.0000000  )
       493           Zn  tau( 493) = (  0.2500000  0.2500000  0.5000000  )
       494           Zn  tau( 494) = (  0.7500000  0.2500000  0.5000000  )
       495           Zn  tau( 495) = (  0.2500000  0.7500000  0.5000000  )
       496           Zn  tau( 496) = (  0.7500000  0.7500000  0.5000000  )

     number of k points=     1
                       cart. coord. in units 2pi/alat
        k(    1) = (   0.0000000   0.0000000   0.0000000), wk =   2.0000000

                       cryst. coord.
        k(    1) = (   0.0000000   0.0000000   0.0000000), wk =   2.0000000

     Dense  grid:  2563819 G-vectors     FFT dimensions: ( 192, 192, 192)

     Smooth grid:  2411581 G-vectors     FFT dimensions: ( 192, 192, 192)

     Dynamical RAM for                 wfc:     144.89 MB

     Dynamical RAM for     wfc (w. buffer):     144.89 MB

     Dynamical RAM for           str. fact:       4.89 MB

     Dynamical RAM for           local pot:       0.00 MB

     Dynamical RAM for          nlocal pot:     482.96 MB

     Dynamical RAM for                qrad:       5.08 MB

     Dynamical RAM for          rho,v,vnew:       8.73 MB

     Dynamical RAM for               rhoin:       2.91 MB

     Dynamical RAM for            rho*nmix:      19.56 MB

     Dynamical RAM for           G-vectors:       5.16 MB

     Dynamical RAM for          h,s,v(r/c):       7.43 MB

     Dynamical RAM for          <psi|beta>:      51.68 MB

     Dynamical RAM for                 psi:     289.78 MB

     Dynamical RAM for                hpsi:     289.78 MB

     Dynamical RAM for                spsi:     289.78 MB

     Dynamical RAM for      wfcinit/wfcrot:     570.99 MB

     Dynamical RAM for           addusdens:     462.11 MB

     Dynamical RAM for          addusforce:     930.48 MB

     Dynamical RAM for         addusstress:     245.73 MB

     Estimated static dynamical RAM per process >     669.17 MB

     Estimated max dynamical RAM per process >       1.58 GB

     Estimated total dynamical RAM >      50.60 GB

     Check: negative core charge=   -0.000014

     Initial potential from superposition of free atoms

     starting charge    2015.9874, renormalised to    2016.0000
     Starting wfcs are 1744 randomized atomic wfcs
     Checking if some PAW data can be deallocated... 
       PAW data deallocated on   10 nodes for type:  2

     total cpu time spent up to now is      161.0 secs

     Self-consistent Calculation

     iteration #  1     ecut=    60.00 Ry     beta= 0.40
     Davidson diagonalization with overlap

---- Real-time Memory Report at c_bands before calling an iterative solver
          1345 MiB given to the printing process from OS
             0 MiB allocation reported by mallinfo(arena+hblkhd)
        167181 MiB available memory on the node where the printing process lives
------------------
     ethr =  1.00E-02,  avg # of iterations =  3.0

     total cpu time spent up to now is      501.9 secs

     total energy              =  -14223.11466372 Ry
     estimated scf accuracy    <      42.07904589 Ry

     iteration #  2     ecut=    60.00 Ry     beta= 0.40
     Davidson diagonalization with overlap

---- Real-time Memory Report at c_bands before calling an iterative solver
          1727 MiB given to the printing process from OS
             0 MiB allocation reported by mallinfo(arena+hblkhd)
        164582 MiB available memory on the node where the printing process lives
------------------
     ethr =  2.09E-03,  avg # of iterations =  2.0

     total cpu time spent up to now is      782.3 secs

     total energy              =  -14223.74519459 Ry
     estimated scf accuracy    <       7.72391828 Ry

     iteration #  3     ecut=    60.00 Ry     beta= 0.40
     Davidson diagonalization with overlap

---- Real-time Memory Report at c_bands before calling an iterative solver
          1745 MiB given to the printing process from OS
             0 MiB allocation reported by mallinfo(arena+hblkhd)
        168399 MiB available memory on the node where the printing process lives
------------------
     ethr =  3.83E-04,  avg # of iterations =  4.0

     total cpu time spent up to now is     1139.0 secs

     total energy              =  -14225.17430395 Ry
     estimated scf accuracy    <       0.85159572 Ry

     iteration #  4     ecut=    60.00 Ry     beta= 0.40
     Davidson diagonalization with overlap

---- Real-time Memory Report at c_bands before calling an iterative solver
          1749 MiB given to the printing process from OS
             0 MiB allocation reported by mallinfo(arena+hblkhd)
        160313 MiB available memory on the node where the printing process lives
------------------
     ethr =  4.22E-05,  avg # of iterations =  4.0

     total cpu time spent up to now is     1462.7 secs

     total energy              =  -14225.24860203 Ry
     estimated scf accuracy    <       0.17133546 Ry

     iteration #  5     ecut=    60.00 Ry     beta= 0.40
     Davidson diagonalization with overlap

---- Real-time Memory Report at c_bands before calling an iterative solver
          1752 MiB given to the printing process from OS
             0 MiB allocation reported by mallinfo(arena+hblkhd)
        161040 MiB available memory on the node where the printing process lives
------------------
     ethr =  8.50E-06,  avg # of iterations =  5.0

     total cpu time spent up to now is     1827.5 secs

     total energy              =  -14225.27746383 Ry
     estimated scf accuracy    <       0.03080207 Ry

     iteration #  6     ecut=    60.00 Ry     beta= 0.40
     Davidson diagonalization with overlap

---- Real-time Memory Report at c_bands before calling an iterative solver
          1763 MiB given to the printing process from OS
             0 MiB allocation reported by mallinfo(arena+hblkhd)
        163656 MiB available memory on the node where the printing process lives
------------------
     ethr =  1.53E-06,  avg # of iterations =  5.0

     total cpu time spent up to now is     2212.8 secs

     total energy              =  -14225.28448079 Ry
     estimated scf accuracy    <       0.00861621 Ry

     iteration #  7     ecut=    60.00 Ry     beta= 0.40
     Davidson diagonalization with overlap

---- Real-time Memory Report at c_bands before calling an iterative solver
          1763 MiB given to the printing process from OS
             0 MiB allocation reported by mallinfo(arena+hblkhd)
        165814 MiB available memory on the node where the printing process lives
------------------
     ethr =  4.27E-07,  avg # of iterations =  5.0

     total cpu time spent up to now is     2600.0 secs

     total energy              =  -14225.28694572 Ry
     estimated scf accuracy    <       0.00176197 Ry

     iteration #  8     ecut=    60.00 Ry     beta= 0.40
     Davidson diagonalization with overlap

---- Real-time Memory Report at c_bands before calling an iterative solver
          1764 MiB given to the printing process from OS
             0 MiB allocation reported by mallinfo(arena+hblkhd)
        161071 MiB available memory on the node where the printing process lives
------------------
     ethr =  8.74E-08,  avg # of iterations =  5.0

     total cpu time spent up to now is     2945.5 secs

     total energy              =  -14225.28735636 Ry
     estimated scf accuracy    <       0.00013757 Ry

     iteration #  9     ecut=    60.00 Ry     beta= 0.40
     Davidson diagonalization with overlap

---- Real-time Memory Report at c_bands before calling an iterative solver
          1767 MiB given to the printing process from OS
             0 MiB allocation reported by mallinfo(arena+hblkhd)
        160922 MiB available memory on the node where the printing process lives
------------------
     ethr =  6.82E-09,  avg # of iterations =  6.0

     total cpu time spent up to now is     3414.3 secs

     total energy              =  -14225.28742336 Ry
     estimated scf accuracy    <       0.00005944 Ry

     iteration # 10     ecut=    60.00 Ry     beta= 0.40
     Davidson diagonalization with overlap

---- Real-time Memory Report at c_bands before calling an iterative solver
          1771 MiB given to the printing process from OS
             0 MiB allocation reported by mallinfo(arena+hblkhd)
        164332 MiB available memory on the node where the printing process lives
------------------
     ethr =  2.95E-09,  avg # of iterations =  4.0

     total cpu time spent up to now is     3690.3 secs

     total energy              =  -14225.28742166 Ry
     estimated scf accuracy    <       0.00001466 Ry

     iteration # 11     ecut=    60.00 Ry     beta= 0.40
     Davidson diagonalization with overlap

---- Real-time Memory Report at c_bands before calling an iterative solver
          1775 MiB given to the printing process from OS
             0 MiB allocation reported by mallinfo(arena+hblkhd)
        163189 MiB available memory on the node where the printing process lives
------------------
     ethr =  7.27E-10,  avg # of iterations =  6.0

     total cpu time spent up to now is     4169.7 secs

     total energy              =  -14225.28742925 Ry
     estimated scf accuracy    <       0.00001666 Ry

     iteration # 12     ecut=    60.00 Ry     beta= 0.40
     Davidson diagonalization with overlap

---- Real-time Memory Report at c_bands before calling an iterative solver
          1775 MiB given to the printing process from OS
             0 MiB allocation reported by mallinfo(arena+hblkhd)
        154106 MiB available memory on the node where the printing process lives
------------------
     ethr =  7.27E-10,  avg # of iterations =  3.0

     total cpu time spent up to now is     4430.0 secs

     total energy              =  -14225.28742732 Ry
     estimated scf accuracy    <       0.00000507 Ry

     iteration # 13     ecut=    60.00 Ry     beta= 0.40
     Davidson diagonalization with overlap

---- Real-time Memory Report at c_bands before calling an iterative solver
          1775 MiB given to the printing process from OS
             0 MiB allocation reported by mallinfo(arena+hblkhd)
        157245 MiB available memory on the node where the printing process lives
------------------
     ethr =  2.52E-10,  avg # of iterations =  6.0

     total cpu time spent up to now is     4899.4 secs

     total energy              =  -14225.28742964 Ry
     estimated scf accuracy    <       0.00000523 Ry

     iteration # 14     ecut=    60.00 Ry     beta= 0.40
     Davidson diagonalization with overlap

---- Real-time Memory Report at c_bands before calling an iterative solver
          1775 MiB given to the printing process from OS
             0 MiB allocation reported by mallinfo(arena+hblkhd)
        157032 MiB available memory on the node where the printing process lives
------------------
     ethr =  2.52E-10,  avg # of iterations =  5.0

     total cpu time spent up to now is     5188.8 secs

     total energy              =  -14225.28743002 Ry
     estimated scf accuracy    <       0.00000052 Ry

     iteration # 15     ecut=    60.00 Ry     beta= 0.40
     Davidson diagonalization with overlap

---- Real-time Memory Report at c_bands before calling an iterative solver
          1775 MiB given to the printing process from OS
             0 MiB allocation reported by mallinfo(arena+hblkhd)
        159230 MiB available memory on the node where the printing process lives
------------------
     ethr =  2.57E-11,  avg # of iterations =  6.0

     total cpu time spent up to now is     5676.8 secs

     total energy              =  -14225.28743042 Ry
     estimated scf accuracy    <       0.00000025 Ry

     iteration # 16     ecut=    60.00 Ry     beta= 0.40
     Davidson diagonalization with overlap

---- Real-time Memory Report at c_bands before calling an iterative solver
          1775 MiB given to the printing process from OS
             0 MiB allocation reported by mallinfo(arena+hblkhd)
        161554 MiB available memory on the node where the printing process lives
------------------
     ethr =  1.26E-11,  avg # of iterations =  2.0

     total cpu time spent up to now is     5917.9 secs

     total energy              =  -14225.28743033 Ry
     estimated scf accuracy    <       0.00000026 Ry

     iteration # 17     ecut=    60.00 Ry     beta= 0.40
     Davidson diagonalization with overlap

---- Real-time Memory Report at c_bands before calling an iterative solver
          1775 MiB given to the printing process from OS
             0 MiB allocation reported by mallinfo(arena+hblkhd)
        153809 MiB available memory on the node where the printing process lives
------------------
     ethr =  1.26E-11,  avg # of iterations =  4.0

     total cpu time spent up to now is     6194.1 secs

     total energy              =  -14225.28743034 Ry
     estimated scf accuracy    <       0.00000005 Ry

     iteration # 18     ecut=    60.00 Ry     beta= 0.40
     Davidson diagonalization with overlap

---- Real-time Memory Report at c_bands before calling an iterative solver
          1775 MiB given to the printing process from OS
             0 MiB allocation reported by mallinfo(arena+hblkhd)
        162246 MiB available memory on the node where the printing process lives
------------------
     ethr =  2.43E-12,  avg # of iterations =  6.0

     total cpu time spent up to now is     6638.5 secs

     total energy              =  -14225.28743036 Ry
     estimated scf accuracy    <       0.00000001 Ry

     iteration # 19     ecut=    60.00 Ry     beta= 0.40
     Davidson diagonalization with overlap

---- Real-time Memory Report at c_bands before calling an iterative solver
          1775 MiB given to the printing process from OS
             0 MiB allocation reported by mallinfo(arena+hblkhd)
        159056 MiB available memory on the node where the printing process lives
------------------
     ethr =  6.78E-13,  avg # of iterations =  4.0

     total cpu time spent up to now is     6911.9 secs

     End of self-consistent calculation

          k = 0.0000 0.0000 0.0000 (301561 PWs)   bands (ev):

  -122.8788-122.8787-122.8787-122.8787-122.8787-122.8787-122.8784-122.8783
  -122.8413-122.8412-122.8412-122.8412-122.8411-122.8411-122.8411-122.8385
   -77.2238 -77.2237 -77.2236 -77.2236 -77.2236 -77.2236 -77.2233 -77.2232
   -77.2189 -77.2189 -77.2189 -77.2189 -77.2189 -77.2189 -77.2189 -77.2188
   -77.2188 -77.2188 -77.2188 -77.2188 -77.2186 -77.2186 -77.2185 -77.2185
   -77.1923 -77.1923 -77.1923 -77.1923 -77.1923 -77.1923 -77.1923 -77.1923
   -77.1922 -77.1922 -77.1922 -77.1922 -77.1922 -77.1922 -77.1897 -77.1894
   -77.1649 -77.1649 -77.1648 -77.1648 -77.1648 -77.1648 -77.1647 -77.1622
   -21.8267 -21.8200 -21.8199 -21.8199 -21.8189 -21.8142 -21.8139 -21.8134
   -21.8128 -21.8114 -21.8093 -21.8059 -21.8058 -21.8058 -21.8048 -21.8007
   -21.8007 -21.8007 -21.8006 -21.8006 -21.8005 -21.8002 -21.7993 -21.7990
   -21.7980 -21.7963 -21.7963 -21.7962 -21.7962 -21.7959 -21.7947 -21.7857
   -16.7493 -16.7476 -16.7476 -16.7468 -16.7466 -16.7465 -16.7464 -16.7421
   -16.7142 -16.7073 -16.7071 -16.7070 -16.7068 -16.7005 -16.6995 -16.6995
   -16.6923 -16.6922 -16.6853 -16.6852 -16.6851 -16.6851 -16.6822 -16.6820
   -16.6804 -16.6802 -16.6786 -16.6785 -16.6785 -16.6784 -16.6784 -16.6783
   -16.5783 -16.5401 -16.5400 -16.5400 -16.5376 -16.5180 -16.5166 -16.5055
   -16.4941 -16.4934 -16.4910 -16.4681 -16.4681 -16.4681 -16.4655 -16.4373
   -16.4371 -16.4364 -16.4363 -16.4361 -16.4354 -16.4347 -16.4340 -16.4334
   -16.4304 -16.4247 -16.4246 -16.4246 -16.4237 -16.4230 -16.4205 -16.4111
   -15.5028 -15.4990 -15.4978 -15.4958 -15.4937 -15.4936 -15.4935 -15.4920
   -15.4901 -15.4877 -15.4876 -15.4876 -15.4875 -15.4873 -15.4871 -15.4870
   -15.4828 -15.4809 -15.4808 -15.4801 -15.4801 -15.4800 -15.4799 -15.4797
   -15.4791 -15.4788 -15.4787 -15.4785 -15.4766 -15.4762 -15.4750 -15.4747
   -13.2307 -13.2198 -13.2127 -13.2122 -13.2122 -13.2120 -13.2098 -13.2096
   -13.2075 -13.2044 -13.2043 -13.2037 -13.2035 -13.2034 -13.2032 -13.1951
   -13.1920 -13.1916 -13.1911 -13.1908 -13.1907 -13.1905 -13.1800 -13.1795
   -13.1794 -13.1792 -13.1784 -13.1780 -13.1780 -13.1778 -13.1777 -13.1775
   -12.1901 -12.1897 -12.1896 -12.1894 -12.1883 -12.1882 -12.1841 -12.1802
   -12.1798 -12.1721 -12.1693 -12.1690 -12.1689 -12.1688 -12.1527 -12.1524
   -12.1521 -12.1520 -12.1504 -12.1501 -12.1500 -12.1499 -12.1498 -12.1495
   -12.1336 -12.1254 -12.1253 -12.1211 -12.1181 -12.1178 -12.1177 -12.1176
    -9.9196  -9.9012  -9.8903  -9.8862  -9.8860  -9.8860  -9.8854  -9.8769
    -9.8611  -9.8609  -9.8608  -9.8607  -9.8572  -9.8569  -9.8498  -9.8496
    -9.8266  -9.8265  -9.8264  -9.8260  -9.8245  -9.8243  -9.8063  -9.8059
    -9.8054  -9.8051  -9.7974  -9.7972  -9.7971  -9.7967  -9.7955  -9.7955
    -9.6800  -9.6657  -9.6655  -9.6644  -9.6643  -9.6643  -9.6634  -9.6484
    -9.6483  -9.6470  -9.6469  -9.6467  -9.6465  -9.6447  -9.6442  -9.6385
    -9.6380  -9.6153  -9.6152  -9.6151  -9.6146  -9.6020  -9.6019  -9.5860
    -9.5822  -9.5596  -9.5590  -9.5456  -9.5455  -9.5455  -9.5442  -9.5257
    -8.5892  -8.5634  -8.5509  -8.5506  -8.5480  -8.5384  -8.5384  -8.5383
    -8.5379  -8.5296  -8.5295  -8.5294  -8.5290  -8.5118  -8.5114  -8.5112
    -8.4956  -8.4956  -8.4955  -8.4952  -8.4928  -8.4927  -8.4628  -8.4627
    -8.4623  -8.4622  -8.4621  -8.4619  -8.4497  -8.4495  -8.4494  -8.4489
    -8.4233  -8.4173  -8.4173  -8.4121  -8.4120  -8.4119  -8.4118  -8.3746
    -8.3698  -8.3697  -8.3697  -8.3695  -8.3631  -8.3630  -8.3624  -8.3623
    -8.3609  -8.3595  -8.3593  -8.3572  -8.3571  -8.3317  -8.3316  -8.3316
    -8.3313  -8.3226  -8.3222  -8.3221  -8.3220  -8.3218  -8.3124  -8.3122
    -7.0583  -6.9054  -6.8984  -6.8981  -6.8980  -6.8979  -6.8976  -6.7920
    -6.7918  -6.7583  -6.7580  -6.7139  -6.7138  -6.7137  -6.7136  -6.6757
    -6.6018  -6.6017  -6.5983  -6.5982  -6.5982  -6.5979  -6.5709  -6.5706
    -6.5610  -6.5609  -6.5608  -6.5607  -6.4880  -6.4880  -6.4858  -6.4858
    -5.8775  -5.8310  -5.8309  -5.8309  -5.8305  -5.8289  -5.7983  -5.7982
    -5.7834  -5.7831  -5.7759  -5.7758  -5.7758  -5.7751  -5.7633  -5.7632
    -5.7373  -5.7373  -5.7372  -5.7369  -5.7300  -5.7299  -5.7276  -5.7243
    -5.6855  -5.6854  -5.6854  -5.6847  -5.6451  -5.6450  -5.6347  -5.6322
    -5.6319  -5.6091  -5.6045  -5.6041  -5.5958  -5.5957  -5.5955  -5.5949
    -5.5806  -5.5599  -5.5452  -5.5452  -5.5421  -5.5420  -5.5419  -5.5418
    -5.5373  -5.5372  -5.5364  -5.5359  -5.5122  -5.5120  -5.5028  -5.5027
    -5.5011  -5.5010  -5.5009  -5.5005  -5.4825  -5.4824  -5.4824  -5.4819
    -5.0614  -5.0614  -5.0475  -5.0475  -5.0474  -5.0472  -5.0443  -5.0442
    -5.0302  -5.0302  -5.0298  -5.0298  -5.0297  -5.0295  -5.0261  -5.0180
    -5.0178  -5.0035  -4.9989  -4.9949  -4.9948  -4.9946  -4.9946  -4.9787
    -4.9785  -4.9662  -4.9661  -4.9659  -4.9659  -4.9569  -4.9535  -4.9533
    -4.9458  -4.8942  -4.8915  -4.8913  -4.8679  -4.8678  -4.8678  -4.8677
    -4.8623  -4.8519  -4.8518  -4.8442  -4.8441  -4.8440  -4.8439  -4.8340
    -4.8340  -4.8299  -4.8298  -4.8298  -4.8297  -4.8267  -4.8260  -4.8259
    -4.8037  -4.8036  -4.7992  -4.7990  -4.7925  -4.7925  -4.7924  -4.7923
    -4.7801  -4.7800  -4.7580  -4.7579  -4.7577  -4.7576  -4.7432  -4.7431
    -4.7409  -4.7407  -4.7216  -4.7216  -4.7215  -4.7212  -4.7131  -4.7130
    -4.7115  -4.7114  -4.7114  -4.7108  -4.6862  -4.6861  -4.6688  -4.6688
    -4.6475  -4.6132  -4.6128  -4.5879  -4.5879  -4.5878  -4.5873  -4.5013
    -4.3227  -4.2809  -4.2808  -4.2808  -4.2804  -4.2187  -4.2125  -4.2077
    -4.2076  -4.1876  -4.1871  -4.1412  -4.1412  -4.1411  -4.1410  -4.1409
    -4.1407  -4.1363  -4.1135  -4.1077  -4.1077  -4.1075  -4.1069  -4.1031
    -4.0975  -4.0968  -4.0853  -4.0852  -4.0851  -4.0848  -4.0651  -4.0570
    -3.9875  -3.9556  -3.9554  -3.8259  -3.8258  -3.8257  -3.8255  -3.7662
    -3.7662  -3.7661  -3.7660  -3.7308  -3.7101  -3.7100  -3.7100  -3.7099
    -3.6717  -3.6559  -3.6556  -3.6268  -3.5756  -3.5755  -3.5732  -3.5731
    -3.5596  -3.5594  -3.5040  -3.5040  -3.4255  -3.4255  -3.4253  -3.4252
    -3.4238  -3.4237  -3.3750  -3.3750  -3.3651  -3.3647  -3.3645  -3.3645
    -3.3644  -3.2780  -3.2778  -3.2778  -3.2777  -3.2411  -3.2411  -3.2410
    -3.2410  -3.2344  -3.2308  -3.2307  -3.2305  -3.2288  -3.2287  -3.2099
    -3.2098  -3.1857  -3.1762  -3.1762  -3.1760  -3.1760  -3.1714  -3.0957
    -3.0955  -3.0948  -3.0947  -3.0899  -3.0899  -3.0869  -3.0868  -3.0867
    -3.0866  -3.0454  -3.0453  -3.0452  -3.0451  -3.0179  -3.0056  -3.0053
    -2.9781  -2.9741  -2.9740  -2.9740  -2.9739  -2.9688  -2.9380  -2.9379
    -2.9351  -2.9350  -2.9349  -2.9348  -2.9293  -2.9292  -2.8984  -2.8834
    -2.8834  -2.7759  -2.7757  -2.7613  -2.7610  -2.7610  -2.7609  -2.7263
    -2.7262  -2.7176  -2.7174  -2.7028  -2.7027  -2.7010  -2.7009  -2.7008
    -2.7007  -2.6121  -2.6120  -2.6119  -2.6118  -2.5569  -2.4827  -2.4418
    -2.4416  -2.3677  -2.3675  -2.2683  -2.2681  -2.2679  -2.2677  -2.1962
    -2.1961  -2.1602  -2.0959  -2.0767  -2.0610  -2.0608  -2.0607  -2.0606
    -2.0134  -2.0134  -2.0133  -2.0131  -2.0063  -2.0061  -2.0058  -1.9944
    -1.9943  -1.9541  -1.9539  -1.9537  -1.9536  -1.9482  -1.9481  -1.9180
    -1.9178  -1.8921  -1.8919  -1.8711  -1.8709  -1.8708  -1.8705  -1.7603
    -1.7602  -1.6298  -1.6295  -1.6294  -1.6289  -1.5895  -1.5891  -1.5191
    -1.4438  -1.4437  -1.4435  -1.4429  -1.4244  -1.4240  -1.4183  -1.4177
    -1.4154  -1.4088  -1.4087  -1.3814  -1.3747  -1.3744  -1.3744  -1.3743
    -1.3638  -1.3635  -1.3634  -1.3630  -1.3624  -1.3616  -1.3484  -1.3480
    -1.3470  -1.3469  -1.3469  -1.3452  -1.3402  -1.3395  -1.3366  -1.3333
    -1.2994  -1.2991  -1.2966  -1.2816  -1.2812  -1.2812  -1.2803  -1.2538
    -1.2533  -1.2419  -1.2416  -1.2415  -1.2414  -1.2342  -1.2300  -1.2295
    -1.2202  -1.2198  -1.2100  -1.2097  -1.2094  -1.2089  -1.2089  -1.2081
    -1.1531  -1.1527  -1.1524  -1.1521  -1.1476  -1.1472  -1.0929  -1.0684
    -1.0404  -0.9021  -0.9018  -0.9017  -0.9014  -0.9013  -0.8996  -0.8040
    -0.8032  -0.8014  -0.7840  -0.7825  -0.7825  -0.7823  -0.7799  -0.7795
    -0.7691  -0.7637  -0.7623  -0.7310  -0.7284  -0.7283  -0.7281  -0.7181
    -0.7176  -0.7141  -0.7129  -0.7123  -0.7122  -0.7118  -0.6647  -0.6634
    -0.6307  -0.6292  -0.6018  -0.5996  -0.5994  -0.5993  -0.5732  -0.5722
    -0.4884  -0.4267  -0.4241  -0.4240  -0.4240  -0.4167  -0.4157  -0.4006
    -0.3847  -0.3837  -0.3645  -0.3633  -0.3631  -0.3630  -0.3474  -0.3414
    -0.3406  -0.3371  -0.3361  -0.3360  -0.3357  -0.3311  -0.3310  -0.3291
    -0.3287  -0.3267  -0.2975  -0.2967  -0.2846  -0.2845  -0.2845  -0.2842
    -0.2802  -0.2798  -0.2761  -0.2760  -0.2759  -0.2759  -0.2725  -0.2432
    -0.2431  -0.2431  -0.2427  -0.2401  -0.2399  -0.2397  -0.2217  -0.2214
    -0.2211  -0.2209  -0.2207  -0.2207  -0.2185  -0.2080  -0.2080  -0.2076
    -0.2036  -0.2033  -0.1909  -0.1908  -0.1908  -0.1906  -0.1906  -0.1903
     0.3864   0.4183   0.4185   0.4186   0.4187   0.4350   0.4352   0.4858
     0.4861   0.4868   0.4947   0.4949   0.4949   0.4951   0.5126   0.5128
     0.5145   0.5146   0.5241   0.5271   0.5272   0.5273   0.5275   0.5737
     0.5739   0.5763   0.5764   0.6100   0.6101   0.6102   0.6103   0.6264
     1.0981   1.0984   1.1044   1.1047   1.1157   1.1158   1.1160   1.1161
     1.1371   1.1373   1.1375   1.1376   1.1547   1.1616   1.1618   1.1634
     1.1636   1.1644   1.1734   1.1736   1.1737   1.1739   1.1845   1.1846
     1.2168   1.2205   1.2418   1.2420   1.2421   1.2423   1.2426   1.2427

     occupation numbers 
     1.0000   1.0000   1.0000   1.0000   1.0000   1.0000   1.0000   1.0000
     1.0000   1.0000   1.0000   1.0000   1.0000   1.0000   1.0000   1.0000
     1.0000   1.0000   1.0000   1.0000   1.0000   1.0000   1.0000   1.0000
     1.0000   1.0000   1.0000   1.0000   1.0000   1.0000   1.0000   1.0000
     1.0000   1.0000   1.0000   1.0000   1.0000   1.0000   1.0000   1.0000
     1.0000   1.0000   1.0000   1.0000   1.0000   1.0000   1.0000   1.0000
     1.0000   1.0000   1.0000   1.0000   1.0000   1.0000   1.0000   1.0000
     1.0000   1.0000   1.0000   1.0000   1.0000   1.0000   1.0000   1.0000
     1.0000   1.0000   1.0000   1.0000   1.0000   1.0000   1.0000   1.0000
     1.0000   1.0000   1.0000   1.0000   1.0000   1.0000   1.0000   1.0000
     1.0000   1.0000   1.0000   1.0000   1.0000   1.0000   1.0000   1.0000
     1.0000   1.0000   1.0000   1.0000   1.0000   1.0000   1.0000   1.0000
     1.0000   1.0000   1.0000   1.0000   1.0000   1.0000   1.0000   1.0000
     1.0000   1.0000   1.0000   1.0000   1.0000   1.0000   1.0000   1.0000
     1.0000   1.0000   1.0000   1.0000   1.0000   1.0000   1.0000   1.0000
     1.0000   1.0000   1.0000   1.0000   1.0000   1.0000   1.0000   1.0000
     1.0000   1.0000   1.0000   1.0000   1.0000   1.0000   1.0000   1.0000
     1.0000   1.0000   1.0000   1.0000   1.0000   1.0000   1.0000   1.0000
     1.0000   1.0000   1.0000   1.0000   1.0000   1.0000   1.0000   1.0000
     1.0000   1.0000   1.0000   1.0000   1.0000   1.0000   1.0000   1.0000
     1.0000   1.0000   1.0000   1.0000   1.0000   1.0000   1.0000   1.0000
     1.0000   1.0000   1.0000   1.0000   1.0000   1.0000   1.0000   1.0000
     1.0000   1.0000   1.0000   1.0000   1.0000   1.0000   1.0000   1.0000
     1.0000   1.0000   1.0000   1.0000   1.0000   1.0000   1.0000   1.0000
     1.0000   1.0000   1.0000   1.0000   1.0000   1.0000   1.0000   1.0000
     1.0000   1.0000   1.0000   1.0000   1.0000   1.0000   1.0000   1.0000
     1.0000   1.0000   1.0000   1.0000   1.0000   1.0000   1.0000   1.0000
     1.0000   1.0000   1.0000   1.0000   1.0000   1.0000   1.0000   1.0000
     1.0000   1.0000   1.0000   1.0000   1.0000   1.0000   1.0000   1.0000
     1.0000   1.0000   1.0000   1.0000   1.0000   1.0000   1.0000   1.0000
     1.0000   1.0000   1.0000   1.0000   1.0000   1.0000   1.0000   1.0000
     1.0000   1.0000   1.0000   1.0000   1.0000   1.0000   1.0000   1.0000
     1.0000   1.0000   1.0000   1.0000   1.0000   1.0000   1.0000   1.0000
     1.0000   1.0000   1.0000   1.0000   1.0000   1.0000   1.0000   1.0000
     1.0000   1.0000   1.0000   1.0000   1.0000   1.0000   1.0000   1.0000
     1.0000   1.0000   1.0000   1.0000   1.0000   1.0000   1.0000   1.0000
     1.0000   1.0000   1.0000   1.0000   1.0000   1.0000   1.0000   1.0000
     1.0000   1.0000   1.0000   1.0000   1.0000   1.0000   1.0000   1.0000
     1.0000   1.0000   1.0000   1.0000   1.0000   1.0000   1.0000   1.0000
     1.0000   1.0000   1.0000   1.0000   1.0000   1.0000   1.0000   1.0000
     1.0000   1.0000   1.0000   1.0000   1.0000   1.0000   1.0000   1.0000
     1.0000   1.0000   1.0000   1.0000   1.0000   1.0000   1.0000   1.0000
     1.0000   1.0000   1.0000   1.0000   1.0000   1.0000   1.0000   1.0000
     1.0000   1.0000   1.0000   1.0000   1.0000   1.0000   1.0000   1.0000
     1.0000   1.0000   1.0000   1.0000   1.0000   1.0000   1.0000   1.0000
     1.0000   1.0000   1.0000   1.0000   1.0000   1.0000   1.0000   1.0000
     1.0000   1.0000   1.0000   1.0000   1.0000   1.0000   1.0000   1.0000
     1.0000   1.0000   1.0000   1.0000   1.0000   1.0000   1.0000   1.0000
     1.0000   1.0000   1.0000   1.0000   1.0000   1.0000   1.0000   1.0000
     1.0000   1.0000   1.0000   1.0000   1.0000   1.0000   1.0000   1.0000
     1.0000   1.0000   1.0000   1.0000   1.0000   1.0000   1.0000   1.0000
     1.0000   1.0000   1.0000   1.0000   1.0000   1.0000   1.0000   1.0000
     1.0000   1.0000   1.0000   1.0000   1.0000   1.0000   1.0000   1.0000
     1.0000   1.0000   1.0000   1.0000   1.0000   1.0000   1.0000   1.0000
     1.0000   1.0000   1.0000   1.0000   1.0000   1.0000   1.0000   1.0000
     1.0000   1.0000   1.0000   1.0000   1.0000   1.0000   1.0000   1.0000
     1.0000   1.0000   1.0000   1.0000   1.0000   1.0000   1.0000   1.0000
     1.0000   1.0000   1.0000   1.0000   1.0000   1.0000   1.0000   1.0000
     1.0000   1.0000   1.0000   1.0000   1.0000   1.0000   1.0000   1.0000
     1.0000   1.0000   1.0000   1.0000   1.0000   1.0000   1.0000   1.0000
     1.0000   1.0000   1.0000   1.0000   1.0000   1.0000   1.0000   1.0000
     1.0000   1.0000   1.0000   1.0000   1.0000   1.0000   1.0000   1.0000
     1.0000   1.0000   1.0000   1.0000   1.0000   1.0000   1.0000   1.0000
     1.0000   1.0000   1.0000   1.0000   1.0000   1.0000   1.0000   1.0000
     1.0000   1.0000   1.0000   1.0000   1.0000   1.0000   1.0000   1.0000
     1.0000   1.0000   1.0000   1.0000   1.0000   1.0000   1.0000   1.0000
     1.0000   1.0000   1.0000   1.0000   1.0000   1.0000   1.0000   1.0000
     1.0000   1.0000   1.0000   1.0000   1.0000   1.0000   1.0000   1.0000
     1.0000   1.0000   1.0000   1.0000   1.0000   1.0000   1.0000   1.0000
     1.0000   1.0000   1.0000   1.0000   1.0000   1.0000   1.0000   1.0000
     1.0000   1.0000   1.0000   1.0000   1.0000   1.0000   1.0000   1.0000
     1.0000   1.0000   1.0000   1.0000   1.0000   1.0000   1.0000   1.0000
     1.0000   1.0000   1.0000   1.0000   1.0000   1.0000   1.0000   1.0000
     1.0000   1.0000   1.0000   1.0000   1.0000   1.0000   1.0000   1.0000
     1.0000   1.0000   1.0000   1.0000   1.0000   1.0000   1.0000   1.0000
     1.0000   1.0000   1.0000   1.0000   1.0000   1.0000   1.0000   1.0000
     1.0000   1.0000   1.0000   1.0000   1.0000   1.0000   1.0000   1.0000
     1.0000   1.0000   1.0000   1.0000   1.0000   1.0000   1.0000   1.0000
     1.0000   1.0000   1.0000   1.0000   1.0000   1.0000   1.0000   1.0000
     1.0000   1.0000   1.0000   1.0000   1.0000   1.0000   1.0000   1.0000
     1.0000   1.0000   1.0000   1.0000   1.0000   1.0000   1.0000   1.0000
     1.0000   1.0000   1.0000   1.0000   1.0000   1.0000   1.0000   1.0000
     1.0000   1.0000   1.0000   1.0000   1.0000   1.0000   1.0000   1.0000
     1.0000   1.0000   1.0000   1.0000   1.0000   1.0000   1.0000   1.0000
     1.0000   1.0000   1.0000   1.0000   1.0000   1.0000   1.0000   1.0000
     1.0000   1.0000   1.0000   1.0000   1.0000   1.0000   1.0000   1.0000
     1.0000   1.0000   1.0000   1.0000   1.0000   1.0000   1.0000   1.0000
     1.0000   1.0000   1.0000   1.0000   1.0000   1.0000   1.0000   1.0000
     1.0000   1.0000   1.0000   1.0000   1.0000   1.0000   1.0000   1.0000
     1.0000   1.0000   1.0000   1.0000   1.0000   1.0000   1.0000   1.0000
     1.0000   1.0000   1.0000   1.0000   1.0000   1.0000   1.0000   1.0000
     1.0000   1.0000   1.0000   1.0000   1.0000   1.0000   1.0000   1.0000
     1.0000   1.0000   1.0000   1.0000   1.0000   1.0000   1.0000   1.0000
     1.0000   1.0000   1.0000   1.0000   1.0000   1.0000   1.0000   1.0000
     1.0000   1.0000   1.0000   1.0000   1.0000   1.0000   1.0000   1.0000
     1.0000   1.0000   1.0000   1.0000   1.0000   1.0000   1.0000   1.0000
     1.0000   1.0000   1.0000   1.0000   1.0000   1.0000   1.0000   1.0000
     1.0000   1.0000   1.0000   1.0000   1.0000   1.0000   1.0000   1.0000
     1.0000   1.0000   1.0000   1.0000   1.0000   1.0000   1.0000   1.0000
     1.0000   1.0000   1.0000   1.0000   1.0000   1.0000   1.0000   1.0000
     1.0000   1.0000   1.0000   1.0000   1.0000   1.0000   1.0000   1.0000
     1.0000   1.0000   1.0000   1.0000   1.0000   1.0000   1.0000   1.0000
     1.0000   1.0000   1.0000   1.0000   1.0000   1.0000   1.0000   1.0000
     1.0000   1.0000   1.0000   1.0000   1.0000   1.0000   1.0000   1.0000
     1.0000   1.0000   1.0000   1.0000   1.0000   1.0000   1.0000   1.0000
     1.0000   1.0000   1.0000   1.0000   1.0000   1.0000   1.0000   1.0000
     1.0000   1.0000   1.0000   1.0000   1.0000   1.0000   1.0000   1.0000
     1.0000   1.0000   1.0000   1.0000   1.0000   1.0000   1.0000   1.0000
     1.0000   1.0000   1.0000   1.0000   1.0000   1.0000   1.0000   1.0000
     1.0000   1.0000   1.0000   1.0000   1.0000   1.0000   1.0000   1.0000
     1.0000   1.0000   1.0000   1.0000   1.0000   1.0000   1.0000   1.0000
     1.0000   1.0000   1.0000   1.0000   1.0000   1.0000   1.0000   1.0000
     1.0000   1.0000   1.0000   1.0000   1.0000   1.0000   1.0000   1.0000
     1.0000   1.0000   1.0000   1.0000   1.0000   1.0000   1.0000   1.0000
     1.0000   1.0000   1.0000   1.0000   1.0000   1.0000   1.0000   1.0000
     1.0000   1.0000   1.0000   1.0000   1.0000   1.0000   1.0000   1.0000
     1.0000   1.0000   1.0000   1.0000   1.0000   1.0000   1.0000   1.0000
     1.0000   1.0000   1.0000   1.0000   1.0000   1.0000   1.0000   1.0000
     1.0000   1.0000   1.0000   1.0000   1.0000   1.0000   1.0000   1.0000
     1.0000   1.0000   1.0000   1.0000   1.0000   1.0000   1.0000   1.0000
     1.0000   1.0000   1.0000   1.0000   1.0000   1.0000   1.0000   1.0000
     1.0000   1.0000   1.0000   1.0000   1.0000   1.0000   1.0000   1.0000
     1.0000   1.0000   1.0000   1.0000   1.0000   1.0000   1.0000   1.0000
     1.0000   1.0000   1.0000   1.0000   1.0000   1.0000   1.0000   1.0000
     1.0000   1.0000   1.0000   1.0000   1.0000   1.0000   1.0000   1.0000
     1.0000   1.0000   1.0000   1.0000   1.0000   1.0000   1.0000   1.0000

     highest occupied level (ev):     1.2427

!    total energy              =  -14225.28743036 Ry
     estimated scf accuracy    <          3.3E-09 Ry

     The total energy is the sum of the following terms:
     one-electron contribution =  -15719.81084116 Ry
     hartree contribution      =    8487.36234332 Ry
     xc contribution           =   -2486.47477491 Ry
     ewald contribution        =   -3375.16493631 Ry
     one-center paw contrib.   =   -1131.19922130 Ry
      -> PAW hartree energy AE =       0.00000000 Ry
      -> PAW hartree energy PS =       0.00000000 Ry
      -> PAW xc energy AE      =       0.00000000 Ry
      -> PAW xc energy PS      =       0.00000000 Ry
      -> total E_H with PAW    =    8487.36234332 Ry
      -> total E_XC with PAW   =   -2486.47477491 Ry

     convergence has been achieved in  19 iterations

     Forces acting on atoms (cartesian axes, Ry/au):

     atom    1 type  1   force =    -0.00000298   -0.00023751   -0.00013553
     atom    2 type  1   force =     0.00051817   -0.00095830    0.00087588
     atom    3 type  1   force =    -0.00000440   -0.00023667   -0.00013465
     atom    4 type  1   force =    -0.00000491   -0.00023625   -0.00013439
     atom    5 type  1   force =    -0.00000485   -0.00023566   -0.00013419
     atom    6 type  1   force =    -0.00000418   -0.00023622   -0.00013428
     atom    7 type  1   force =    -0.00000561   -0.00023839   -0.00013627
     atom    8 type  1   force =    -0.00000464   -0.00023585   -0.00013413
     atom    9 type  1   force =     0.00154159    0.00289448   -0.00203780
     atom   10 type  1   force =    -0.00020143   -0.00013086   -0.00017451
     atom   11 type  1   force =    -0.00020016   -0.00013153   -0.00017437
     atom   12 type  1   force =    -0.00020024   -0.00013100   -0.00017428
     atom   13 type  1   force =    -0.00019977   -0.00013084   -0.00017418
     atom   14 type  1   force =    -0.00020015   -0.00013037   -0.00017464
     atom   15 type  1   force =    -0.00020071   -0.00013029   -0.00017413
     atom   16 type  1   force =    -0.00020138   -0.00013135   -0.00017465
     atom   17 type  2   force =    -0.00008248   -0.00017934    0.00020638
     atom   18 type  2   force =    -0.00001589    0.00000172    0.00001183
     atom   19 type  2   force =    -0.00001570    0.00000237    0.00001159
     atom   20 type  2   force =    -0.00001656    0.00000234    0.00001149
     atom   21 type  2   force =    -0.00001642    0.00000231    0.00001155
     atom   22 type  2   force =    -0.00001611    0.00000221    0.00001165
     atom   23 type  2   force =    -0.00001671    0.00000193    0.00001128
     atom   24 type  2   force =    -0.00001555    0.00000184    0.00001170
     atom   25 type  2   force =     0.00173169   -0.00164611    0.00005231
     atom   26 type  2   force =     0.00019770   -0.00004380    0.00002822
     atom   27 type  2   force =     0.00019944   -0.00004602    0.00002698
     atom   28 type  2   force =     0.00019921   -0.00004552    0.00002697
     atom   29 type  2   force =     0.00019859   -0.00004610    0.00002688
     atom   30 type  2   force =     0.00019789   -0.00004474    0.00002731
     atom   31 type  2   force =     0.00020002   -0.00004589    0.00002700
     atom   32 type  2   force =     0.00019987   -0.00004452    0.00002773
     atom   33 type  2   force =    -0.00008341    0.00015321    0.00008206
     atom   34 type  2   force =    -0.00008389    0.00015392    0.00008220
     atom   35 type  2   force =    -0.00008389    0.00015324    0.00008292
     atom   36 type  2   force =    -0.00008385    0.00015432    0.00008213
     atom   37 type  2   force =    -0.00011313    0.00014521    0.00007925
     atom   38 type  2   force =    -0.00008383    0.00015426    0.00008205
     atom   39 type  2   force =    -0.00008407    0.00015392    0.00008238
     atom   40 type  2   force =    -0.00008380    0.00015420    0.00008230
     atom   41 type  3   force =     0.00002323    0.00004581   -0.00005358
     atom   42 type  3   force =     0.00002341    0.00004623   -0.00005420
     atom   43 type  3   force =     0.00002370    0.00004612   -0.00005453
     atom   44 type  3   force =     0.00002360    0.00004622   -0.00005402
     atom   45 type  3   force =     0.00002143    0.00005082   -0.00005523
     atom   46 type  3   force =     0.00002347    0.00004619   -0.00005415
     atom   47 type  3   force =     0.00002353    0.00004578   -0.00005430
     atom   48 type  3   force =     0.00002338    0.00004607   -0.00005434
     atom   49 type  2   force =     0.00014368   -0.00000711   -0.00000088
     atom   50 type  2   force =     0.00014340   -0.00000561   -0.00000116
     atom   51 type  2   force =     0.00014774   -0.00000738   -0.00000041
     atom   52 type  2   force =     0.00014273   -0.00000593   -0.00000096
     atom   53 type  2   force =     0.00013245    0.00001058   -0.00000679
     atom   54 type  2   force =     0.00014361   -0.00000578   -0.00000084
     atom   55 type  2   force =     0.00014224   -0.00000662   -0.00000080
     atom   56 type  2   force =     0.00014329   -0.00000630   -0.00000101
     atom   57 type  3   force =     0.00003612   -0.00007025   -0.00004833
     atom   58 type  3   force =     0.00003612   -0.00007019   -0.00004830
     atom   59 type  3   force =     0.00003955   -0.00006576   -0.00005189
     atom   60 type  3   force =     0.00003590   -0.00007007   -0.00004828
     atom   61 type  3   force =     0.00003871   -0.00006696   -0.00004231
     atom   62 type  3   force =     0.00003612   -0.00007004   -0.00004796
     atom   63 type  3   force =     0.00003606   -0.00007027   -0.00004835
     atom   64 type  3   force =     0.00003640   -0.00007126   -0.00004841
     atom   65 type  1   force =     0.00379219    0.00156422   -0.00196832
     atom   66 type  1   force =     0.00005249    0.00020147    0.00017557
     atom   67 type  1   force =     0.00005242    0.00020329    0.00017645
     atom   68 type  1   force =     0.00005265    0.00020248    0.00017663
     atom   69 type  1   force =     0.00005296    0.00020358    0.00017642
     atom   70 type  1   force =     0.00005257    0.00020292    0.00017739
     atom   71 type  1   force =     0.00005316    0.00020281    0.00017719
     atom   72 type  1   force =     0.00005093    0.00020085    0.00017522
     atom   73 type  1   force =    -0.00777128   -0.00176832    0.00289241
     atom   74 type  1   force =    -0.00015711    0.00024870    0.00011154
     atom   75 type  1   force =    -0.00015856    0.00024986    0.00011123
     atom   76 type  1   force =    -0.00015863    0.00024965    0.00011149
     atom   77 type  1   force =    -0.00015866    0.00024985    0.00011124
     atom   78 type  1   force =    -0.00015813    0.00025016    0.00011178
     atom   79 type  1   force =    -0.00015945    0.00024956    0.00011135
     atom   80 type  1   force =    -0.00015767    0.00024970    0.00011146
     atom   81 type  2   force =     0.00000243   -0.00005108   -0.00001132
     atom   82 type  2   force =    -0.00009828   -0.00007672   -0.00003156
     atom   83 type  2   force =    -0.00009772   -0.00007820   -0.00003177
     atom   84 type  2   force =    -0.00009691   -0.00007703   -0.00003194
     atom   85 type  2   force =    -0.00009756   -0.00007752   -0.00003168
     atom   86 type  2   force =    -0.00009778   -0.00007650   -0.00003185
     atom   87 type  2   force =    -0.00009881   -0.00007724   -0.00003250
     atom   88 type  2   force =    -0.00009754   -0.00007715   -0.00003203
     atom   89 type  3   force =    -0.00000423   -0.00001991    0.00001443
     atom   90 type  3   force =    -0.00000676   -0.00000774    0.00001711
     atom   91 type  3   force =    -0.00000423   -0.00002021    0.00001399
     atom   92 type  3   force =    -0.00000373   -0.00001994    0.00001458
     atom   93 type  3   force =    -0.00000442   -0.00001984    0.00001383
     atom   94 type  3   force =    -0.00000409   -0.00001994    0.00001401
     atom   95 type  3   force =    -0.00000405   -0.00002009    0.00001420
     atom   96 type  3   force =    -0.00000448   -0.00002003    0.00001391
     atom   97 type  1   force =     0.00013371   -0.00020545    0.00002011
     atom   98 type  1   force =     0.00013716   -0.00025257   -0.00000219
     atom   99 type  1   force =     0.00013242   -0.00020330    0.00002229
     atom  100 type  1   force =     0.00013380   -0.00020369    0.00002046
     atom  101 type  1   force =     0.00013313   -0.00020467    0.00002223
     atom  102 type  1   force =     0.00013336   -0.00020367    0.00002149
     atom  103 type  1   force =     0.00013334   -0.00020468    0.00002151
     atom  104 type  1   force =     0.00013010   -0.00020654    0.00002353
     atom  105 type  2   force =    -0.00006757   -0.00004088    0.00007251
     atom  106 type  2   force =    -0.00006532   -0.00004221    0.00007311
     atom  107 type  2   force =    -0.00006577   -0.00002041    0.00007778
     atom  108 type  2   force =    -0.00006623   -0.00004210    0.00007285
     atom  109 type  2   force =    -0.00006793   -0.00004220    0.00007323
     atom  110 type  2   force =    -0.00006698   -0.00004143    0.00007301
     atom  111 type  2   force =    -0.00006669   -0.00004221    0.00007306
     atom  112 type  2   force =    -0.00006681   -0.00004098    0.00007274
     atom  113 type  3   force =    -0.00006601   -0.00002221   -0.00002909
     atom  114 type  3   force =    -0.00006656   -0.00002200   -0.00002927
     atom  115 type  3   force =    -0.00006529   -0.00002253   -0.00003264
     atom  116 type  3   force =    -0.00006666   -0.00002196   -0.00002922
     atom  117 type  3   force =    -0.00006243   -0.00002170   -0.00002994
     atom  118 type  3   force =    -0.00006654   -0.00002198   -0.00002909
     atom  119 type  3   force =    -0.00006639   -0.00002192   -0.00002932
     atom  120 type  3   force =    -0.00006640   -0.00002200   -0.00002940
     atom  121 type  1   force =     0.00000527    0.00023815   -0.00013739
     atom  122 type  1   force =     0.00000371    0.00021661   -0.00013753
     atom  123 type  1   force =     0.00000411    0.00023616   -0.00013429
     atom  124 type  1   force =     0.00000392    0.00023711   -0.00013440
     atom  125 type  1   force =     0.00000290    0.00022921   -0.00012985
     atom  126 type  1   force =     0.00000494    0.00023672   -0.00013442
     atom  127 type  1   force =     0.00000279    0.00023712   -0.00013555
     atom  128 type  1   force =     0.00000498    0.00023616   -0.00013455
     atom  129 type  1   force =     0.00020125    0.00013051   -0.00017700
     atom  130 type  1   force =     0.00019289    0.00013028   -0.00017745
     atom  131 type  1   force =     0.00020039    0.00013082   -0.00017427
     atom  132 type  1   force =     0.00020013    0.00013022   -0.00017438
     atom  133 type  1   force =     0.00020241    0.00012004   -0.00016478
     atom  134 type  1   force =     0.00020067    0.00013113   -0.00017411
     atom  135 type  1   force =     0.00020064    0.00013120   -0.00017478
     atom  136 type  1   force =     0.00020051    0.00013117   -0.00017427
     atom  137 type  2   force =     0.00001579   -0.00000172    0.00001170
     atom  138 type  2   force =     0.00001974   -0.00000048    0.00001165
     atom  139 type  2   force =     0.00001590   -0.00000240    0.00001149
     atom  140 type  2   force =     0.00001600   -0.00000212    0.00001160
     atom  141 type  2   force =    -0.00000088    0.00001410    0.00001433
     atom  142 type  2   force =     0.00001650   -0.00000190    0.00001178
     atom  143 type  2   force =     0.00001529   -0.00000222    0.00001170
     atom  144 type  2   force =     0.00001695   -0.00000247    0.00001144
     atom  145 type  2   force =    -0.00020154    0.00004513    0.00002805
     atom  146 type  2   force =    -0.00018874    0.00004737    0.00002298
     atom  147 type  2   force =    -0.00019883    0.00004562    0.00002688
     atom  148 type  2   force =    -0.00019735    0.00004557    0.00002746
     atom  149 type  2   force =    -0.00022339    0.00005278    0.00002248
     atom  150 type  2   force =    -0.00020006    0.00004571    0.00002712
     atom  151 type  2   force =    -0.00019630    0.00004397    0.00002782
     atom  152 type  2   force =    -0.00020011    0.00004561    0.00002691
     atom  153 type  2   force =     0.00009110   -0.00016117    0.00007934
     atom  154 type  2   force =     0.00008319   -0.00015391    0.00008233
     atom  155 type  2   force =     0.00008462   -0.00015452    0.00008193
     atom  156 type  2   force =     0.00008364   -0.00015439    0.00008227
     atom  157 type  2   force =     0.00008370   -0.00015443    0.00008232
     atom  158 type  2   force =     0.00008318   -0.00015227    0.00008327
     atom  159 type  2   force =     0.00008411   -0.00015387    0.00008237
     atom  160 type  2   force =     0.00008391   -0.00015338    0.00008222
     atom  161 type  3   force =    -0.00001742   -0.00009126   -0.00005901
     atom  162 type  3   force =    -0.00002350   -0.00004582   -0.00005434
     atom  163 type  3   force =    -0.00002341   -0.00004627   -0.00005414
     atom  164 type  3   force =    -0.00002332   -0.00004603   -0.00005429
     atom  165 type  3   force =    -0.00002368   -0.00004624   -0.00005421
     atom  166 type  3   force =    -0.00002300   -0.00004564   -0.00005410
     atom  167 type  3   force =    -0.00002376   -0.00004620   -0.00005439
     atom  168 type  3   force =    -0.00002333   -0.00004582   -0.00005404
     atom  169 type  2   force =    -0.00014262    0.00000573   -0.00000099
     atom  170 type  2   force =    -0.00014434    0.00000622   -0.00000098
     atom  171 type  2   force =    -0.00014835   -0.00000144   -0.00000220
     atom  172 type  2   force =    -0.00014411    0.00000686   -0.00000102
     atom  173 type  2   force =    -0.00014215    0.00000555   -0.00000112
     atom  174 type  2   force =    -0.00014317    0.00000637   -0.00000100
     atom  175 type  2   force =    -0.00014292    0.00000647   -0.00000089
     atom  176 type  2   force =    -0.00014404    0.00000486   -0.00000069
     atom  177 type  3   force =    -0.00003627    0.00007049   -0.00004752
     atom  178 type  3   force =    -0.00003666    0.00007297   -0.00004822
     atom  179 type  3   force =    -0.00003609    0.00007204   -0.00004913
     atom  180 type  3   force =    -0.00003581    0.00007004   -0.00004780
     atom  181 type  3   force =    -0.00003616    0.00007027   -0.00004864
     atom  182 type  3   force =    -0.00003600    0.00006998   -0.00004830
     atom  183 type  3   force =    -0.00003600    0.00007030   -0.00004835
     atom  184 type  3   force =    -0.00003609    0.00007063   -0.00004834
     atom  185 type  1   force =    -0.00004920   -0.00020039    0.00017528
     atom  186 type  1   force =    -0.00005233   -0.00020585    0.00018050
     atom  187 type  1   force =    -0.00005313   -0.00020260    0.00017700
     atom  188 type  1   force =    -0.00005258   -0.00020283    0.00017528
     atom  189 type  1   force =    -0.00006052   -0.00021583    0.00017636
     atom  190 type  1   force =    -0.00005233   -0.00020303    0.00017640
     atom  191 type  1   force =    -0.00005290   -0.00020149    0.00017562
     atom  192 type  1   force =    -0.00005227   -0.00020310    0.00017697
     atom  193 type  1   force =     0.00015778   -0.00025165    0.00011165
     atom  194 type  1   force =     0.00015851   -0.00025338    0.00011557
     atom  195 type  1   force =     0.00015884   -0.00024911    0.00011155
     atom  196 type  1   force =     0.00015785   -0.00025015    0.00011051
     atom  197 type  1   force =     0.00017645   -0.00024921    0.00010863
     atom  198 type  1   force =     0.00015880   -0.00024992    0.00011122
     atom  199 type  1   force =     0.00015680   -0.00024867    0.00011173
     atom  200 type  1   force =     0.00015898   -0.00024965    0.00011146
     atom  201 type  2   force =     0.00009742    0.00007763   -0.00003219
     atom  202 type  2   force =     0.00009300    0.00008162   -0.00003972
     atom  203 type  2   force =     0.00009796    0.00007721   -0.00003178
     atom  204 type  2   force =     0.00009795    0.00007738   -0.00003168
     atom  205 type  2   force =     0.00010563    0.00008048   -0.00003282
     atom  206 type  2   force =     0.00009730    0.00007700   -0.00003192
     atom  207 type  2   force =     0.00009833    0.00007737   -0.00003129
     atom  208 type  2   force =     0.00009644    0.00007672   -0.00003201
     atom  209 type  3   force =     0.00000403    0.00002020    0.00001427
     atom  210 type  3   force =     0.00001036    0.00001852    0.00002021
     atom  211 type  3   force =     0.00000417    0.00002007    0.00001399
     atom  212 type  3   force =     0.00000409    0.00001974    0.00001404
     atom  213 type  3   force =     0.00000334    0.00002309    0.00001500
     atom  214 type  3   force =     0.00000424    0.00001994    0.00001413
     atom  215 type  3   force =     0.00000403    0.00002012    0.00001418
     atom  216 type  3   force =     0.00000437    0.00002025    0.00001404
     atom  217 type  1   force =    -0.00013256    0.00020424    0.00002157
     atom  218 type  1   force =    -0.00013412    0.00020454    0.00002450
     atom  219 type  1   force =    -0.00013355    0.00020469    0.00002185
     atom  220 type  1   force =    -0.00013404    0.00020425    0.00002142
     atom  221 type  1   force =    -0.00013080    0.00020925    0.00002318
     atom  222 type  1   force =    -0.00013279    0.00020429    0.00002122
     atom  223 type  1   force =    -0.00013442    0.00020489    0.00002012
     atom  224 type  1   force =    -0.00013148    0.00020356    0.00002231
     atom  225 type  2   force =     0.00006644    0.00004221    0.00007286
     atom  226 type  2   force =     0.00006682    0.00004167    0.00007294
     atom  227 type  2   force =     0.00006800    0.00004521    0.00007464
     atom  228 type  2   force =     0.00006701    0.00004154    0.00007297
     atom  229 type  2   force =     0.00009106    0.00004483    0.00007055
     atom  230 type  2   force =     0.00006724    0.00004158    0.00007285
     atom  231 type  2   force =     0.00006682    0.00004186    0.00007320
     atom  232 type  2   force =     0.00006630    0.00004211    0.00007311
     atom  233 type  3   force =     0.00006657    0.00002146   -0.00002866
     atom  234 type  3   force =     0.00006634    0.00002203   -0.00002930
     atom  235 type  3   force =     0.00006720    0.00002016   -0.00003064
     atom  236 type  3   force =     0.00006637    0.00002231   -0.00002907
     atom  237 type  3   force =     0.00006677    0.00002134   -0.00002960
     atom  238 type  3   force =     0.00006622    0.00002211   -0.00002926
     atom  239 type  3   force =     0.00006662    0.00002200   -0.00002927
     atom  240 type  3   force =     0.00006639    0.00002206   -0.00002950
     atom  241 type  1   force =    -0.00022785   -0.00000270    0.00012881
     atom  242 type  1   force =    -0.00024740    0.00001106    0.00014071
     atom  243 type  1   force =    -0.00023667    0.00000510    0.00013464
     atom  244 type  1   force =    -0.00023619    0.00000461    0.00013410
     atom  245 type  1   force =    -0.00023535    0.00000505    0.00013445
     atom  246 type  1   force =    -0.00023712    0.00000545    0.00013501
     atom  247 type  1   force =    -0.00023831    0.00000434    0.00013418
     atom  248 type  1   force =    -0.00023696    0.00000370    0.00013475
     atom  249 type  1   force =    -0.00011855    0.00019175    0.00016870
     atom  250 type  1   force =    -0.00012937    0.00020352    0.00017320
     atom  251 type  1   force =    -0.00013124    0.00020074    0.00017407
     atom  252 type  1   force =    -0.00013076    0.00019986    0.00017415
     atom  253 type  1   force =    -0.00013073    0.00020041    0.00017411
     atom  254 type  1   force =    -0.00013133    0.00020019    0.00017411
     atom  255 type  1   force =    -0.00013080    0.00020183    0.00017362
     atom  256 type  1   force =    -0.00013047    0.00019999    0.00017382
     atom  257 type  2   force =     0.00001828    0.00002823   -0.00005741
     atom  258 type  2   force =     0.00000222    0.00001566   -0.00001134
     atom  259 type  2   force =     0.00000180    0.00001573   -0.00001156
     atom  260 type  2   force =     0.00000239    0.00001573   -0.00001146
     atom  261 type  2   force =     0.00000235    0.00001640   -0.00001142
     atom  262 type  2   force =     0.00000236    0.00001578   -0.00001160
     atom  263 type  2   force =     0.00000191    0.00001670   -0.00001173
     atom  264 type  2   force =     0.00000214    0.00001581   -0.00001139
     atom  265 type  2   force =    -0.00005373   -0.00018119   -0.00001933
     atom  266 type  2   force =    -0.00004543   -0.00020420   -0.00002603
     atom  267 type  2   force =    -0.00004511   -0.00020018   -0.00002705
     atom  268 type  2   force =    -0.00004540   -0.00019796   -0.00002685
     atom  269 type  2   force =    -0.00004556   -0.00019997   -0.00002701
     atom  270 type  2   force =    -0.00004487   -0.00019845   -0.00002705
     atom  271 type  2   force =    -0.00004451   -0.00020067   -0.00002782
     atom  272 type  2   force =    -0.00004507   -0.00019734   -0.00002688
     atom  273 type  2   force =     0.00016268    0.00008659   -0.00011777
     atom  274 type  2   force =     0.00015402    0.00008414   -0.00008235
     atom  275 type  2   force =     0.00015422    0.00008389   -0.00008243
     atom  276 type  2   force =     0.00015375    0.00008382   -0.00008227
     atom  277 type  2   force =     0.00015426    0.00008351   -0.00008241
     atom  278 type  2   force =     0.00015427    0.00008371   -0.00008215
     atom  279 type  2   force =     0.00015386    0.00008339   -0.00008236
     atom  280 type  2   force =     0.00015386    0.00008407   -0.00008221
     atom  281 type  3   force =     0.00005186   -0.00002437    0.00006593
     atom  282 type  3   force =     0.00004594   -0.00002340    0.00005469
     atom  283 type  3   force =     0.00004615   -0.00002402    0.00005484
     atom  284 type  3   force =     0.00004589   -0.00002353    0.00005443
     atom  285 type  3   force =     0.00004600   -0.00002355    0.00005447
     atom  286 type  3   force =     0.00004599   -0.00002339    0.00005434
     atom  287 type  3   force =     0.00004576   -0.00002348    0.00005429
     atom  288 type  3   force =     0.00004619   -0.00002334    0.00005433
     atom  289 type  2   force =    -0.00001017   -0.00014291    0.00000686
     atom  290 type  2   force =    -0.00000618   -0.00014274    0.00000114
     atom  291 type  2   force =    -0.00000558   -0.00014252    0.00000111
     atom  292 type  2   force =    -0.00000563   -0.00014281    0.00000118
     atom  293 type  2   force =    -0.00000621   -0.00014264    0.00000079
     atom  294 type  2   force =    -0.00000607   -0.00014263    0.00000101
     atom  295 type  2   force =    -0.00000660   -0.00014304    0.00000065
     atom  296 type  2   force =    -0.00000588   -0.00014312    0.00000122
     atom  297 type  3   force =    -0.00007053   -0.00003650    0.00004845
     atom  298 type  3   force =    -0.00007026   -0.00003610    0.00004852
     atom  299 type  3   force =    -0.00007007   -0.00003591    0.00004845
     atom  300 type  3   force =    -0.00006952   -0.00003599    0.00004839
     atom  301 type  3   force =    -0.00007100   -0.00003636    0.00004815
     atom  302 type  3   force =    -0.00007050   -0.00003549    0.00004770
     atom  303 type  3   force =    -0.00007033   -0.00003612    0.00004839
     atom  304 type  3   force =    -0.00007008   -0.00003610    0.00004857
     atom  305 type  1   force =     0.00020298   -0.00007326   -0.00018709
     atom  306 type  1   force =     0.00019858   -0.00005251   -0.00017422
     atom  307 type  1   force =     0.00020254   -0.00005163   -0.00017696
     atom  308 type  1   force =     0.00020308   -0.00005271   -0.00017646
     atom  309 type  1   force =     0.00020356   -0.00005190   -0.00017742
     atom  310 type  1   force =     0.00020254   -0.00005134   -0.00017607
     atom  311 type  1   force =     0.00020208   -0.00005225   -0.00017539
     atom  312 type  1   force =     0.00020199   -0.00005233   -0.00017649
     atom  313 type  1   force =     0.00025712    0.00016364   -0.00011465
     atom  314 type  1   force =     0.00024857    0.00016058   -0.00011030
     atom  315 type  1   force =     0.00025020    0.00015862   -0.00011222
     atom  316 type  1   force =     0.00025019    0.00015840   -0.00011152
     atom  317 type  1   force =     0.00024998    0.00015903   -0.00011182
     atom  318 type  1   force =     0.00025050    0.00015786   -0.00011206
     atom  319 type  1   force =     0.00024939    0.00015842   -0.00011098
     atom  320 type  1   force =     0.00024939    0.00015825   -0.00011262
     atom  321 type  2   force =    -0.00009732    0.00008503    0.00002106
     atom  322 type  2   force =    -0.00007753    0.00009785    0.00003192
     atom  323 type  2   force =    -0.00007697    0.00009756    0.00003213
     atom  324 type  2   force =    -0.00007715    0.00009846    0.00003183
     atom  325 type  2   force =    -0.00007768    0.00009701    0.00003205
     atom  326 type  2   force =    -0.00007710    0.00009760    0.00003184
     atom  327 type  2   force =    -0.00007662    0.00009611    0.00003238
     atom  328 type  2   force =    -0.00007694    0.00009792    0.00003176
     atom  329 type  3   force =    -0.00002058    0.00000422   -0.00001310
     atom  330 type  3   force =    -0.00002017    0.00000409   -0.00001373
     atom  331 type  3   force =    -0.00002006    0.00000422   -0.00001391
     atom  332 type  3   force =    -0.00001992    0.00000411   -0.00001385
     atom  333 type  3   force =    -0.00002038    0.00000407   -0.00001393
     atom  334 type  3   force =    -0.00002003    0.00000407   -0.00001398
     atom  335 type  3   force =    -0.00001920    0.00000400   -0.00001534
     atom  336 type  3   force =    -0.00001994    0.00000418   -0.00001369
     atom  337 type  1   force =    -0.00019940   -0.00012851   -0.00001805
     atom  338 type  1   force =    -0.00020405   -0.00013363   -0.00002213
     atom  339 type  1   force =    -0.00020532   -0.00013284   -0.00002209
     atom  340 type  1   force =    -0.00020454   -0.00013398   -0.00002157
     atom  341 type  1   force =    -0.00020307   -0.00013289   -0.00002181
     atom  342 type  1   force =    -0.00020383   -0.00013357   -0.00002107
     atom  343 type  1   force =    -0.00020417   -0.00013223   -0.00002011
     atom  344 type  1   force =    -0.00020457   -0.00013385   -0.00002230
     atom  345 type  2   force =    -0.00004093    0.00006524   -0.00007215
     atom  346 type  2   force =    -0.00004182    0.00006712   -0.00007328
     atom  347 type  2   force =    -0.00003819    0.00006303   -0.00007656
     atom  348 type  2   force =    -0.00004227    0.00006649   -0.00007325
     atom  349 type  2   force =    -0.00004142    0.00006699   -0.00007335
     atom  350 type  2   force =    -0.00004431    0.00006585   -0.00007303
     atom  351 type  2   force =    -0.00004157    0.00006776   -0.00007293
     atom  352 type  2   force =    -0.00004155    0.00006692   -0.00007311
     atom  353 type  3   force =    -0.00002245    0.00006798    0.00002737
     atom  354 type  3   force =    -0.00002198    0.00006641    0.00002960
     atom  355 type  3   force =    -0.00002174    0.00006697    0.00002972
     atom  356 type  3   force =    -0.00002209    0.00006654    0.00002940
     atom  357 type  3   force =    -0.00002216    0.00006641    0.00002981
     atom  358 type  3   force =    -0.00002199    0.00006675    0.00002919
     atom  359 type  3   force =    -0.00002219    0.00006649    0.00002937
     atom  360 type  3   force =    -0.00002197    0.00006639    0.00002951
     atom  361 type  1   force =     0.00023976   -0.00000446    0.00013460
     atom  362 type  1   force =     0.00023715    0.00000044    0.00014025
     atom  363 type  1   force =     0.00023604   -0.00000430    0.00013424
     atom  364 type  1   force =     0.00023636   -0.00000486    0.00013444
     atom  365 type  1   force =     0.00023609   -0.00000407    0.00013352
     atom  366 type  1   force =     0.00023651   -0.00000452    0.00013442
     atom  367 type  1   force =     0.00021462   -0.00000993    0.00012418
     atom  368 type  1   force =     0.00023592   -0.00000524    0.00013419
     atom  369 type  1   force =     0.00013064   -0.00019961    0.00017408
     atom  370 type  1   force =     0.00013095   -0.00020031    0.00017393
     atom  371 type  1   force =     0.00013134   -0.00020235    0.00017311
     atom  372 type  1   force =     0.00013054   -0.00020615    0.00017442
     atom  373 type  1   force =     0.00012523   -0.00020536    0.00016876
     atom  374 type  1   force =     0.00013086   -0.00020032    0.00017379
     atom  375 type  1   force =     0.00013002   -0.00020046    0.00017283
     atom  376 type  1   force =     0.00013065   -0.00020017    0.00017411
     atom  377 type  2   force =    -0.00000215   -0.00001602   -0.00001145
     atom  378 type  2   force =    -0.00000235   -0.00001615   -0.00001175
     atom  379 type  2   force =    -0.00000170   -0.00001655   -0.00001168
     atom  380 type  2   force =     0.00000190   -0.00001109   -0.00001782
     atom  381 type  2   force =    -0.00000331   -0.00001619   -0.00001192
     atom  382 type  2   force =    -0.00000219   -0.00001555   -0.00001150
     atom  383 type  2   force =    -0.00000238   -0.00001624   -0.00001150
     atom  384 type  2   force =    -0.00000203   -0.00001509   -0.00001171
     atom  385 type  2   force =     0.00004574    0.00019807   -0.00002653
     atom  386 type  2   force =     0.00004505    0.00019915   -0.00002719
     atom  387 type  2   force =     0.00004414    0.00020101   -0.00002813
     atom  388 type  2   force =     0.00004534    0.00021484   -0.00002865
     atom  389 type  2   force =     0.00005306    0.00022072   -0.00002857
     atom  390 type  2   force =     0.00004523    0.00019951   -0.00002682
     atom  391 type  2   force =     0.00004496    0.00019857   -0.00002696
     atom  392 type  2   force =     0.00004485    0.00019722   -0.00002721
     atom  393 type  2   force =    -0.00015390   -0.00008391   -0.00008233
     atom  394 type  2   force =    -0.00015399   -0.00008297   -0.00008198
     atom  395 type  2   force =    -0.00015413   -0.00008343   -0.00008235
     atom  396 type  2   force =    -0.00014886   -0.00008241   -0.00008582
     atom  397 type  2   force =    -0.00015386   -0.00008327   -0.00008292
     atom  398 type  2   force =    -0.00015440   -0.00008417   -0.00008247
     atom  399 type  2   force =    -0.00015367   -0.00008385   -0.00008229
     atom  400 type  2   force =    -0.00015359   -0.00008378   -0.00008220
     atom  401 type  3   force =    -0.00004613    0.00002346    0.00005457
     atom  402 type  3   force =    -0.00004566    0.00002313    0.00005419
     atom  403 type  3   force =    -0.00004595    0.00002352    0.00005436
     atom  404 type  3   force =    -0.00004482    0.00002399    0.00005558
     atom  405 type  3   force =    -0.00004606    0.00002489    0.00005511
     atom  406 type  3   force =    -0.00004588    0.00002370    0.00005493
     atom  407 type  3   force =    -0.00004587    0.00002334    0.00005451
     atom  408 type  3   force =    -0.00004601    0.00002359    0.00005434
     atom  409 type  2   force =     0.00000636    0.00014311    0.00000081
     atom  410 type  2   force =     0.00000615    0.00014322    0.00000119
     atom  411 type  2   force =    -0.00000113    0.00014106    0.00000638
     atom  412 type  2   force =     0.00000619    0.00014303    0.00000070
     atom  413 type  2   force =     0.00000588    0.00014264    0.00000112
     atom  414 type  2   force =     0.00000655    0.00014279    0.00000079
     atom  415 type  2   force =     0.00000535    0.00014264    0.00000115
     atom  416 type  2   force =     0.00000610    0.00014363    0.00000120
     atom  417 type  3   force =     0.00007043    0.00003513    0.00004739
     atom  418 type  3   force =     0.00007023    0.00003612    0.00004860
     atom  419 type  3   force =     0.00006851    0.00003427    0.00004966
     atom  420 type  3   force =     0.00007022    0.00003608    0.00004845
     atom  421 type  3   force =     0.00007038    0.00003603    0.00004847
     atom  422 type  3   force =     0.00007042    0.00003631    0.00004864
     atom  423 type  3   force =     0.00006808    0.00003558    0.00004822
     atom  424 type  3   force =     0.00007012    0.00003617    0.00004846
     atom  425 type  1   force =    -0.00020294    0.00005285   -0.00017722
     atom  426 type  1   force =    -0.00020333    0.00005181   -0.00017634
     atom  427 type  1   force =    -0.00020103    0.00005109   -0.00017423
     atom  428 type  1   force =    -0.00020350    0.00005011   -0.00017724
     atom  429 type  1   force =    -0.00023053    0.00003552   -0.00019837
     atom  430 type  1   force =    -0.00020318    0.00005171   -0.00017712
     atom  431 type  1   force =    -0.00020288    0.00005381   -0.00017673
     atom  432 type  1   force =    -0.00020260    0.00005243   -0.00017623
     atom  433 type  1   force =    -0.00025010   -0.00015857   -0.00011209
     atom  434 type  1   force =    -0.00025047   -0.00015831   -0.00011170
     atom  435 type  1   force =    -0.00024965   -0.00015812   -0.00011127
     atom  436 type  1   force =    -0.00024795   -0.00016018   -0.00011018
     atom  437 type  1   force =    -0.00024934   -0.00016982   -0.00010475
     atom  438 type  1   force =    -0.00025029   -0.00015879   -0.00011233
     atom  439 type  1   force =    -0.00024928   -0.00015925   -0.00011186
     atom  440 type  1   force =    -0.00025007   -0.00015800   -0.00011182
     atom  441 type  2   force =     0.00007729   -0.00009784    0.00003181
     atom  442 type  2   force =     0.00007696   -0.00009730    0.00003173
     atom  443 type  2   force =     0.00007657   -0.00009632    0.00003263
     atom  444 type  2   force =     0.00006615   -0.00009207    0.00002769
     atom  445 type  2   force =     0.00008004   -0.00009792    0.00003251
     atom  446 type  2   force =     0.00007733   -0.00009761    0.00003194
     atom  447 type  2   force =     0.00007670   -0.00009760    0.00003176
     atom  448 type  2   force =     0.00007724   -0.00009942    0.00003167
     atom  449 type  3   force =     0.00001921   -0.00000392   -0.00001541
     atom  450 type  3   force =     0.00002165   -0.00000579   -0.00001440
     atom  451 type  3   force =     0.00002008   -0.00000420   -0.00001366
     atom  452 type  3   force =     0.00001995   -0.00000410   -0.00001396
     atom  453 type  3   force =     0.00001984   -0.00000423   -0.00001380
     atom  454 type  3   force =     0.00001979   -0.00000406   -0.00001382
     atom  455 type  3   force =     0.00002042   -0.00000403   -0.00001428
     atom  456 type  3   force =     0.00002012   -0.00000407   -0.00001388
     atom  457 type  1   force =     0.00020438    0.00013214   -0.00002031
     atom  458 type  1   force =     0.00020882    0.00012151   -0.00002156
     atom  459 type  1   force =     0.00020436    0.00013339   -0.00002241
     atom  460 type  1   force =     0.00020328    0.00013364   -0.00002064
     atom  461 type  1   force =     0.00020442    0.00013364   -0.00002199
     atom  462 type  1   force =     0.00020575    0.00013488   -0.00002091
     atom  463 type  1   force =     0.00020273    0.00013072   -0.00002184
     atom  464 type  1   force =     0.00020441    0.00013330   -0.00002198
     atom  465 type  2   force =     0.00004651   -0.00007557   -0.00008125
     atom  466 type  2   force =     0.00004153   -0.00006685   -0.00007331
     atom  467 type  2   force =     0.00004213   -0.00006789   -0.00007321
     atom  468 type  2   force =     0.00004190   -0.00006702   -0.00007309
     atom  469 type  2   force =     0.00004270   -0.00006653   -0.00007331
     atom  470 type  2   force =     0.00004144   -0.00006626   -0.00007288
     atom  471 type  2   force =     0.00004237   -0.00006621   -0.00007318
     atom  472 type  2   force =     0.00004144   -0.00006727   -0.00007314
     atom  473 type  3   force =     0.00002270   -0.00006689    0.00002829
     atom  474 type  3   force =     0.00002203   -0.00006641    0.00002960
     atom  475 type  3   force =     0.00002342   -0.00006685    0.00003130
     atom  476 type  3   force =     0.00002213   -0.00006659    0.00002941
     atom  477 type  3   force =     0.00002194   -0.00006667    0.00002962
     atom  478 type  3   force =     0.00002226   -0.00006687    0.00002929
     atom  479 type  3   force =     0.00002218   -0.00006666    0.00002927
     atom  480 type  3   force =     0.00002207   -0.00006630    0.00002945
     atom  481 type  4   force =    -0.00001073    0.00000268    0.00000638
     atom  482 type  4   force =     0.00002716   -0.00002725    0.00005614
     atom  483 type  4   force =     0.00000127   -0.00000046   -0.00000090
     atom  484 type  4   force =     0.00000008   -0.00000119    0.00000028
     atom  485 type  4   force =    -0.00000530    0.00000062   -0.00000088
     atom  486 type  4   force =    -0.00000086   -0.00000188   -0.00000102
     atom  487 type  4   force =     0.00001075    0.00000213    0.00000501
     atom  488 type  4   force =    -0.00000010    0.00000067   -0.00000074
     atom  489 type  4   force =     0.00005075    0.00022020    0.00006730
     atom  490 type  4   force =     0.00000067    0.00000184    0.00000175
     atom  491 type  4   force =     0.00000119   -0.00000276    0.00000244
     atom  492 type  4   force =    -0.00000095    0.00000098   -0.00000028
     atom  493 type  4   force =    -0.00000163   -0.00000266    0.00000357
     atom  494 type  4   force =     0.00000206    0.00000162   -0.00000182
     atom  495 type  4   force =    -0.00000059   -0.00000022   -0.00000228
     atom  496 type  4   force =     0.00000286    0.00000319    0.00000386
     The non-local contrib.  to forces
     atom    1 type  1   force =     0.42451492   -0.94529445   -0.55501302
     atom    2 type  1   force =     0.42560678   -0.94676847   -0.55356406
     atom    3 type  1   force =     0.42450329   -0.94527428   -0.55499846
     atom    4 type  1   force =     0.42450155   -0.94527168   -0.55499761
     atom    5 type  1   force =     0.42450568   -0.94527058   -0.55499760
     atom    6 type  1   force =     0.42450535   -0.94526893   -0.55499642
     atom    7 type  1   force =     0.42450243   -0.94529097   -0.55501122
     atom    8 type  1   force =     0.42450496   -0.94527472   -0.55499745
     atom    9 type  1   force =    -1.89559587   -0.91655360   -0.84472242
     atom   10 type  1   force =    -1.90169512   -0.92018867   -0.83651335
     atom   11 type  1   force =    -1.90170411   -0.92018572   -0.83651354
     atom   12 type  1   force =    -1.90170459   -0.92018712   -0.83651550
     atom   13 type  1   force =    -1.90169775   -0.92018286   -0.83651199
     atom   14 type  1   force =    -1.90169410   -0.92017924   -0.83651096
     atom   15 type  1   force =    -1.90169585   -0.92018125   -0.83651111
     atom   16 type  1   force =    -1.90171600   -0.92019661   -0.83652314
     atom   17 type  2   force =     0.20964493   -0.04505244    0.00823200
     atom   18 type  2   force =     0.20917587   -0.04487037    0.00801719
     atom   19 type  2   force =     0.20917126   -0.04486209    0.00801870
     atom   20 type  2   force =     0.20917075   -0.04486383    0.00802009
     atom   21 type  2   force =     0.20917423   -0.04486166    0.00801914
     atom   22 type  2   force =     0.20917504   -0.04486841    0.00802102
     atom   23 type  2   force =     0.20916900   -0.04486887    0.00802172
     atom   24 type  2   force =     0.20916856   -0.04486768    0.00801930
     atom   25 type  2   force =     0.18154209   -0.01066615    0.01196748
     atom   26 type  2   force =     0.18058309   -0.00954765    0.01138052
     atom   27 type  2   force =     0.18057594   -0.00954328    0.01138289
     atom   28 type  2   force =     0.18057676   -0.00954428    0.01138278
     atom   29 type  2   force =     0.18058034   -0.00954336    0.01138371
     atom   30 type  2   force =     0.18058209   -0.00954326    0.01138395
     atom   31 type  2   force =     0.18057648   -0.00954279    0.01138389
     atom   32 type  2   force =     0.18057322   -0.00954850    0.01137961
     atom   33 type  2   force =     0.03833613    0.04944415   -0.02159295
     atom   34 type  2   force =     0.03834026    0.04942878   -0.02158899
     atom   35 type  2   force =     0.03832936    0.04943211   -0.02158849
     atom   36 type  2   force =     0.03833869    0.04942746   -0.02159071
     atom   37 type  2   force =     0.03846708    0.04962788   -0.02144085
     atom   38 type  2   force =     0.03834065    0.04942584   -0.02159115
     atom   39 type  2   force =     0.03833860    0.04943781   -0.02159062
     atom   40 type  2   force =     0.03833737    0.04943475   -0.02158967
     atom   41 type  3   force =    -0.02448914    0.07095393   -0.00853873
     atom   42 type  3   force =    -0.02448908    0.07095355   -0.00853849
     atom   43 type  3   force =    -0.02448926    0.07095367   -0.00853840
     atom   44 type  3   force =    -0.02448911    0.07095352   -0.00853855
     atom   45 type  3   force =    -0.02448905    0.07095573   -0.00853760
     atom   46 type  3   force =    -0.02448906    0.07095348   -0.00853852
     atom   47 type  3   force =    -0.02448913    0.07095378   -0.00853851
     atom   48 type  3   force =    -0.02448913    0.07095371   -0.00853849
     atom   49 type  2   force =     0.19564129    0.10407249   -0.02183182
     atom   50 type  2   force =     0.19564566    0.10406662   -0.02183210
     atom   51 type  2   force =     0.19561753    0.10406926   -0.02182135
     atom   52 type  2   force =     0.19564791    0.10406605   -0.02183199
     atom   53 type  2   force =     0.19569962    0.10409075   -0.02188156
     atom   54 type  2   force =     0.19564560    0.10406521   -0.02183382
     atom   55 type  2   force =     0.19565021    0.10407070   -0.02183201
     atom   56 type  2   force =     0.19564028    0.10407248   -0.02183147
     atom   57 type  3   force =     0.07447308   -0.02094771   -0.00102135
     atom   58 type  3   force =     0.07447317   -0.02094779   -0.00102132
     atom   59 type  3   force =     0.07447166   -0.02094840   -0.00102010
     atom   60 type  3   force =     0.07447323   -0.02094781   -0.00102135
     atom   61 type  3   force =     0.07447384   -0.02094754   -0.00102083
     atom   62 type  3   force =     0.07447315   -0.02094785   -0.00102148
     atom   63 type  3   force =     0.07447328   -0.02094773   -0.00102137
     atom   64 type  3   force =     0.07447310   -0.02094757   -0.00102129
     atom   65 type  1   force =     0.45955726    0.90599585    0.59889249
     atom   66 type  1   force =     0.46059397    0.90169271    0.60853022
     atom   67 type  1   force =     0.46059286    0.90171127    0.60853942
     atom   68 type  1   force =     0.46059369    0.90170553    0.60853982
     atom   69 type  1   force =     0.46059816    0.90171302    0.60853925
     atom   70 type  1   force =     0.46059477    0.90170394    0.60854161
     atom   71 type  1   force =     0.46059882    0.90171382    0.60854794
     atom   72 type  1   force =     0.46058422    0.90168767    0.60852566
     atom   73 type  1   force =    -1.81974506    1.17946730    0.52490821
     atom   74 type  1   force =    -1.81426623    1.18901222    0.50398414
     atom   75 type  1   force =    -1.81428083    1.18902612    0.50398991
     atom   76 type  1   force =    -1.81427399    1.18901994    0.50398846
     atom   77 type  1   force =    -1.81427239    1.18902161    0.50398823
     atom   78 type  1   force =    -1.81427757    1.18902439    0.50399114
     atom   79 type  1   force =    -1.81427115    1.18902083    0.50398907
     atom   80 type  1   force =    -1.81427487    1.18901390    0.50398486
     atom   81 type  2   force =    -0.12199705    0.00047062    0.01039914
     atom   82 type  2   force =    -0.12228818    0.00071828    0.01060598
     atom   83 type  2   force =    -0.12228482    0.00072810    0.01060613
     atom   84 type  2   force =    -0.12229121    0.00072230    0.01060867
     atom   85 type  2   force =    -0.12228724    0.00072586    0.01060787
     atom   86 type  2   force =    -0.12228914    0.00071714    0.01060967
     atom   87 type  2   force =    -0.12229423    0.00071950    0.01060888
     atom   88 type  2   force =    -0.12228935    0.00071990    0.01060854
     atom   89 type  3   force =    -0.04392400   -0.06010599    0.00989209
     atom   90 type  3   force =    -0.04392078   -0.06010787    0.00989259
     atom   91 type  3   force =    -0.04392408   -0.06010588    0.00989232
     atom   92 type  3   force =    -0.04392400   -0.06010573    0.00989205
     atom   93 type  3   force =    -0.04392400   -0.06010602    0.00989238
     atom   94 type  3   force =    -0.04392398   -0.06010579    0.00989225
     atom   95 type  3   force =    -0.04392408   -0.06010592    0.00989222
     atom   96 type  3   force =    -0.04392406   -0.06010596    0.00989236
     atom   97 type  1   force =     0.67099818   -1.73658590    0.15449122
     atom   98 type  1   force =     0.67112283   -1.73668472    0.15442847
     atom   99 type  1   force =     0.67098929   -1.73656252    0.15449834
     atom  100 type  1   force =     0.67099872   -1.73656793    0.15449347
     atom  101 type  1   force =     0.67099792   -1.73658392    0.15450011
     atom  102 type  1   force =     0.67099462   -1.73657011    0.15449706
     atom  103 type  1   force =     0.67099768   -1.73658043    0.15449726
     atom  104 type  1   force =     0.67098705   -1.73659367    0.15450107
     atom  105 type  2   force =    -0.02522317    0.04109335   -0.00104908
     atom  106 type  2   force =    -0.02521477    0.04108326   -0.00104409
     atom  107 type  2   force =    -0.02528408    0.04112674   -0.00103292
     atom  108 type  2   force =    -0.02521458    0.04108950   -0.00104573
     atom  109 type  2   force =    -0.02521465    0.04109889   -0.00104089
     atom  110 type  2   force =    -0.02522115    0.04108717   -0.00104449
     atom  111 type  2   force =    -0.02521281    0.04109430   -0.00104376
     atom  112 type  2   force =    -0.02521827    0.04109309   -0.00104102
     atom  113 type  3   force =     0.05071356    0.05410642   -0.00605713
     atom  114 type  3   force =     0.05071360    0.05410617   -0.00605704
     atom  115 type  3   force =     0.05071277    0.05410569   -0.00605611
     atom  116 type  3   force =     0.05071361    0.05410615   -0.00605707
     atom  117 type  3   force =     0.05071445    0.05410697   -0.00605702
     atom  118 type  3   force =     0.05071354    0.05410607   -0.00605710
     atom  119 type  3   force =     0.05071370    0.05410637   -0.00605707
     atom  120 type  3   force =     0.05071363    0.05410632   -0.00605702
     atom  121 type  1   force =    -0.42449606    0.94528129   -0.55501273
     atom  122 type  1   force =    -0.42449276    0.94514236   -0.55497370
     atom  123 type  1   force =    -0.42450818    0.94527550   -0.55499824
     atom  124 type  1   force =    -0.42450862    0.94527787   -0.55500204
     atom  125 type  1   force =    -0.42447800    0.94525040   -0.55497635
     atom  126 type  1   force =    -0.42450239    0.94527724   -0.55499861
     atom  127 type  1   force =    -0.42451517    0.94528718   -0.55501017
     atom  128 type  1   force =    -0.42450100    0.94527183   -0.55499677
     atom  129 type  1   force =     1.90173124    0.92020142   -0.83653535
     atom  130 type  1   force =     1.90170036    0.92017472   -0.83650180
     atom  131 type  1   force =     1.90169417    0.92018209   -0.83651082
     atom  132 type  1   force =     1.90170169    0.92018757   -0.83651494
     atom  133 type  1   force =     1.90169707    0.92016011   -0.83649899
     atom  134 type  1   force =     1.90170336    0.92018613   -0.83651401
     atom  135 type  1   force =     1.90169530    0.92018830   -0.83651297
     atom  136 type  1   force =     1.90170418    0.92018533   -0.83651448
     atom  137 type  2   force =    -0.20916273    0.04486547    0.00801874
     atom  138 type  2   force =    -0.20919144    0.04488036    0.00803085
     atom  139 type  2   force =    -0.20917362    0.04486702    0.00802087
     atom  140 type  2   force =    -0.20917782    0.04486435    0.00801949
     atom  141 type  2   force =    -0.20909472    0.04493644    0.00803566
     atom  142 type  2   force =    -0.20916957    0.04486505    0.00801987
     atom  143 type  2   force =    -0.20917914    0.04486837    0.00801702
     atom  144 type  2   force =    -0.20916831    0.04486257    0.00801965
     atom  145 type  2   force =    -0.18056672    0.00954849    0.01137977
     atom  146 type  2   force =    -0.18060429    0.00953899    0.01140067
     atom  147 type  2   force =    -0.18058065    0.00954363    0.01138335
     atom  148 type  2   force =    -0.18058375    0.00954519    0.01138297
     atom  149 type  2   force =    -0.18049995    0.00951740    0.01140060
     atom  150 type  2   force =    -0.18057489    0.00954391    0.01138270
     atom  151 type  2   force =    -0.18058659    0.00954748    0.01138125
     atom  152 type  2   force =    -0.18057418    0.00954321    0.01138324
     atom  153 type  2   force =    -0.03847266   -0.04899366   -0.02152544
     atom  154 type  2   force =    -0.03833496   -0.04943683   -0.02159071
     atom  155 type  2   force =    -0.03834505   -0.04942534   -0.02159091
     atom  156 type  2   force =    -0.03833452   -0.04943711   -0.02159066
     atom  157 type  2   force =    -0.03833431   -0.04943003   -0.02159114
     atom  158 type  2   force =    -0.03834128   -0.04942767   -0.02158480
     atom  159 type  2   force =    -0.03833870   -0.04942984   -0.02158843
     atom  160 type  2   force =    -0.03834026   -0.04943841   -0.02159051
     atom  161 type  3   force =     0.02448682   -0.07094178   -0.00853666
     atom  162 type  3   force =     0.02448918   -0.07095377   -0.00853851
     atom  163 type  3   force =     0.02448899   -0.07095345   -0.00853851
     atom  164 type  3   force =     0.02448917   -0.07095376   -0.00853851
     atom  165 type  3   force =     0.02448919   -0.07095358   -0.00853853
     atom  166 type  3   force =     0.02448907   -0.07095358   -0.00853843
     atom  167 type  3   force =     0.02448915   -0.07095358   -0.00853845
     atom  168 type  3   force =     0.02448908   -0.07095379   -0.00853857
     atom  169 type  2   force =    -0.19565308   -0.10406682   -0.02183595
     atom  170 type  2   force =    -0.19562759   -0.10407737   -0.02183136
     atom  171 type  2   force =    -0.19567777   -0.10402516   -0.02183197
     atom  172 type  2   force =    -0.19563806   -0.10406966   -0.02183329
     atom  173 type  2   force =    -0.19565038   -0.10406552   -0.02183086
     atom  174 type  2   force =    -0.19564839   -0.10406949   -0.02183219
     atom  175 type  2   force =    -0.19564238   -0.10406804   -0.02183151
     atom  176 type  2   force =    -0.19563986   -0.10406633   -0.02183237
     atom  177 type  3   force =    -0.07447334    0.02094776   -0.00102161
     atom  178 type  3   force =    -0.07447294    0.02094727   -0.00102134
     atom  179 type  3   force =    -0.07447362    0.02094827   -0.00102127
     atom  180 type  3   force =    -0.07447300    0.02094777   -0.00102154
     atom  181 type  3   force =    -0.07447329    0.02094778   -0.00102122
     atom  182 type  3   force =    -0.07447323    0.02094779   -0.00102134
     atom  183 type  3   force =    -0.07447310    0.02094775   -0.00102135
     atom  184 type  3   force =    -0.07447311    0.02094775   -0.00102124
     atom  185 type  1   force =    -0.46057847   -0.90168646    0.60852392
     atom  186 type  1   force =    -0.46060561   -0.90172238    0.60856200
     atom  187 type  1   force =    -0.46059921   -0.90170933    0.60854536
     atom  188 type  1   force =    -0.46059942   -0.90171029    0.60853442
     atom  189 type  1   force =    -0.46064727   -0.90193801    0.60865035
     atom  190 type  1   force =    -0.46059332   -0.90171054    0.60853979
     atom  191 type  1   force =    -0.46059494   -0.90169077    0.60852978
     atom  192 type  1   force =    -0.46059256   -0.90170929    0.60854222
     atom  193 type  1   force =     1.81427560   -1.18901139    0.50398489
     atom  194 type  1   force =     1.81428352   -1.18903549    0.50400361
     atom  195 type  1   force =     1.81426826   -1.18901794    0.50398855
     atom  196 type  1   force =     1.81426621   -1.18901798    0.50398246
     atom  197 type  1   force =     1.81425303   -1.18902914    0.50401069
     atom  198 type  1   force =     1.81427726   -1.18902341    0.50398865
     atom  199 type  1   force =     1.81426669   -1.18901338    0.50398485
     atom  200 type  1   force =     1.81427844   -1.18902343    0.50399059
     atom  201 type  2   force =     0.12229161   -0.00072308    0.01060839
     atom  202 type  2   force =     0.12231972   -0.00066149    0.01061026
     atom  203 type  2   force =     0.12228667   -0.00072145    0.01060859
     atom  204 type  2   force =     0.12228443   -0.00072351    0.01060768
     atom  205 type  2   force =     0.12229772   -0.00067978    0.01062159
     atom  206 type  2   force =     0.12229172   -0.00072058    0.01060889
     atom  207 type  2   force =     0.12228310   -0.00072295    0.01060556
     atom  208 type  2   force =     0.12229516   -0.00072240    0.01060852
     atom  209 type  3   force =     0.04392412    0.06010585    0.00989220
     atom  210 type  3   force =     0.04392356    0.06010716    0.00989081
     atom  211 type  3   force =     0.04392399    0.06010589    0.00989229
     atom  212 type  3   force =     0.04392393    0.06010586    0.00989223
     atom  213 type  3   force =     0.04392432    0.06010656    0.00989248
     atom  214 type  3   force =     0.04392409    0.06010594    0.00989225
     atom  215 type  3   force =     0.04392392    0.06010582    0.00989213
     atom  216 type  3   force =     0.04392413    0.06010589    0.00989232
     atom  217 type  1   force =    -0.67099230    1.73657295    0.15449670
     atom  218 type  1   force =    -0.67098652    1.73657393    0.15450893
     atom  219 type  1   force =    -0.67099978    1.73657969    0.15449867
     atom  220 type  1   force =    -0.67100080    1.73657841    0.15449759
     atom  221 type  1   force =    -0.67100561    1.73662218    0.15450237
     atom  222 type  1   force =    -0.67099217    1.73657744    0.15449634
     atom  223 type  1   force =    -0.67100184    1.73657716    0.15449099
     atom  224 type  1   force =    -0.67098154    1.73655834    0.15449792
     atom  225 type  2   force =     0.02521694   -0.04108509   -0.00104571
     atom  226 type  2   force =     0.02521811   -0.04109352   -0.00104339
     atom  227 type  2   force =     0.02519743   -0.04110800   -0.00102834
     atom  228 type  2   force =     0.02521752   -0.04109442   -0.00104428
     atom  229 type  2   force =     0.02526971   -0.04106366   -0.00104019
     atom  230 type  2   force =     0.02521658   -0.04109740   -0.00104626
     atom  231 type  2   force =     0.02522058   -0.04108640   -0.00104455
     atom  232 type  2   force =     0.02521725   -0.04108671   -0.00104317
     atom  233 type  3   force =    -0.05071374   -0.05410615   -0.00605723
     atom  234 type  3   force =    -0.05071361   -0.05410636   -0.00605705
     atom  235 type  3   force =    -0.05071456   -0.05410624   -0.00605672
     atom  236 type  3   force =    -0.05071353   -0.05410630   -0.00605712
     atom  237 type  3   force =    -0.05071355   -0.05410592   -0.00605694
     atom  238 type  3   force =    -0.05071367   -0.05410638   -0.00605707
     atom  239 type  3   force =    -0.05071350   -0.05410613   -0.00605704
     atom  240 type  3   force =    -0.05071356   -0.05410616   -0.00605701
     atom  241 type  1   force =    -0.94519942   -0.42452314    0.55496056
     atom  242 type  1   force =    -0.94534438   -0.42451783    0.55504754
     atom  243 type  1   force =    -0.94527665   -0.42450004    0.55499738
     atom  244 type  1   force =    -0.94527065   -0.42450370    0.55499465
     atom  245 type  1   force =    -0.94526769   -0.42450034    0.55499596
     atom  246 type  1   force =    -0.94527296   -0.42449799    0.55499738
     atom  247 type  1   force =    -0.94529702   -0.42450686    0.55500571
     atom  248 type  1   force =    -0.94527600   -0.42450832    0.55499912
     atom  249 type  1   force =    -0.92014135    1.90164855    0.83648154
     atom  250 type  1   force =    -0.92018403    1.90170160    0.83651828
     atom  251 type  1   force =    -0.92018623    1.90170523    0.83651439
     atom  252 type  1   force =    -0.92018399    1.90170038    0.83651207
     atom  253 type  1   force =    -0.92018287    1.90170165    0.83651218
     atom  254 type  1   force =    -0.92019227    1.90171487    0.83651890
     atom  255 type  1   force =    -0.92018938    1.90170283    0.83651551
     atom  256 type  1   force =    -0.92018703    1.90169999    0.83651511
     atom  257 type  2   force =    -0.04482115   -0.20918683   -0.00813954
     atom  258 type  2   force =    -0.04486445   -0.20917179   -0.00802215
     atom  259 type  2   force =    -0.04486981   -0.20916745   -0.00802144
     atom  260 type  2   force =    -0.04486610   -0.20917476   -0.00802122
     atom  261 type  2   force =    -0.04486308   -0.20916835   -0.00801929
     atom  262 type  2   force =    -0.04486493   -0.20917137   -0.00801993
     atom  263 type  2   force =    -0.04486615   -0.20916924   -0.00801882
     atom  264 type  2   force =    -0.04486721   -0.20917743   -0.00802159
     atom  265 type  2   force =    -0.00953139   -0.18061816   -0.01141618
     atom  266 type  2   force =    -0.00955125   -0.18057386   -0.01137654
     atom  267 type  2   force =    -0.00954364   -0.18057347   -0.01138251
     atom  268 type  2   force =    -0.00954332   -0.18058067   -0.01138379
     atom  269 type  2   force =    -0.00954186   -0.18057412   -0.01138383
     atom  270 type  2   force =    -0.00954490   -0.18057646   -0.01138200
     atom  271 type  2   force =    -0.00954574   -0.18057406   -0.01138029
     atom  272 type  2   force =    -0.00954499   -0.18058467   -0.01138265
     atom  273 type  2   force =     0.04948081   -0.03827164    0.02147671
     atom  274 type  2   force =     0.04943367   -0.03833988    0.02158700
     atom  275 type  2   force =     0.04942497   -0.03833576    0.02158743
     atom  276 type  2   force =     0.04943305   -0.03834025    0.02158861
     atom  277 type  2   force =     0.04943551   -0.03833497    0.02158995
     atom  278 type  2   force =     0.04943255   -0.03834021    0.02159000
     atom  279 type  2   force =     0.04943474   -0.03833591    0.02159105
     atom  280 type  2   force =     0.04943108   -0.03834145    0.02158812
     atom  281 type  3   force =     0.07095465    0.02449056    0.00853630
     atom  282 type  3   force =     0.07095368    0.02448908    0.00853838
     atom  283 type  3   force =     0.07095346    0.02448922    0.00853833
     atom  284 type  3   force =     0.07095367    0.02448909    0.00853846
     atom  285 type  3   force =     0.07095372    0.02448919    0.00853846
     atom  286 type  3   force =     0.07095366    0.02448908    0.00853850
     atom  287 type  3   force =     0.07095373    0.02448916    0.00853853
     atom  288 type  3   force =     0.07095360    0.02448905    0.00853847
     atom  289 type  2   force =     0.10408900   -0.19560196    0.02183401
     atom  290 type  2   force =     0.10406920   -0.19564813    0.02183110
     atom  291 type  2   force =     0.10406285   -0.19564623    0.02183140
     atom  292 type  2   force =     0.10406644   -0.19565132    0.02183178
     atom  293 type  2   force =     0.10407138   -0.19564068    0.02183202
     atom  294 type  2   force =     0.10406850   -0.19565040    0.02183354
     atom  295 type  2   force =     0.10406948   -0.19564226    0.02183138
     atom  296 type  2   force =     0.10406734   -0.19564838    0.02183130
     atom  297 type  3   force =    -0.02094740   -0.07447222    0.00102139
     atom  298 type  3   force =    -0.02094775   -0.07447323    0.00102127
     atom  299 type  3   force =    -0.02094785   -0.07447319    0.00102129
     atom  300 type  3   force =    -0.02094788   -0.07447326    0.00102132
     atom  301 type  3   force =    -0.02094767   -0.07447312    0.00102140
     atom  302 type  3   force =    -0.02094769   -0.07447335    0.00102156
     atom  303 type  3   force =    -0.02094773   -0.07447311    0.00102137
     atom  304 type  3   force =    -0.02094780   -0.07447323    0.00102123
     atom  305 type  1   force =     0.90190002   -0.46069392   -0.60862218
     atom  306 type  1   force =     0.90169688   -0.46059543   -0.60854084
     atom  307 type  1   force =     0.90170401   -0.46058925   -0.60854208
     atom  308 type  1   force =     0.90170853   -0.46059571   -0.60854092
     atom  309 type  1   force =     0.90171445   -0.46059356   -0.60854724
     atom  310 type  1   force =     0.90169759   -0.46058677   -0.60853198
     atom  311 type  1   force =     0.90170268   -0.46059158   -0.60853303
     atom  312 type  1   force =     0.90170147   -0.46059823   -0.60854057
     atom  313 type  1   force =     1.18903697    1.81418626   -0.50398145
     atom  314 type  1   force =     1.18901585    1.81426880   -0.50398346
     atom  315 type  1   force =     1.18902331    1.81428033   -0.50399078
     atom  316 type  1   force =     1.18902325    1.81427536   -0.50398931
     atom  317 type  1   force =     1.18902536    1.81427924   -0.50399169
     atom  318 type  1   force =     1.18902241    1.81428108   -0.50398913
     atom  319 type  1   force =     1.18901755    1.81427292   -0.50398579
     atom  320 type  1   force =     1.18901016    1.81426111   -0.50398590
     atom  321 type  2   force =     0.00077470    0.12228565   -0.01063163
     atom  322 type  2   force =     0.00072435    0.12228571   -0.01060945
     atom  323 type  2   force =     0.00071711    0.12229135   -0.01060985
     atom  324 type  2   force =     0.00072228    0.12228503   -0.01060922
     atom  325 type  2   force =     0.00072553    0.12229068   -0.01060790
     atom  326 type  2   force =     0.00072245    0.12228765   -0.01060879
     atom  327 type  2   force =     0.00071485    0.12229560   -0.01060725
     atom  328 type  2   force =     0.00072040    0.12228573   -0.01060941
     atom  329 type  3   force =    -0.06010459    0.04392367   -0.00989218
     atom  330 type  3   force =    -0.06010578    0.04392397   -0.00989235
     atom  331 type  3   force =    -0.06010600    0.04392410   -0.00989234
     atom  332 type  3   force =    -0.06010587    0.04392395   -0.00989231
     atom  333 type  3   force =    -0.06010577    0.04392409   -0.00989230
     atom  334 type  3   force =    -0.06010586    0.04392402   -0.00989227
     atom  335 type  3   force =    -0.06010617    0.04392423   -0.00989190
     atom  336 type  3   force =    -0.06010590    0.04392396   -0.00989238
     atom  337 type  1   force =    -1.73650329   -0.67095520   -0.15448168
     atom  338 type  1   force =    -1.73657528   -0.67099924   -0.15450032
     atom  339 type  1   force =    -1.73658582   -0.67099655   -0.15449913
     atom  340 type  1   force =    -1.73658508   -0.67100322   -0.15449900
     atom  341 type  1   force =    -1.73655712   -0.67098850   -0.15449504
     atom  342 type  1   force =    -1.73657495   -0.67099815   -0.15449593
     atom  343 type  1   force =    -1.73657221   -0.67099050   -0.15449218
     atom  344 type  1   force =    -1.73658208   -0.67100067   -0.15450038
     atom  345 type  2   force =     0.04107827    0.02522651    0.00105180
     atom  346 type  2   force =     0.04109227    0.02521694    0.00104089
     atom  347 type  2   force =     0.04108099    0.02522377    0.00100607
     atom  348 type  2   force =     0.04109196    0.02521526    0.00104379
     atom  349 type  2   force =     0.04109275    0.02521850    0.00104139
     atom  350 type  2   force =     0.04109311    0.02520141    0.00104343
     atom  351 type  2   force =     0.04109809    0.02522034    0.00104371
     atom  352 type  2   force =     0.04108982    0.02521965    0.00104258
     atom  353 type  3   force =     0.05410528   -0.05071246    0.00605711
     atom  354 type  3   force =     0.05410631   -0.05071367    0.00605698
     atom  355 type  3   force =     0.05410581   -0.05071344    0.00605689
     atom  356 type  3   force =     0.05410625   -0.05071364    0.00605703
     atom  357 type  3   force =     0.05410624   -0.05071350    0.00605693
     atom  358 type  3   force =     0.05410638   -0.05071378    0.00605712
     atom  359 type  3   force =     0.05410629   -0.05071358    0.00605705
     atom  360 type  3   force =     0.05410622   -0.05071362    0.00605699
     atom  361 type  1   force =     0.94530577    0.42450478    0.55500695
     atom  362 type  1   force =     0.94530466    0.42450021    0.55502838
     atom  363 type  1   force =     0.94526801    0.42450413    0.55499397
     atom  364 type  1   force =     0.94527181    0.42450040    0.55499551
     atom  365 type  1   force =     0.94528229    0.42451395    0.55499879
     atom  366 type  1   force =     0.94527458    0.42450571    0.55499767
     atom  367 type  1   force =     0.94517433    0.42447127    0.55494804
     atom  368 type  1   force =     0.94527054    0.42450003    0.55499410
     atom  369 type  1   force =     0.92018211   -1.90169767    0.83651175
     atom  370 type  1   force =     0.92018674   -1.90170629    0.83651453
     atom  371 type  1   force =     0.92019931   -1.90171452    0.83652016
     atom  372 type  1   force =     0.92019273   -1.90170985    0.83651808
     atom  373 type  1   force =     0.92011692   -1.90166724    0.83647509
     atom  374 type  1   force =     0.92018422   -1.90170362    0.83651263
     atom  375 type  1   force =     0.92017631   -1.90168092    0.83650210
     atom  376 type  1   force =     0.92018525   -1.90170009    0.83651276
     atom  377 type  2   force =     0.04486570    0.20917425   -0.00802222
     atom  378 type  2   force =     0.04486326    0.20917202   -0.00801908
     atom  379 type  2   force =     0.04486752    0.20916765   -0.00801912
     atom  380 type  2   force =     0.04485934    0.20913357   -0.00806333
     atom  381 type  2   force =     0.04485448    0.20914081   -0.00801971
     atom  382 type  2   force =     0.04486652    0.20917056   -0.00802138
     atom  383 type  2   force =     0.04486654    0.20917867   -0.00802167
     atom  384 type  2   force =     0.04486931    0.20917683   -0.00802083
     atom  385 type  2   force =     0.00954293    0.18058099   -0.01138422
     atom  386 type  2   force =     0.00954334    0.18057671   -0.01138299
     atom  387 type  2   force =     0.00954792    0.18057201   -0.01137834
     atom  388 type  2   force =     0.00954267    0.18053771   -0.01138223
     atom  389 type  2   force =     0.00949212    0.18053241   -0.01140464
     atom  390 type  2   force =     0.00954256    0.18057604   -0.01138373
     atom  391 type  2   force =     0.00954329    0.18058590   -0.01138392
     atom  392 type  2   force =     0.00954431    0.18058311   -0.01138296
     atom  393 type  2   force =    -0.04943281    0.03833886    0.02158745
     atom  394 type  2   force =    -0.04943845    0.03834019    0.02159245
     atom  395 type  2   force =    -0.04943128    0.03833609    0.02159044
     atom  396 type  2   force =    -0.04945375    0.03832307    0.02156103
     atom  397 type  2   force =    -0.04944190    0.03832023    0.02159200
     atom  398 type  2   force =    -0.04942912    0.03833919    0.02158708
     atom  399 type  2   force =    -0.04943449    0.03834071    0.02158792
     atom  400 type  2   force =    -0.04942835    0.03834233    0.02158879
     atom  401 type  3   force =    -0.07095364   -0.02448911    0.00853841
     atom  402 type  3   force =    -0.07095382   -0.02448906    0.00853857
     atom  403 type  3   force =    -0.07095364   -0.02448915    0.00853850
     atom  404 type  3   force =    -0.07095419   -0.02448944    0.00853827
     atom  405 type  3   force =    -0.07095386   -0.02448967    0.00853836
     atom  406 type  3   force =    -0.07095356   -0.02448912    0.00853831
     atom  407 type  3   force =    -0.07095370   -0.02448907    0.00853843
     atom  408 type  3   force =    -0.07095355   -0.02448906    0.00853847
     atom  409 type  2   force =    -0.10407028    0.19564917    0.02183576
     atom  410 type  2   force =    -0.10406845    0.19564497    0.02183081
     atom  411 type  2   force =    -0.10405198    0.19565706    0.02181416
     atom  412 type  2   force =    -0.10406785    0.19564291    0.02183120
     atom  413 type  2   force =    -0.10406733    0.19564795    0.02183147
     atom  414 type  2   force =    -0.10407304    0.19563271    0.02183040
     atom  415 type  2   force =    -0.10406086    0.19565787    0.02183274
     atom  416 type  2   force =    -0.10406878    0.19564529    0.02183168
     atom  417 type  3   force =     0.02094767    0.07447335    0.00102172
     atom  418 type  3   force =     0.02094777    0.07447316    0.00102123
     atom  419 type  3   force =     0.02094814    0.07447344    0.00102080
     atom  420 type  3   force =     0.02094776    0.07447312    0.00102136
     atom  421 type  3   force =     0.02094776    0.07447324    0.00102129
     atom  422 type  3   force =     0.02094766    0.07447284    0.00102134
     atom  423 type  3   force =     0.02094815    0.07447334    0.00102140
     atom  424 type  3   force =     0.02094778    0.07447316    0.00102128
     atom  425 type  1   force =    -0.90171045    0.46059806   -0.60854624
     atom  426 type  1   force =    -0.90170618    0.46059070   -0.60853652
     atom  427 type  1   force =    -0.90169461    0.46058715   -0.60852558
     atom  428 type  1   force =    -0.90172148    0.46057740   -0.60854575
     atom  429 type  1   force =    -0.90194803    0.46062084   -0.60871157
     atom  430 type  1   force =    -0.90170961    0.46059217   -0.60854578
     atom  431 type  1   force =    -0.90171493    0.46060556   -0.60854838
     atom  432 type  1   force =    -0.90170175    0.46059486   -0.60853718
     atom  433 type  1   force =    -1.18902126   -1.81427174   -0.50398935
     atom  434 type  1   force =    -1.18902437   -1.81428041   -0.50399031
     atom  435 type  1   force =    -1.18901171   -1.81426927   -0.50398086
     atom  436 type  1   force =    -1.18902442   -1.81428942   -0.50399315
     atom  437 type  1   force =    -1.18910006   -1.81434475   -0.50404144
     atom  438 type  1   force =    -1.18902461   -1.81427979   -0.50399182
     atom  439 type  1   force =    -1.18901805   -1.81426390   -0.50398762
     atom  440 type  1   force =    -1.18902007   -1.81427292   -0.50398811
     atom  441 type  2   force =    -0.00072240   -0.12228698   -0.01060966
     atom  442 type  2   force =    -0.00072232   -0.12228827   -0.01060860
     atom  443 type  2   force =    -0.00071424   -0.12229562   -0.01060699
     atom  444 type  2   force =    -0.00068000   -0.12230860   -0.01065194
     atom  445 type  2   force =    -0.00073740   -0.12229399   -0.01060787
     atom  446 type  2   force =    -0.00072151   -0.12228805   -0.01060915
     atom  447 type  2   force =    -0.00071949   -0.12228703   -0.01060909
     atom  448 type  2   force =    -0.00072072   -0.12228165   -0.01060908
     atom  449 type  3   force =     0.06010618   -0.04392426   -0.00989189
     atom  450 type  3   force =     0.06010692   -0.04392469   -0.00989167
     atom  451 type  3   force =     0.06010585   -0.04392398   -0.00989239
     atom  452 type  3   force =     0.06010588   -0.04392403   -0.00989226
     atom  453 type  3   force =     0.06010594   -0.04392398   -0.00989234
     atom  454 type  3   force =     0.06010590   -0.04392389   -0.00989227
     atom  455 type  3   force =     0.06010552   -0.04392406   -0.00989219
     atom  456 type  3   force =     0.06010587   -0.04392404   -0.00989232
     atom  457 type  1   force =     1.73657531    0.67099094   -0.15449364
     atom  458 type  1   force =     1.73665372    0.67101064   -0.15452590
     atom  459 type  1   force =     1.73657760    0.67099750   -0.15450047
     atom  460 type  1   force =     1.73657500    0.67099767   -0.15449347
     atom  461 type  1   force =     1.73658074    0.67099853   -0.15449950
     atom  462 type  1   force =     1.73660321    0.67101222   -0.15449784
     atom  463 type  1   force =     1.73655598    0.67098385   -0.15449643
     atom  464 type  1   force =     1.73657675    0.67099749   -0.15449840
     atom  465 type  2   force =    -0.04110526   -0.02516493    0.00103344
     atom  466 type  2   force =    -0.04108895   -0.02522015    0.00104138
     atom  467 type  2   force =    -0.04110387   -0.02521062    0.00104038
     atom  468 type  2   force =    -0.04109190   -0.02521990    0.00104285
     atom  469 type  2   force =    -0.04109013   -0.02521304    0.00104184
     atom  470 type  2   force =    -0.04108662   -0.02522230    0.00104586
     atom  471 type  2   force =    -0.04108908   -0.02521616    0.00104432
     atom  472 type  2   force =    -0.04109228   -0.02521972    0.00104192
     atom  473 type  3   force =    -0.05410670    0.05071394    0.00605741
     atom  474 type  3   force =    -0.05410620    0.05071357    0.00605696
     atom  475 type  3   force =    -0.05410658    0.05071377    0.00605649
     atom  476 type  3   force =    -0.05410621    0.05071356    0.00605703
     atom  477 type  3   force =    -0.05410619    0.05071365    0.00605696
     atom  478 type  3   force =    -0.05410608    0.05071332    0.00605704
     atom  479 type  3   force =    -0.05410614    0.05071360    0.00605706
     atom  480 type  3   force =    -0.05410629    0.05071362    0.00605701
     atom  481 type  4   force =     0.00011438   -0.00001220   -0.00006462
     atom  482 type  4   force =    -0.00010038    0.00034569   -0.00051284
     atom  483 type  4   force =    -0.00001081    0.00000225   -0.00000775
     atom  484 type  4   force =    -0.00000175    0.00000499   -0.00001157
     atom  485 type  4   force =     0.00003093   -0.00001196    0.00001291
     atom  486 type  4   force =     0.00000200    0.00001074   -0.00000288
     atom  487 type  4   force =    -0.00011723   -0.00002247   -0.00007474
     atom  488 type  4   force =    -0.00000558   -0.00000582   -0.00000517
     atom  489 type  4   force =    -0.00031995   -0.00225232   -0.00056929
     atom  490 type  4   force =    -0.00000705   -0.00001960   -0.00001589
     atom  491 type  4   force =    -0.00001267    0.00002787   -0.00002349
     atom  492 type  4   force =     0.00000794   -0.00000413    0.00000399
     atom  493 type  4   force =     0.00000936    0.00003099   -0.00003286
     atom  494 type  4   force =    -0.00001702   -0.00002193    0.00002452
     atom  495 type  4   force =     0.00001074    0.00000469    0.00003124
     atom  496 type  4   force =    -0.00002943   -0.00003167   -0.00003144
     The ionic contribution  to forces
     atom    1 type  1   force =    -0.12021032   -1.15096517   -2.54619017
     atom    2 type  1   force =    -0.12332297   -1.16399377   -2.53870441
     atom    3 type  1   force =    -0.12033219   -1.15057857   -2.54604597
     atom    4 type  1   force =    -0.12059751   -1.15051596   -2.54613666
     atom    5 type  1   force =    -0.12040123   -1.15024612   -2.54590411
     atom    6 type  1   force =    -0.12010466   -1.15032760   -2.54632618
     atom    7 type  1   force =    -0.12041049   -1.15068599   -2.54583550
     atom    8 type  1   force =    -0.12006896   -1.15067133   -2.54586327
     atom    9 type  1   force =    14.23859711    1.61826300    2.06890952
     atom   10 type  1   force =    14.27360914    1.63947684    2.01241584
     atom   11 type  1   force =    14.27321556    1.63986586    2.01244441
     atom   12 type  1   force =    14.27350862    1.63979744    2.01248467
     atom   13 type  1   force =    14.27375311    1.64003851    2.01217571
     atom   14 type  1   force =    14.27337456    1.64007135    2.01264950
     atom   15 type  1   force =    14.27373315    1.63967430    2.01264820
     atom   16 type  1   force =    14.27338151    1.63966992    2.01272542
     atom   17 type  2   force =    -2.68570450   -1.12363491   -0.87653062
     atom   18 type  2   force =    -2.68734670   -1.12188658   -0.87830395
     atom   19 type  2   force =    -2.68751761   -1.12148019   -0.87846665
     atom   20 type  2   force =    -2.68735244   -1.12159663   -0.87822480
     atom   21 type  2   force =    -2.68725642   -1.12141245   -0.87847431
     atom   22 type  2   force =    -2.68735118   -1.12145743   -0.87816294
     atom   23 type  2   force =    -2.68685737   -1.12174220   -0.87797087
     atom   24 type  2   force =    -2.68739100   -1.12173607   -0.87813695
     atom   25 type  2   force =    -5.24944929   -0.27042090   -0.95881993
     atom   26 type  2   force =    -5.25563566   -0.26055014   -0.96598784
     atom   27 type  2   force =    -5.25589999   -0.26019776   -0.96603772
     atom   28 type  2   force =    -5.25568089   -0.26027846   -0.96591810
     atom   29 type  2   force =    -5.25551494   -0.26006991   -0.96617434
     atom   30 type  2   force =    -5.25573085   -0.26009116   -0.96581336
     atom   31 type  2   force =    -5.25540043   -0.26038462   -0.96575225
     atom   32 type  2   force =    -5.25574827   -0.26038178   -0.96577400
     atom   33 type  2   force =    -3.27856958   -5.22843337    2.50171435
     atom   34 type  2   force =    -3.27859817   -5.22857047    2.50207824
     atom   35 type  2   force =    -3.27799736   -5.22900841    2.50246236
     atom   36 type  2   force =    -3.27863292   -5.22884310    2.50207256
     atom   37 type  2   force =    -3.27688406   -5.22925543    2.50289568
     atom   38 type  2   force =    -3.27859832   -5.22886881    2.50204344
     atom   39 type  2   force =    -3.27865382   -5.22850348    2.50182581
     atom   40 type  2   force =    -3.27857203   -5.22859822    2.50205479
     atom   41 type  3   force =    -0.74071897   -2.14433514    1.26058071
     atom   42 type  3   force =    -0.74074048   -2.14437772    1.26070782
     atom   43 type  3   force =    -0.74064897   -2.14448189    1.26077563
     atom   44 type  3   force =    -0.74074838   -2.14444615    1.26069328
     atom   45 type  3   force =    -0.74014084   -2.14435318    1.26090519
     atom   46 type  3   force =    -0.74072437   -2.14443604    1.26069716
     atom   47 type  3   force =    -0.74074234   -2.14436554    1.26066011
     atom   48 type  3   force =    -0.74071708   -2.14437624    1.26069824
     atom   49 type  2   force =    -6.17638226   -1.54828444    0.63315440
     atom   50 type  2   force =    -6.17625994   -1.54833659    0.63330344
     atom   51 type  2   force =    -6.17423203   -1.54824895    0.63440824
     atom   52 type  2   force =    -6.17628616   -1.54857540    0.63329904
     atom   53 type  2   force =    -6.17596167   -1.54877981    0.63358587
     atom   54 type  2   force =    -6.17641989   -1.54864966    0.63329095
     atom   55 type  2   force =    -6.17627479   -1.54821902    0.63287664
     atom   56 type  2   force =    -6.17637675   -1.54834523    0.63335253
     atom   57 type  3   force =    -1.97455631    0.04605113    0.18328133
     atom   58 type  3   force =    -1.97451257    0.04604042    0.18330266
     atom   59 type  3   force =    -1.97352925    0.04640254    0.18388474
     atom   60 type  3   force =    -1.97451228    0.04598523    0.18329772
     atom   61 type  3   force =    -1.97446698    0.04597043    0.18334758
     atom   62 type  3   force =    -1.97455975    0.04597788    0.18331484
     atom   63 type  3   force =    -1.97449422    0.04607492    0.18319734
     atom   64 type  3   force =    -1.97455196    0.04605492    0.18332614
     atom   65 type  1   force =    -0.83420268    0.55871048    2.04644296
     atom   66 type  1   force =    -0.87348069    0.57372747    1.98632849
     atom   67 type  1   force =    -0.87384454    0.57411781    1.98629771
     atom   68 type  1   force =    -0.87354461    0.57402535    1.98637175
     atom   69 type  1   force =    -0.87331441    0.57427099    1.98603671
     atom   70 type  1   force =    -0.87367072    0.57424135    1.98652809
     atom   71 type  1   force =    -0.87327418    0.57387421    1.98654535
     atom   72 type  1   force =    -0.87367758    0.57388182    1.98659221
     atom   73 type  1   force =    14.16924300   -5.26397277   -0.06744574
     atom   74 type  1   force =    14.19237254   -5.31495392    0.05300803
     atom   75 type  1   force =    14.19199435   -5.31457572    0.05300803
     atom   76 type  1   force =    14.19229549   -5.31465278    0.05305980
     atom   77 type  1   force =    14.19255855   -5.31438972    0.05272983
     atom   78 type  1   force =    14.19217458   -5.31441067    0.05322457
     atom   79 type  1   force =    14.19253759   -5.31477368    0.05322457
     atom   80 type  1   force =    14.19218035   -5.31476792    0.05328623
     atom   81 type  2   force =    -0.21529737    2.77086905   -3.53080079
     atom   82 type  2   force =    -0.21539581    2.77156330   -3.53183417
     atom   83 type  2   force =    -0.21556333    2.77198410   -3.53203848
     atom   84 type  2   force =    -0.21539782    2.77185721   -3.53162898
     atom   85 type  2   force =    -0.21529446    2.77200293   -3.53181356
     atom   86 type  2   force =    -0.21531015    2.77206651   -3.53157381
     atom   87 type  2   force =    -0.21475517    2.77190978   -3.53139099
     atom   88 type  2   force =    -0.21538270    2.77177683   -3.53158225
     atom   89 type  3   force =     0.26884277    1.65176797   -1.78774656
     atom   90 type  3   force =     0.26868723    1.65166673   -1.78745762
     atom   91 type  3   force =     0.26883243    1.65182747   -1.78766933
     atom   92 type  3   force =     0.26876610    1.65184766   -1.78776768
     atom   93 type  3   force =     0.26885667    1.65191343   -1.78764003
     atom   94 type  3   force =     0.26886662    1.65186223   -1.78771185
     atom   95 type  3   force =     0.26883031    1.65182451   -1.78765736
     atom   96 type  3   force =     0.26894238    1.65185642   -1.78763825
     atom   97 type  1   force =    -5.25706665    6.86242918   -1.77974840
     atom   98 type  1   force =    -5.25674703    6.86218067   -1.77907992
     atom   99 type  1   force =    -5.25702135    6.86280167   -1.77948354
     atom  100 type  1   force =    -5.25702296    6.86296198   -1.78019252
     atom  101 type  1   force =    -5.25681684    6.86297289   -1.77949759
     atom  102 type  1   force =    -5.25692547    6.86292380   -1.77969869
     atom  103 type  1   force =    -5.25690469    6.86266397   -1.77952297
     atom  104 type  1   force =    -5.25562651    6.86316177   -1.77896467
     atom  105 type  2   force =     5.12427180    4.86161991    1.83942940
     atom  106 type  2   force =     5.12458522    4.86159949    1.83972033
     atom  107 type  2   force =     5.12366401    4.86149522    1.84049756
     atom  108 type  2   force =     5.12467311    4.86142553    1.83933644
     atom  109 type  2   force =     5.12486549    4.86171651    1.83978524
     atom  110 type  2   force =     5.12453341    4.86162354    1.83976202
     atom  111 type  2   force =     5.12473371    4.86171908    1.83954470
     atom  112 type  2   force =     5.12466969    4.86212205    1.83992493
     atom  113 type  3   force =    -1.67849511   -1.91354466    0.71613227
     atom  114 type  3   force =    -1.67845058   -1.91358088    0.71620022
     atom  115 type  3   force =    -1.67815815   -1.91398373    0.71661461
     atom  116 type  3   force =    -1.67845020   -1.91364770    0.71618324
     atom  117 type  3   force =    -1.67830750   -1.91362097    0.71626124
     atom  118 type  3   force =    -1.67846368   -1.91361896    0.71622266
     atom  119 type  3   force =    -1.67842979   -1.91354065    0.71614059
     atom  120 type  3   force =    -1.67845269   -1.91355041    0.71621619
     atom  121 type  1   force =     0.12072796    1.15042881   -2.54671278
     atom  122 type  1   force =     0.11971377    1.15068572   -2.54526551
     atom  123 type  1   force =     0.12041775    1.15060248   -2.54596610
     atom  124 type  1   force =     0.12014319    1.15058721   -2.54613275
     atom  125 type  1   force =     0.12059618    1.15195898   -2.54573834
     atom  126 type  1   force =     0.12054288    1.15069042   -2.54617005
     atom  127 type  1   force =     0.12028531    1.15060964   -2.54592366
     atom  128 type  1   force =     0.12057730    1.15068943   -2.54591769
     atom  129 type  1   force =   -14.27325887   -1.63989076    2.01162029
     atom  130 type  1   force =   -14.27380330   -1.63982530    2.01293571
     atom  131 type  1   force =   -14.27345495   -1.63982604    2.01264415
     atom  132 type  1   force =   -14.27367708   -1.63984494    2.01229752
     atom  133 type  1   force =   -14.27282670   -1.63858978    2.01281147
     atom  134 type  1   force =   -14.27333491   -1.63969339    2.01245126
     atom  135 type  1   force =   -14.27347615   -1.63971595    2.01257219
     atom  136 type  1   force =   -14.27321059   -1.63959311    2.01265961
     atom  137 type  2   force =     2.68760612    1.12167651   -0.87848500
     atom  138 type  2   force =     2.68712777    1.12243262   -0.87777055
     atom  139 type  2   force =     2.68750658    1.12166967   -0.87818759
     atom  140 type  2   force =     2.68723778    1.12163128   -0.87817828
     atom  141 type  2   force =     2.68662419    1.12284265   -0.87742024
     atom  142 type  2   force =     2.68757777    1.12158390   -0.87849630
     atom  143 type  2   force =     2.68716984    1.12163422   -0.87824058
     atom  144 type  2   force =     2.68745443    1.12165986   -0.87820644
     atom  145 type  2   force =     5.25597176    0.26032717   -0.96630195
     atom  146 type  2   force =     5.25531835    0.26075301   -0.96549034
     atom  147 type  2   force =     5.25581151    0.26029169   -0.96584952
     atom  148 type  2   force =     5.25552885    0.26025687   -0.96590345
     atom  149 type  2   force =     5.25567076    0.26208165   -0.96513452
     atom  150 type  2   force =     5.25588872    0.26028641   -0.96605802
     atom  151 type  2   force =     5.25558381    0.26033338   -0.96587235
     atom  152 type  2   force =     5.25583312    0.26036746   -0.96587297
     atom  153 type  2   force =     3.27664147    5.22978110    2.50351641
     atom  154 type  2   force =     3.27875387    5.22853698    2.50177954
     atom  155 type  2   force =     3.27833527    5.22871255    2.50192681
     atom  156 type  2   force =     3.27864332    5.22870221    2.50204248
     atom  157 type  2   force =     3.27882662    5.22880709    2.50181296
     atom  158 type  2   force =     3.27854851    5.22920032    2.50229306
     atom  159 type  2   force =     3.27881246    5.22872755    2.50210354
     atom  160 type  2   force =     3.27852537    5.22868239    2.50212626
     atom  161 type  3   force =     0.73927140    2.14532656    1.26160975
     atom  162 type  3   force =     0.74076218    2.14435976    1.26065184
     atom  163 type  3   force =     0.74066836    2.14441949    1.26066839
     atom  164 type  3   force =     0.74074125    2.14440984    1.26068959
     atom  165 type  3   force =     0.74079371    2.14444723    1.26062661
     atom  166 type  3   force =     0.74071461    2.14448968    1.26073648
     atom  167 type  3   force =     0.74078798    2.14440330    1.26071228
     atom  168 type  3   force =     0.74071466    2.14439706    1.26072138
     atom  169 type  2   force =     6.17605368    1.54834961    0.63303669
     atom  170 type  2   force =     6.17634801    1.54838308    0.63336915
     atom  171 type  2   force =     6.17591787    1.54848671    0.63365072
     atom  172 type  2   force =     6.17643236    1.54835872    0.63278281
     atom  173 type  2   force =     6.17656219    1.54860140    0.63336605
     atom  174 type  2   force =     6.17629294    1.54849580    0.63332120
     atom  175 type  2   force =     6.17645521    1.54849200    0.63320467
     atom  176 type  2   force =     6.17667134    1.54921683    0.63366735
     atom  177 type  3   force =     1.97447392   -0.04605572    0.18320818
     atom  178 type  3   force =     1.97452483   -0.04604755    0.18333789
     atom  179 type  3   force =     1.97447528   -0.04602935    0.18336114
     atom  180 type  3   force =     1.97452838   -0.04603802    0.18316883
     atom  181 type  3   force =     1.97459880   -0.04595936    0.18333037
     atom  182 type  3   force =     1.97453192   -0.04600278    0.18330407
     atom  183 type  3   force =     1.97455185   -0.04600922    0.18329415
     atom  184 type  3   force =     1.97463911   -0.04588023    0.18337927
     atom  185 type  1   force =     0.87385395   -0.57384675    1.98589539
     atom  186 type  1   force =     0.87329088   -0.57361901    1.98666227
     atom  187 type  1   force =     0.87376505   -0.57408087    1.98651771
     atom  188 type  1   force =     0.87334332   -0.57414573    1.98642736
     atom  189 type  1   force =     0.87456900   -0.57106740    1.98852169
     atom  190 type  1   force =     0.87379584   -0.57407140    1.98629060
     atom  191 type  1   force =     0.87346250   -0.57388010    1.98639988
     atom  192 type  1   force =     0.87374576   -0.57386271    1.98641486
     atom  193 type  1   force =   -14.19208531    5.31478189    0.05240134
     atom  194 type  1   force =   -14.19251977    5.31483079    0.05334563
     atom  195 type  1   force =   -14.19214824    5.31452607    0.05326492
     atom  196 type  1   force =   -14.19251031    5.31448325    0.05293528
     atom  197 type  1   force =   -14.19105441    5.31624728    0.05397556
     atom  198 type  1   force =   -14.19211347    5.31466251    0.05304664
     atom  199 type  1   force =   -14.19230531    5.31479626    0.05308937
     atom  200 type  1   force =   -14.19205233    5.31486979    0.05315575
     atom  201 type  2   force =     0.21556907   -2.77187321   -3.53182619
     atom  202 type  2   force =     0.21524025   -2.76999470   -3.53075654
     atom  203 type  2   force =     0.21549922   -2.77178025   -3.53163765
     atom  204 type  2   force =     0.21524809   -2.77180940   -3.53163879
     atom  205 type  2   force =     0.21501556   -2.77135166   -3.53127550
     atom  206 type  2   force =     0.21563711   -2.77180366   -3.53203563
     atom  207 type  2   force =     0.21520463   -2.77189125   -3.53164675
     atom  208 type  2   force =     0.21549267   -2.77185353   -3.53160744
     atom  209 type  3   force =    -0.26879166   -1.65185600   -1.78771887
     atom  210 type  3   force =    -0.26909754   -1.65093987   -1.78725892
     atom  211 type  3   force =    -0.26881346   -1.65182069   -1.78767663
     atom  212 type  3   force =    -0.26887945   -1.65182185   -1.78768235
     atom  213 type  3   force =    -0.26888007   -1.65172521   -1.78761017
     atom  214 type  3   force =    -0.26876408   -1.65180249   -1.78776155
     atom  215 type  3   force =    -0.26886238   -1.65184113   -1.78765927
     atom  216 type  3   force =    -0.26879388   -1.65183337   -1.78766202
     atom  217 type  1   force =     5.25712071   -6.86277447   -1.77968096
     atom  218 type  1   force =     5.25773636   -6.86067745   -1.77858664
     atom  219 type  1   force =     5.25712595   -6.86261888   -1.77952719
     atom  220 type  1   force =     5.25684468   -6.86267504   -1.77955140
     atom  221 type  1   force =     5.25655493   -6.86248017   -1.77922180
     atom  222 type  1   force =     5.25720325   -6.86269554   -1.78020088
     atom  223 type  1   force =     5.25667707   -6.86288911   -1.77965645
     atom  224 type  1   force =     5.25705179   -6.86283756   -1.77946368
     atom  225 type  2   force =    -5.12464389   -4.86139492    1.83944389
     atom  226 type  2   force =    -5.12454355   -4.86152188    1.83970245
     atom  227 type  2   force =    -5.12321142   -4.86225866    1.84068518
     atom  228 type  2   force =    -5.12456485   -4.86178599    1.83968440
     atom  229 type  2   force =    -5.12384470   -4.86191283    1.84007420
     atom  230 type  2   force =    -5.12461226   -4.86176805    1.83973777
     atom  231 type  2   force =    -5.12453476   -4.86138628    1.83940777
     atom  232 type  2   force =    -5.12457078   -4.86148658    1.83973339
     atom  233 type  3   force =     1.67838528    1.91361744    0.71610722
     atom  234 type  3   force =     1.67845338    1.91359590    0.71620697
     atom  235 type  3   force =     1.67830357    1.91343423    0.71642241
     atom  236 type  3   force =     1.67846316    1.91353763    0.71613258
     atom  237 type  3   force =     1.67856500    1.91362471    0.71623760
     atom  238 type  3   force =     1.67845069    1.91359283    0.71621948
     atom  239 type  3   force =     1.67848764    1.91363064    0.71616443
     atom  240 type  3   force =     1.67847620    1.91367975    0.71623661
     atom  241 type  1   force =    -1.15042666    0.11879903    2.54513575
     atom  242 type  1   force =    -1.15028909    0.11918965    2.54583960
     atom  243 type  1   force =    -1.15071561    0.12043252    2.54588039
     atom  244 type  1   force =    -1.15069008    0.12042919    2.54578796
     atom  245 type  1   force =    -1.15044871    0.12081550    2.54579093
     atom  246 type  1   force =    -1.15055226    0.12073105    2.54579577
     atom  247 type  1   force =    -1.15051388    0.12031069    2.54606565
     atom  248 type  1   force =    -1.15046353    0.12034051    2.54618840
     atom  249 type  1   force =     1.63953239  -14.27450870   -2.01259128
     atom  250 type  1   force =     1.64074529  -14.27464038   -2.01317809
     atom  251 type  1   force =     1.63965401  -14.27338098   -2.01265826
     atom  252 type  1   force =     1.63971399  -14.27337392   -2.01274870
     atom  253 type  1   force =     1.63987149  -14.27317791   -2.01271957
     atom  254 type  1   force =     1.63979735  -14.27288602   -2.01283624
     atom  255 type  1   force =     1.63985698  -14.27350917   -2.01251239
     atom  256 type  1   force =     1.63986877  -14.27354724   -2.01227728
     atom  257 type  2   force =    -1.12050000    2.68597381    0.87286911
     atom  258 type  2   force =    -1.12161790    2.68709160    0.87818822
     atom  259 type  2   force =    -1.12180296    2.68741087    0.87815253
     atom  260 type  2   force =    -1.12166247    2.68738034    0.87807321
     atom  261 type  2   force =    -1.12129355    2.68783927    0.87785622
     atom  262 type  2   force =    -1.12166432    2.68752364    0.87817594
     atom  263 type  2   force =    -1.12152809    2.68732188    0.87823524
     atom  264 type  2   force =    -1.12161062    2.68737519    0.87831741
     atom  265 type  2   force =    -0.26038438    5.25297082    0.96384696
     atom  266 type  2   force =    -0.26016435    5.25524451    0.96579327
     atom  267 type  2   force =    -0.26045256    5.25577683    0.96580106
     atom  268 type  2   force =    -0.26033168    5.25574726    0.96572269
     atom  269 type  2   force =    -0.26009937    5.25605943    0.96564404
     atom  270 type  2   force =    -0.26032441    5.25596128    0.96580085
     atom  271 type  2   force =    -0.26018712    5.25566070    0.96591301
     atom  272 type  2   force =    -0.26025632    5.25569608    0.96605903
     atom  273 type  2   force =    -5.23005694    3.27921527   -2.50722292
     atom  274 type  2   force =    -5.22865190    3.27843366   -2.50210408
     atom  275 type  2   force =    -5.22896584    3.27863569   -2.50207480
     atom  276 type  2   force =    -5.22868542    3.27858672   -2.50219852
     atom  277 type  2   force =    -5.22823895    3.27896223   -2.50238813
     atom  278 type  2   force =    -5.22873736    3.27872245   -2.50203863
     atom  279 type  2   force =    -5.22854040    3.27858124   -2.50208701
     atom  280 type  2   force =    -5.22868004    3.27864116   -2.50193377
     atom  281 type  3   force =    -2.14505719    0.74060488   -1.26139938
     atom  282 type  3   force =    -2.14438684    0.74069074   -1.26071290
     atom  283 type  3   force =    -2.14449745    0.74076140   -1.26071010
     atom  284 type  3   force =    -2.14439703    0.74072940   -1.26074008
     atom  285 type  3   force =    -2.14431601    0.74079578   -1.26075774
     atom  286 type  3   force =    -2.14441629    0.74076519   -1.26069457
     atom  287 type  3   force =    -2.14435041    0.74072601   -1.26071309
     atom  288 type  3   force =    -2.14440278    0.74074640   -1.26064769
     atom  289 type  2   force =    -1.54764473    6.17807065   -0.63518058
     atom  290 type  2   force =    -1.54844268    6.17629231   -0.63334970
     atom  291 type  2   force =    -1.54855090    6.17628460   -0.63327436
     atom  292 type  2   force =    -1.54843356    6.17631915   -0.63336138
     atom  293 type  2   force =    -1.54752097    6.17686984   -0.63429328
     atom  294 type  2   force =    -1.54852178    6.17633242   -0.63324196
     atom  295 type  2   force =    -1.54841459    6.17631689   -0.63332617
     atom  296 type  2   force =    -1.54847223    6.17633946   -0.63332522
     atom  297 type  3   force =     0.04613567    1.97485014   -0.18353201
     atom  298 type  3   force =     0.04602441    1.97454022   -0.18332419
     atom  299 type  3   force =     0.04600795    1.97451497   -0.18329059
     atom  300 type  3   force =     0.04602885    1.97452933   -0.18331112
     atom  301 type  3   force =     0.04632395    1.97459060   -0.18366130
     atom  302 type  3   force =     0.04599267    1.97450618   -0.18328019
     atom  303 type  3   force =     0.04601781    1.97453367   -0.18331896
     atom  304 type  3   force =     0.04600818    1.97453486   -0.18332329
     atom  305 type  1   force =     0.57221454    0.87026435   -1.98604937
     atom  306 type  1   force =     0.57428924    0.87315495   -1.98664611
     atom  307 type  1   force =     0.57377993    0.87371736   -1.98654087
     atom  308 type  1   force =     0.57400928    0.87366881   -1.98662577
     atom  309 type  1   force =     0.57420180    0.87388266   -1.98673104
     atom  310 type  1   force =     0.57388556    0.87401109   -1.98651468
     atom  311 type  1   force =     0.57416994    0.87352341   -1.98642541
     atom  312 type  1   force =     0.57394154    0.87350812   -1.98613371
     atom  313 type  1   force =    -5.31538658  -14.19337574   -0.05252973
     atom  314 type  1   force =    -5.31406556  -14.19280119   -0.05352408
     atom  315 type  1   force =    -5.31483530  -14.19214884   -0.05321743
     atom  316 type  1   force =    -5.31465663  -14.19216087   -0.05331406
     atom  317 type  1   force =    -5.31453559  -14.19203355   -0.05335919
     atom  318 type  1   force =    -5.31480057  -14.19162100   -0.05332056
     atom  319 type  1   force =    -5.31454905  -14.19231494   -0.05312185
     atom  320 type  1   force =    -5.31474145  -14.19239682   -0.05278491
     atom  321 type  2   force =     2.77427838    0.21527958    3.52870152
     atom  322 type  2   force =     2.77178841    0.21515992    3.53166877
     atom  323 type  2   force =     2.77175509    0.21542015    3.53156557
     atom  324 type  2   force =     2.77180737    0.21540897    3.53155088
     atom  325 type  2   force =     2.77217822    0.21608124    3.53107453
     atom  326 type  2   force =     2.77183230    0.21549384    3.53159802
     atom  327 type  2   force =     2.77189786    0.21531052    3.53172534
     atom  328 type  2   force =     2.77185860    0.21536584    3.53166761
     atom  329 type  3   force =     1.65232722   -0.26901407    1.78731447
     atom  330 type  3   force =     1.65180576   -0.26891332    1.78768812
     atom  331 type  3   force =     1.65181989   -0.26881744    1.78764212
     atom  332 type  3   force =     1.65181960   -0.26882108    1.78765397
     atom  333 type  3   force =     1.65186462   -0.26866760    1.78755464
     atom  334 type  3   force =     1.65183803   -0.26879961    1.78765354
     atom  335 type  3   force =     1.65184680   -0.26886024    1.78771711
     atom  336 type  3   force =     1.65183997   -0.26884294    1.78767593
     atom  337 type  1   force =     6.86491322    5.25825955    1.77726371
     atom  338 type  1   force =     6.86270306    5.25684856    1.77956443
     atom  339 type  1   force =     6.86269344    5.25695901    1.77949790
     atom  340 type  1   force =     6.86274183    5.25697577    1.77948448
     atom  341 type  1   force =     6.86347297    5.25804543    1.77821358
     atom  342 type  1   force =     6.86271361    5.25698775    1.77953882
     atom  343 type  1   force =     6.86274863    5.25686821    1.77961661
     atom  344 type  1   force =     6.86274342    5.25692411    1.77951228
     atom  345 type  2   force =     4.86108279   -5.12436711   -1.83976782
     atom  346 type  2   force =     4.86166541   -5.12458422   -1.83988649
     atom  347 type  2   force =     4.85974342   -5.12475193   -1.84101448
     atom  348 type  2   force =     4.86168815   -5.12468479   -1.83977278
     atom  349 type  2   force =     4.86188070   -5.12456152   -1.83981132
     atom  350 type  2   force =     4.86161998   -5.12446179   -1.83949115
     atom  351 type  2   force =     4.86196759   -5.12435791   -1.83990197
     atom  352 type  2   force =     4.86157590   -5.12444835   -1.83968252
     atom  353 type  3   force =    -1.91382429    1.67881791   -0.71656131
     atom  354 type  3   force =    -1.91358288    1.67844496   -0.71623095
     atom  355 type  3   force =    -1.91370343    1.67842740   -0.71618049
     atom  356 type  3   force =    -1.91358584    1.67844180   -0.71622784
     atom  357 type  3   force =    -1.91343241    1.67849471   -0.71629567
     atom  358 type  3   force =    -1.91361667    1.67847009   -0.71616847
     atom  359 type  3   force =    -1.91355766    1.67846785   -0.71622838
     atom  360 type  3   force =    -1.91360215    1.67847219   -0.71619483
     atom  361 type  1   force =     1.15123000   -0.12081552    2.54563701
     atom  362 type  1   force =     1.14993101   -0.12123127    2.54675479
     atom  363 type  1   force =     1.15069363   -0.12027037    2.54579729
     atom  364 type  1   force =     1.15048939   -0.12025744    2.54590771
     atom  365 type  1   force =     1.15046648   -0.11972821    2.54580006
     atom  366 type  1   force =     1.15078866   -0.12017900    2.54574676
     atom  367 type  1   force =     1.15051626   -0.12055850    2.54636769
     atom  368 type  1   force =     1.15077827   -0.12044418    2.54597903
     atom  369 type  1   force =    -1.63961449   14.27356856   -2.01273387
     atom  370 type  1   force =    -1.63983980   14.27356224   -2.01259570
     atom  371 type  1   force =    -1.63900369   14.27322501   -2.01294338
     atom  372 type  1   force =    -1.64006391   14.27330003   -2.01199909
     atom  373 type  1   force =    -1.64011634   14.27313598   -2.01218059
     atom  374 type  1   force =    -1.63963059   14.27336655   -2.01260002
     atom  375 type  1   force =    -1.64012878   14.27436388   -2.01291800
     atom  376 type  1   force =    -1.63962466   14.27354440   -2.01277122
     atom  377 type  2   force =     1.12169333   -2.68731356    0.87798916
     atom  378 type  2   force =     1.12144447   -2.68722663    0.87816567
     atom  379 type  2   force =     1.12182919   -2.68763372    0.87816333
     atom  380 type  2   force =     1.12039044   -2.68886026    0.87751374
     atom  381 type  2   force =     1.12171159   -2.68733483    0.87861570
     atom  382 type  2   force =     1.12183103   -2.68742413    0.87816820
     atom  383 type  2   force =     1.12159507   -2.68715223    0.87814656
     atom  384 type  2   force =     1.12187927   -2.68712237    0.87802026
     atom  385 type  2   force =     0.26038866   -5.25561743    0.96566873
     atom  386 type  2   force =     0.26018442   -5.25557694    0.96583200
     atom  387 type  2   force =     0.26065432   -5.25600768    0.96577829
     atom  388 type  2   force =     0.25967368   -5.25654330    0.96622860
     atom  389 type  2   force =     0.26028387   -5.25585379    0.96643643
     atom  390 type  2   force =     0.26046810   -5.25579529    0.96584602
     atom  391 type  2   force =     0.26020305   -5.25539396    0.96576600
     atom  392 type  2   force =     0.26046931   -5.25553857    0.96569805
     atom  393 type  2   force =     5.22876189   -3.27856123   -2.50226315
     atom  394 type  2   force =     5.22835076   -3.27834517   -2.50212932
     atom  395 type  2   force =     5.22881316   -3.27875473   -2.50210632
     atom  396 type  2   force =     5.22713853   -3.27955984   -2.50242222
     atom  397 type  2   force =     5.22867638   -3.27853382   -2.50166061
     atom  398 type  2   force =     5.22896539   -3.27865469   -2.50214345
     atom  399 type  2   force =     5.22863612   -3.27844191   -2.50207574
     atom  400 type  2   force =     5.22893695   -3.27839909   -2.50224265
     atom  401 type  3   force =     2.14442732   -0.74071392   -1.26074714
     atom  402 type  3   force =     2.14432556   -0.74063802   -1.26073022
     atom  403 type  3   force =     2.14443502   -0.74076191   -1.26071031
     atom  404 type  3   force =     2.14419832   -0.74088650   -1.26059359
     atom  405 type  3   force =     2.14436520   -0.74074318   -1.26057338
     atom  406 type  3   force =     2.14449247   -0.74076074   -1.26072818
     atom  407 type  3   force =     2.14438425   -0.74069522   -1.26070422
     atom  408 type  3   force =     2.14444666   -0.74069414   -1.26074380
     atom  409 type  2   force =     1.54811248   -6.17631000   -0.63326810
     atom  410 type  2   force =     1.54847526   -6.17635461   -0.63346652
     atom  411 type  2   force =     1.54725745   -6.17572196   -0.63613464
     atom  412 type  2   force =     1.54849712   -6.17643885   -0.63335152
     atom  413 type  2   force =     1.54861946   -6.17630793   -0.63337623
     atom  414 type  2   force =     1.54848920   -6.17623275   -0.63318393
     atom  415 type  2   force =     1.54899597   -6.17598250   -0.63358772
     atom  416 type  2   force =     1.54842265   -6.17622669   -0.63328037
     atom  417 type  3   force =    -0.04609861   -1.97455158   -0.18327999
     atom  418 type  3   force =    -0.04601126   -1.97454244   -0.18333734
     atom  419 type  3   force =    -0.04617994   -1.97422236   -0.18380766
     atom  420 type  3   force =    -0.04600873   -1.97454364   -0.18332378
     atom  421 type  3   force =    -0.04598450   -1.97452010   -0.18332915
     atom  422 type  3   force =    -0.04601522   -1.97450994   -0.18329406
     atom  423 type  3   force =    -0.04582957   -1.97445288   -0.18340265
     atom  424 type  3   force =    -0.04603033   -1.97451788   -0.18328934
     atom  425 type  1   force =    -0.57381331   -0.87342848   -1.98673998
     atom  426 type  1   force =    -0.57410548   -0.87339303   -1.98646574
     atom  427 type  1   force =    -0.57353615   -0.87384338   -1.98650992
     atom  428 type  1   force =    -0.57432491   -0.87397122   -1.98602310
     atom  429 type  1   force =    -0.57436761   -0.87420240   -1.98500047
     atom  430 type  1   force =    -0.57379818   -0.87375580   -1.98651619
     atom  431 type  1   force =    -0.57420481   -0.87324338   -1.98661307
     atom  432 type  1   force =    -0.57383897   -0.87346408   -1.98663413
     atom  433 type  1   force =     5.31489028   14.19241579   -0.05337333
     atom  434 type  1   force =     5.31461504   14.19240660   -0.05314070
     atom  435 type  1   force =     5.31528867   14.19207834   -0.05329782
     atom  436 type  1   force =     5.31449624   14.19212653   -0.05271055
     atom  437 type  1   force =     5.31379901   14.19150817   -0.05232374
     atom  438 type  1   force =     5.31481884   14.19210599   -0.05320421
     atom  439 type  1   force =     5.31427710   14.19280383   -0.05342641
     atom  440 type  1   force =     5.31480086   14.19232233   -0.05332674
     atom  441 type  2   force =    -2.77183532   -0.21535657    3.53143899
     atom  442 type  2   force =    -2.77198752   -0.21531560    3.53160445
     atom  443 type  2   force =    -2.77172573   -0.21572872    3.53163953
     atom  444 type  2   force =    -2.77231191   -0.21695934    3.52937724
     atom  445 type  2   force =    -2.77171765   -0.21533008    3.53186134
     atom  446 type  2   force =    -2.77169759   -0.21541608    3.53163230
     atom  447 type  2   force =    -2.77183375   -0.21519177    3.53156942
     atom  448 type  2   force =    -2.77152949   -0.21499736    3.53143074
     atom  449 type  3   force =    -1.65179596    0.26868446    1.78767766
     atom  450 type  3   force =    -1.65180387    0.26848161    1.78733438
     atom  451 type  3   force =    -1.65183845    0.26884294    1.78762568
     atom  452 type  3   force =    -1.65185292    0.26884660    1.78765768
     atom  453 type  3   force =    -1.65182125    0.26889033    1.78764326
     atom  454 type  3   force =    -1.65177375    0.26893656    1.78762745
     atom  455 type  3   force =    -1.65179420    0.26883775    1.78771865
     atom  456 type  3   force =    -1.65180462    0.26882306    1.78768014
     atom  457 type  1   force =    -6.86271826   -5.25719428    1.77956003
     atom  458 type  1   force =    -6.86279368   -5.25727273    1.77534762
     atom  459 type  1   force =    -6.86275335   -5.25695419    1.77933670
     atom  460 type  1   force =    -6.86295771   -5.25692092    1.77954669
     atom  461 type  1   force =    -6.86274552   -5.25679646    1.77950815
     atom  462 type  1   force =    -6.86212149   -5.25629748    1.77916273
     atom  463 type  1   force =    -6.86264584   -5.25686203    1.77969691
     atom  464 type  1   force =    -6.86259740   -5.25696052    1.77952134
     atom  465 type  2   force =    -4.86209089    5.12659449   -1.84257188
     atom  466 type  2   force =    -4.86158315    5.12449339   -1.83977624
     atom  467 type  2   force =    -4.86188019    5.12452402   -1.83966280
     atom  468 type  2   force =    -4.86159593    5.12453994   -1.83980766
     atom  469 type  2   force =    -4.86092635    5.12491113   -1.84019177
     atom  470 type  2   force =    -4.86168284    5.12463940   -1.83962827
     atom  471 type  2   force =    -4.86149683    5.12458241   -1.83975989
     atom  472 type  2   force =    -4.86162699    5.12461466   -1.83966250
     atom  473 type  3   force =     1.91337760   -1.67836497   -0.71626407
     atom  474 type  3   force =     1.91360971   -1.67846356   -0.71624222
     atom  475 type  3   force =     1.91324628   -1.67844591   -0.71632894
     atom  476 type  3   force =     1.91361103   -1.67847502   -0.71622753
     atom  477 type  3   force =     1.91368031   -1.67844250   -0.71624204
     atom  478 type  3   force =     1.91358787   -1.67842824   -0.71616159
     atom  479 type  3   force =     1.91367481   -1.67842009   -0.71624608
     atom  480 type  3   force =     1.91358588   -1.67842818   -0.71618980
     atom  481 type  4   force =     0.00164348   -0.00232466   -0.00229466
     atom  482 type  4   force =    -0.00308408   -0.00678990    0.00435234
     atom  483 type  4   force =     0.00004772    0.00018311   -0.00033186
     atom  484 type  4   force =    -0.00065926    0.00025153   -0.00059896
     atom  485 type  4   force =     0.00013951    0.00266804   -0.00018282
     atom  486 type  4   force =     0.00070267    0.00092780   -0.00097202
     atom  487 type  4   force =    -0.00008613   -0.00028523    0.00060276
     atom  488 type  4   force =     0.00086106   -0.00006289    0.00038835
     atom  489 type  4   force =    -0.00298800   -0.00111718    0.02672039
     atom  490 type  4   force =     0.00078769   -0.00087977   -0.00053820
     atom  491 type  4   force =    -0.00083488    0.00069063   -0.00046688
     atom  492 type  4   force =     0.00037507    0.00036800   -0.00047264
     atom  493 type  4   force =     0.00092506    0.00090114   -0.00153214
     atom  494 type  4   force =    -0.00059116    0.00127324    0.00017796
     atom  495 type  4   force =     0.00113313   -0.00053085    0.00016949
     atom  496 type  4   force =    -0.00074469   -0.00073299    0.00081687
     The local contribution  to forces
     atom    1 type  1   force =    -0.30119911    2.09164165    3.09845916
     atom    2 type  1   force =    -0.29864662    2.10540837    3.09055027
     atom    3 type  1   force =    -0.30106385    2.09123563    3.09830178
     atom    4 type  1   force =    -0.30079893    2.09117017    3.09839143
     atom    5 type  1   force =    -0.30100008    2.09090212    3.09815996
     atom    6 type  1   force =    -0.30129446    2.09097888    3.09857965
     atom    7 type  1   force =    -0.30098825    2.09135775    3.09810201
     atom    8 type  1   force =    -0.30133007    2.09133063    3.09811883
     atom    9 type  1   force =   -12.35484294   -0.70359673   -1.23114572
     atom   10 type  1   force =   -12.38552525   -0.72423376   -1.18097427
     atom   11 type  1   force =   -12.38511892   -0.72462887   -1.18100343
     atom   12 type  1   force =   -12.38541042   -0.72455701   -1.18104078
     atom   13 type  1   force =   -12.38566204   -0.72480347   -1.18073605
     atom   14 type  1   force =   -12.38529092   -0.72483443   -1.18120887
     atom   15 type  1   force =   -12.38564602   -0.72443758   -1.18120810
     atom   16 type  1   force =   -12.38527545   -0.72442031   -1.18127452
     atom   17 type  2   force =     2.48241813    1.16670502    0.86843877
     atom   18 type  2   force =     2.48458715    1.16495836    0.87022939
     atom   19 type  2   force =     2.48476214    1.16454424    0.87039048
     atom   20 type  2   force =     2.48459622    1.16466339    0.87014707
     atom   21 type  2   force =     2.48449755    1.16447601    0.87039731
     atom   22 type  2   force =     2.48459211    1.16452900    0.87008448
     atom   23 type  2   force =     2.48410311    1.16481390    0.86989125
     atom   24 type  2   force =     2.48463890    1.16480574    0.87006017
     atom   25 type  2   force =     5.06663953    0.27961396    0.94664243
     atom   26 type  2   force =     5.07223155    0.27024613    0.95436001
     atom   27 type  2   force =     5.07250438    0.26988638    0.95440587
     atom   28 type  2   force =     5.07228384    0.26997034    0.95428708
     atom   29 type  2   force =     5.07211393    0.26975842    0.95454136
     atom   30 type  2   force =     5.07232813    0.26978381    0.95418208
     atom   31 type  2   force =     5.07200495    0.27007537    0.95412044
     atom   32 type  2   force =     5.07235540    0.27007842    0.95414672
     atom   33 type  2   force =     3.24249075    5.17636180   -2.48036941
     atom   34 type  2   force =     3.24251467    5.17651544   -2.48073691
     atom   35 type  2   force =     3.24192452    5.17694923   -2.48112094
     atom   36 type  2   force =     3.24255142    5.17678945   -2.48072965
     atom   37 type  2   force =     3.24064732    5.17699648   -2.48170256
     atom   38 type  2   force =     3.24251473    5.17681643   -2.48070026
     atom   39 type  2   force =     3.24257162    5.17643879   -2.48048278
     atom   40 type  2   force =     3.24249094    5.17653739   -2.48071266
     atom   41 type  3   force =     0.76523185    2.07342713   -1.25209627
     atom   42 type  3   force =     0.76525343    2.07347051   -1.25222414
     atom   43 type  3   force =     0.76516236    2.07357438   -1.25229242
     atom   44 type  3   force =     0.76526161    2.07353899   -1.25220941
     atom   45 type  3   force =     0.76465186    2.07344843   -1.25242349
     atom   46 type  3   force =     0.76523745    2.07352887   -1.25221348
     atom   47 type  3   force =     0.76525547    2.07345763   -1.25217658
     atom   48 type  3   force =     0.76522994    2.07346866   -1.25221470
     atom   49 type  2   force =     5.98000688    1.44577362   -0.61170740
     atom   50 type  2   force =     5.97987987    1.44583414   -0.61185647
     atom   51 type  2   force =     5.97788380    1.44574208   -0.61297141
     atom   52 type  2   force =     5.97990354    1.44607233   -0.61185197
     atom   53 type  2   force =     5.97951776    1.44626952   -0.61209616
     atom   54 type  2   force =     5.98004018    1.44614743   -0.61184185
     atom   55 type  2   force =     5.97988904    1.44571015   -0.61142948
     atom   56 type  2   force =     5.98000177    1.44583607   -0.61190602
     atom   57 type  3   force =     1.90011875   -0.02517412   -0.18230802
     atom   58 type  3   force =     1.90007501   -0.02516311   -0.18232933
     atom   59 type  3   force =     1.89909671   -0.02552015   -0.18291628
     atom   60 type  3   force =     1.90007440   -0.02510786   -0.18232437
     atom   61 type  3   force =     1.90003135   -0.02509014   -0.18236877
     atom   62 type  3   force =     1.90012213   -0.02510048   -0.18234101
     atom   63 type  3   force =     1.90005637   -0.02519795   -0.18222406
     atom   64 type  3   force =     1.90011477   -0.02517885   -0.18235295
     atom   65 type  1   force =     0.38176195   -1.45897944   -2.64437107
     atom   66 type  1   force =     0.41619462   -1.47110123   -2.59171379
     atom   67 type  1   force =     0.41656174   -1.47150846   -2.59169091
     atom   68 type  1   force =     0.41626154   -1.47140969   -2.59176456
     atom   69 type  1   force =     0.41602660   -1.47166293   -2.59143001
     atom   70 type  1   force =     0.41638313   -1.47162353   -2.59192240
     atom   71 type  1   force =     0.41598559   -1.47126637   -2.59194601
     atom   72 type  1   force =     0.41640081   -1.47125047   -2.59197298
     atom   73 type  1   force =   -12.37023219    4.08929804   -0.45192717
     atom   74 type  1   force =   -12.39111580    4.13284346   -0.55432923
     atom   75 type  1   force =   -12.39072294    4.13245288   -0.55433472
     atom   76 type  1   force =   -12.39102855    4.13253854   -0.55438308
     atom   77 type  1   force =   -12.39129542    4.13227169   -0.55405481
     atom   78 type  1   force =   -12.39090684    4.13229173   -0.55455116
     atom   79 type  1   force =   -12.39127534    4.13265795   -0.55454928
     atom   80 type  1   force =   -12.39091371    4.13265780   -0.55460748
     atom   81 type  2   force =     0.33902701   -2.76907555    3.52016288
     atom   82 type  2   force =     0.33931178   -2.77003819    3.52097367
     atom   83 type  2   force =     0.33947625   -2.77047017    3.52117747
     atom   84 type  2   force =     0.33931713   -2.77033571    3.52076533
     atom   85 type  2   force =     0.33920998   -2.77048613    3.52095082
     atom   86 type  2   force =     0.33922707   -2.77053944    3.52070939
     atom   87 type  2   force =     0.33867593   -2.77038546    3.52052654
     atom   88 type  2   force =     0.33930066   -2.77025365    3.52071882
     atom   89 type  3   force =    -0.22492199   -1.59168218    1.77786912
     atom   90 type  3   force =    -0.22477236   -1.59156693    1.77758239
     atom   91 type  3   force =    -0.22491183   -1.59174202    1.77779122
     atom   92 type  3   force =    -0.22484493   -1.59176213    1.77789041
     atom   93 type  3   force =    -0.22493615   -1.59182758    1.77776176
     atom   94 type  3   force =    -0.22494583   -1.59177667    1.77783377
     atom   95 type  3   force =    -0.22490936   -1.59173898    1.77777958
     atom   96 type  3   force =    -0.22502199   -1.59177074    1.77776006
     atom   97 type  1   force =     4.59024427   -5.13688079    1.62625624
     atom   98 type  1   force =     4.58980468   -5.13658128    1.62562747
     atom   99 type  1   force =     4.59020579   -5.13727401    1.62598634
     atom  100 type  1   force =     4.59020007   -5.13742990    1.62669824
     atom  101 type  1   force =     4.58999381   -5.13742542    1.62599860
     atom  102 type  1   force =     4.59010641   -5.13738937    1.62620194
     atom  103 type  1   force =     4.59008310   -5.13712008    1.62602606
     atom  104 type  1   force =     4.58881137   -5.13760624    1.62546581
     atom  105 type  2   force =    -5.09682828   -4.89894986   -1.83830655
     atom  106 type  2   force =    -5.09714722   -4.89892180   -1.83860182
     atom  107 type  2   force =    -5.09615842   -4.89883911   -1.83938563
     atom  108 type  2   force =    -5.09723683   -4.89875294   -1.83821685
     atom  109 type  2   force =    -5.09742985   -4.89905421   -1.83866988
     atom  110 type  2   force =    -5.09709125   -4.89894793   -1.83864319
     atom  111 type  2   force =    -5.09729949   -4.89905117   -1.83842689
     atom  112 type  2   force =    -5.09722958   -4.89945276   -1.83880991
     atom  113 type  3   force =     1.62771562    1.85941551   -0.71010430
     atom  114 type  3   force =     1.62767041    1.85945228   -0.71017247
     atom  115 type  3   force =     1.62738012    1.85985503   -0.71059123
     atom  116 type  3   force =     1.62767004    1.85951906   -0.71015547
     atom  117 type  3   force =     1.62753067    1.85949186   -0.71023421
     atom  118 type  3   force =     1.62768369    1.85949041   -0.71019472
     atom  119 type  3   force =     1.62764978    1.85941184   -0.71011295
     atom  120 type  3   force =     1.62767272    1.85942164   -0.71018862
     atom  121 type  1   force =     0.30066462   -2.09109130    3.09897953
     atom  122 type  1   force =     0.30167225   -2.09123266    3.09749376
     atom  123 type  1   force =     0.30098425   -2.09126148    3.09822192
     atom  124 type  1   force =     0.30125990   -2.09124705    3.09839219
     atom  125 type  1   force =     0.30077706   -2.09260064    3.09797687
     atom  126 type  1   force =     0.30085548   -2.09134982    3.09842569
     atom  127 type  1   force =     0.30112213   -2.09127889    3.09819005
     atom  128 type  1   force =     0.30081850   -2.09134519    3.09817211
     atom  129 type  1   force =    12.38513814    0.72463545   -1.18015960
     atom  130 type  1   force =    12.38570360    0.72459529   -1.18150827
     atom  131 type  1   force =    12.38536833    0.72459012   -1.18120493
     atom  132 type  1   force =    12.38558410    0.72460365   -1.18085449
     atom  133 type  1   force =    12.38474155    0.72336332   -1.18137386
     atom  134 type  1   force =    12.38524073    0.72445463   -1.18100915
     atom  135 type  1   force =    12.38538967    0.72447459   -1.18113146
     atom  136 type  1   force =    12.38511440    0.72435427   -1.18121661
     atom  137 type  2   force =    -2.48485961   -1.16474325    0.87040861
     atom  138 type  2   force =    -2.48434851   -1.16551375    0.86968225
     atom  139 type  2   force =    -2.48474833   -1.16473989    0.87010899
     atom  140 type  2   force =    -2.48447581   -1.16469767    0.87010144
     atom  141 type  2   force =    -2.48396140   -1.16596493    0.86933000
     atom  142 type  2   force =    -2.48482372   -1.16465081    0.87041893
     atom  143 type  2   force =    -2.48440715   -1.16470464    0.87016616
     atom  144 type  2   force =    -2.48470038   -1.16472567    0.87012922
     atom  145 type  2   force =    -5.07258735   -0.27002240    0.95467431
     atom  146 type  2   force =    -5.07188442   -0.27043771    0.95383768
     atom  147 type  2   force =    -5.07241035   -0.26998272    0.95421763
     atom  148 type  2   force =    -5.07212349   -0.26994876    0.95427268
     atom  149 type  2   force =    -5.07237366   -0.27174000    0.95348143
     atom  150 type  2   force =    -5.07249473   -0.26997644    0.95442661
     atom  151 type  2   force =    -5.07217497   -0.27002889    0.95424342
     atom  152 type  2   force =    -5.07243972   -0.27005832    0.95424150
     atom  153 type  2   force =    -3.24042170   -5.17815998   -2.48224055
     atom  154 type  2   force =    -3.24267676   -5.17647359   -2.48043664
     atom  155 type  2   force =    -3.24224629   -5.17666075   -2.48058384
     atom  156 type  2   force =    -3.24256532   -5.17663927   -2.48069936
     atom  157 type  2   force =    -3.24274950   -5.17675058   -2.48046978
     atom  158 type  2   force =    -3.24246445   -5.17714462   -2.48095483
     atom  159 type  2   force =    -3.24272985   -5.17667129   -2.48076264
     atom  160 type  2   force =    -3.24244186   -5.17661669   -2.48078333
     atom  161 type  3   force =    -0.76377623   -2.07447621   -1.25313277
     atom  162 type  3   force =    -0.76527543   -2.07345198   -1.25216838
     atom  163 type  3   force =    -0.76518127   -2.07351235   -1.25218469
     atom  164 type  3   force =    -0.76525410   -2.07350219   -1.25220595
     atom  165 type  3   force =    -0.76530713   -2.07353997   -1.25214302
     atom  166 type  3   force =    -0.76522710   -2.07358190   -1.25225277
     atom  167 type  3   force =    -0.76530127   -2.07349598   -1.25222884
     atom  168 type  3   force =    -0.76522754   -2.07348916   -1.25223751
     atom  169 type  2   force =    -5.97966581   -1.44584602   -0.61158563
     atom  170 type  2   force =    -5.97998662   -1.44586930   -0.61192271
     atom  171 type  2   force =    -5.97951139   -1.44603200   -0.61220502
     atom  172 type  2   force =    -5.98006073   -1.44585104   -0.61133454
     atom  173 type  2   force =    -5.98017622   -1.44610005   -0.61192033
     atom  174 type  2   force =    -5.97991014   -1.44598874   -0.61187389
     atom  175 type  2   force =    -5.98007801   -1.44598611   -0.61175798
     atom  176 type  2   force =    -5.98029751   -1.44671508   -0.61221971
     atom  177 type  3   force =    -1.90003628    0.02517885   -0.18223378
     atom  178 type  3   force =    -1.90008808    0.02517355   -0.18236446
     atom  179 type  3   force =    -1.90003733    0.02515342   -0.18238872
     atom  180 type  3   force =    -1.90009059    0.02516072   -0.18219482
     atom  181 type  3   force =    -1.90016124    0.02508212   -0.18235749
     atom  182 type  3   force =    -1.90009411    0.02512541   -0.18233073
     atom  183 type  3   force =    -1.90011414    0.02513224   -0.18232087
     atom  184 type  3   force =    -1.90020159    0.02500345   -0.18240608
     atom  185 type  1   force =    -0.41658037    1.47121534   -2.59127477
     atom  186 type  1   force =    -0.41599432    1.47101689   -2.59207362
     atom  187 type  1   force =    -0.41647618    1.47146896   -2.59191610
     atom  188 type  1   force =    -0.41605324    1.47153533   -2.59181654
     atom  189 type  1   force =    -0.41723778    1.46866903   -2.59402497
     atom  190 type  1   force =    -0.41651134    1.47146130   -2.59168439
     atom  191 type  1   force =    -0.41617746    1.47125199   -2.59178435
     atom  192 type  1   force =    -0.41646277    1.47125001   -2.59180985
     atom  193 type  1   force =    12.39081939   -4.13267532   -0.55372304
     atom  194 type  1   force =    12.39124502   -4.13270402   -0.55468068
     atom  195 type  1   force =    12.39088835   -4.13241223   -0.55458931
     atom  196 type  1   force =    12.39125276   -4.13236916   -0.55425491
     atom  197 type  1   force =    12.38982947   -4.13412125   -0.55532560
     atom  198 type  1   force =    12.39084661   -4.13254220   -0.55437237
     atom  199 type  1   force =    12.39104629   -4.13268568   -0.55441012
     atom  200 type  1   force =    12.39078236   -4.13275119   -0.55448194
     atom  201 type  2   force =    -0.33948949    2.77035393    3.52096260
     atom  202 type  2   force =    -0.33919162    2.76841824    3.51988349
     atom  203 type  2   force =    -0.33941288    2.77025792    3.52077412
     atom  204 type  2   force =    -0.33916039    2.77029004    3.52077660
     atom  205 type  2   force =    -0.33893350    2.76979186    3.52039855
     atom  206 type  2   force =    -0.33955767    2.77028112    3.52117185
     atom  207 type  2   force =    -0.33911513    2.77037108    3.52078702
     atom  208 type  2   force =    -0.33941641    2.77033169    3.52074397
     atom  209 type  3   force =     0.22487056    1.59177070    1.77784114
     atom  210 type  3   force =     0.22518344    1.59085151    1.77738851
     atom  211 type  3   force =     0.22489296    1.59173511    1.77779855
     atom  212 type  3   force =     0.22495876    1.59173605    1.77780438
     atom  213 type  3   force =     0.22495813    1.59164206    1.77773304
     atom  214 type  3   force =     0.22484336    1.59171683    1.77788361
     atom  215 type  3   force =     0.22494158    1.59175567    1.77778155
     atom  216 type  3   force =     0.22487331    1.59174794    1.77778401
     atom  217 type  1   force =    -4.59030324    5.13723799    1.62618466
     atom  218 type  1   force =    -4.59092533    5.13514002    1.62508098
     atom  219 type  1   force =    -4.59030133    5.13707552    1.62602916
     atom  220 type  1   force =    -4.59002026    5.13713284    1.62605420
     atom  221 type  1   force =    -4.58972235    5.13689946    1.62572158
     atom  222 type  1   force =    -4.59038666    5.13715422    1.62670449
     atom  223 type  1   force =    -4.58985192    5.13734861    1.62616452
     atom  224 type  1   force =    -4.59024325    5.13731439    1.62596693
     atom  225 type  2   force =     5.09720539    4.89871803   -1.83832419
     atom  226 type  2   force =     5.09710364    4.89885383   -1.83858486
     atom  227 type  2   force =     5.09579299    4.89960812   -1.83958093
     atom  228 type  2   force =     5.09712645    4.89911783   -1.83856594
     atom  229 type  2   force =     5.09637857    4.89921834   -1.83896226
     atom  230 type  2   force =     5.09717488    4.89910273   -1.83861746
     atom  231 type  2   force =     5.09709286    4.89871019   -1.83828890
     atom  232 type  2   force =     5.09713126    4.89881202   -1.83861587
     atom  233 type  3   force =    -1.62760509   -1.85948930   -0.71007870
     atom  234 type  3   force =    -1.62767346   -1.85946706   -0.71017924
     atom  235 type  3   force =    -1.62752181   -1.85930741   -0.71039640
     atom  236 type  3   force =    -1.62768335   -1.85940849   -0.71010462
     atom  237 type  3   force =    -1.62778468   -1.85949700   -0.71021031
     atom  238 type  3   force =    -1.62767090   -1.85946379   -0.71019172
     atom  239 type  3   force =    -1.62770762   -1.85950197   -0.71013677
     atom  240 type  3   force =    -1.62769626   -1.85955111   -0.71020914
     atom  241 type  1   force =     2.09101890    0.30261291   -3.09735972
     atom  242 type  1   force =     2.09100491    0.30223073   -3.09813777
     atom  243 type  1   force =     2.09137506    0.30096517   -3.09813427
     atom  244 type  1   force =     2.09134417    0.30096952   -3.09803997
     atom  245 type  1   force =     2.09110117    0.30058259   -3.09804395
     atom  246 type  1   force =     2.09120804    0.30066336   -3.09804975
     atom  247 type  1   force =     2.09119257    0.30109133   -3.09832909
     atom  248 type  1   force =     2.09112261    0.30106458   -3.09844423
     atom  249 type  1   force =    -0.72432359   12.38646098    1.18117507
     atom  250 type  1   force =    -0.72550499   12.38655241    1.18172980
     atom  251 type  1   force =    -0.72441334   12.38528726    1.18121520
     atom  252 type  1   force =    -0.72447533   12.38528120    1.18130791
     atom  253 type  1   force =    -0.72463439   12.38508686    1.18127900
     atom  254 type  1   force =    -0.72455067   12.38478045    1.18138844
     atom  255 type  1   force =    -0.72461201   12.38541743    1.18106700
     atom  256 type  1   force =    -0.72462650   12.38545813    1.18083318
     atom  257 type  2   force =     1.16354036   -2.48319133   -0.86471941
     atom  258 type  2   force =     1.16468441   -2.48433666   -0.87010848
     atom  259 type  2   force =     1.16487444   -2.48466036   -0.87007339
     atom  260 type  2   force =     1.16473183   -2.48462158   -0.86999430
     atom  261 type  2   force =     1.16435917   -2.48508736   -0.86977895
     atom  262 type  2   force =     1.16473214   -2.48476817   -0.87009861
     atom  263 type  2   force =     1.16459711   -2.48456778   -0.87015922
     atom  264 type  2   force =     1.16468003   -2.48461470   -0.87023814
     atom  265 type  2   force =     0.27005535   -5.06951542   -0.95217565
     atom  266 type  2   force =     0.26986269   -5.07185583   -0.95416749
     atom  267 type  2   force =     0.27014380   -5.07238450   -0.95417012
     atom  268 type  2   force =     0.27002317   -5.07234479   -0.95409056
     atom  269 type  2   force =     0.26978846   -5.07266603   -0.95401165
     atom  270 type  2   force =     0.27001762   -5.07256422   -0.95417085
     atom  271 type  2   force =     0.26988212   -5.07226795   -0.95428578
     atom  272 type  2   force =     0.26994923   -5.07228958   -0.95442800
     atom  273 type  2   force =     5.17795931   -3.24319654    2.48595576
     atom  274 type  2   force =     5.17659189   -3.24235091    2.48076450
     atom  275 type  2   force =     5.17691475   -3.24255756    2.48073492
     atom  276 type  2   force =     5.17662643   -3.24250320    2.48085748
     atom  277 type  2   force =     5.17617733   -3.24288524    2.48104595
     atom  278 type  2   force =     5.17667880   -3.24263893    2.48069626
     atom  279 type  2   force =     5.17647973   -3.24250252    2.48074333
     atom  280 type  2   force =     5.17662255   -3.24255704    2.48059336
     atom  281 type  3   force =     2.07415453   -0.76512030    1.25292963
     atom  282 type  3   force =     2.07347931   -0.76520379    1.25222983
     atom  283 type  3   force =     2.07359043   -0.76527525    1.25222723
     atom  284 type  3   force =     2.07348945   -0.76524243    1.25225658
     atom  285 type  3   force =     2.07340846   -0.76530915    1.25227439
     atom  286 type  3   force =     2.07350874   -0.76527806    1.25221099
     atom  287 type  3   force =     2.07344260   -0.76523909    1.25222937
     atom  288 type  3   force =     2.07349558   -0.76525937    1.25216416
     atom  289 type  2   force =     1.44511531   -5.98173308    0.61373710
     atom  290 type  2   force =     1.44593610   -5.97990932    0.61190361
     atom  291 type  2   force =     1.44605136   -5.97990360    0.61182813
     atom  292 type  2   force =     1.44593111   -5.97993307    0.61191484
     atom  293 type  2   force =     1.44501230   -5.98049441    0.61284607
     atom  294 type  2   force =     1.44601651   -5.97994689    0.61179330
     atom  295 type  2   force =     1.44590810   -5.97993997    0.61187928
     atom  296 type  2   force =     1.44596789   -5.97995698    0.61187921
     atom  297 type  3   force =    -0.02525911   -1.90041397    0.18255871
     atom  298 type  3   force =    -0.02514732   -1.90010249    0.18235111
     atom  299 type  3   force =    -0.02513053   -1.90007712    0.18231745
     atom  300 type  3   force =    -0.02515078   -1.90009164    0.18233788
     atom  301 type  3   force =    -0.02544765   -1.90015326    0.18268769
     atom  302 type  3   force =    -0.02511583   -1.90006790    0.18230601
     atom  303 type  3   force =    -0.02514073   -1.90009625    0.18234564
     atom  304 type  3   force =    -0.02513083   -1.90009720    0.18235033
     atom  305 type  1   force =    -1.46979166   -0.41290008    2.59151378
     atom  306 type  1   force =    -1.47166959   -0.41586708    2.59204273
     atom  307 type  1   force =    -1.47116318   -0.41643417    2.59193632
     atom  308 type  1   force =    -1.47139553   -0.41638187    2.59201990
     atom  309 type  1   force =    -1.47159432   -0.41659649    2.59213107
     atom  310 type  1   force =    -1.47126224   -0.41673126    2.59190052
     atom  311 type  1   force =    -1.47155166   -0.41623946    2.59181276
     atom  312 type  1   force =    -1.47132259   -0.41621681    2.59152790
     atom  313 type  1   force =     4.13326053   12.39220351    0.55384460
     atom  314 type  1   force =     4.13195185   12.39154512    0.55484515
     atom  315 type  1   force =     4.13271549   12.39088002    0.55454434
     atom  316 type  1   force =     4.13253905   12.39089355    0.55463866
     atom  317 type  1   force =     4.13241300   12.39076560    0.55468773
     atom  318 type  1   force =     4.13268316   12.39034884    0.55464507
     atom  319 type  1   force =     4.13243603   12.39105116    0.55444364
     atom  320 type  1   force =     4.13263367   12.39114657    0.55410680
     atom  321 type  2   force =    -2.77282935   -0.33920594   -3.51782590
     atom  322 type  2   force =    -2.77027040   -0.33907421   -3.52080459
     atom  323 type  2   force =    -2.77022945   -0.33934051   -3.52070041
     atom  324 type  2   force =    -2.77028618   -0.33932093   -3.52068663
     atom  325 type  2   force =    -2.77066116   -0.34000135   -3.52021175
     atom  326 type  2   force =    -2.77031124   -0.33940934   -3.52073446
     atom  327 type  2   force =    -2.77036898   -0.33923549   -3.52086278
     atom  328 type  2   force =    -2.77033607   -0.33928032   -3.52080340
     atom  329 type  3   force =    -1.59224352    0.22509368   -1.77743570
     atom  330 type  3   force =    -1.59172053    0.22499240   -1.77780976
     atom  331 type  3   force =    -1.59173439    0.22489650   -1.77776388
     atom  332 type  3   force =    -1.59173393    0.22490043   -1.77777573
     atom  333 type  3   force =    -1.59177956    0.22474645   -1.77767659
     atom  334 type  3   force =    -1.59175246    0.22487875   -1.77777553
     atom  335 type  3   force =    -1.59176016    0.22493914   -1.77784082
     atom  336 type  3   force =    -1.59175439    0.22492208   -1.77779750
     atom  337 type  1   force =    -5.13944077   -4.59147425   -1.62377892
     atom  338 type  1   force =    -5.13716396   -4.59002534   -1.62606524
     atom  339 type  1   force =    -5.13714501   -4.59013815   -1.62599946
     atom  340 type  1   force =    -5.13719340   -4.59014833   -1.62598566
     atom  341 type  1   force =    -5.13795066   -4.59123261   -1.62471929
     atom  342 type  1   force =    -5.13717459   -4.59016471   -1.62604285
     atom  343 type  1   force =    -5.13721259   -4.59005183   -1.62612340
     atom  344 type  1   force =    -5.13719803   -4.59010016   -1.62601290
     atom  345 type  2   force =    -4.89839896    5.09691762    1.83864261
     atom  346 type  2   force =    -4.89899527    5.09714674    1.83877095
     atom  347 type  2   force =    -4.89705894    5.09730324    1.83993037
     atom  348 type  2   force =    -4.89901921    5.09724755    1.83865450
     atom  349 type  2   force =    -4.89921063    5.09712236    1.83869531
     atom  350 type  2   force =    -4.89895393    5.09703762    1.83837343
     atom  351 type  2   force =    -4.89930391    5.09691694    1.83878390
     atom  352 type  2   force =    -4.89890335    5.09700783    1.83856572
     atom  353 type  3   force =     1.85969608   -1.62803754    0.71053154
     atom  354 type  3   force =     1.85945406   -1.62766497    0.71020358
     atom  355 type  3   force =     1.85957536   -1.62764712    0.71015332
     atom  356 type  3   force =     1.85945711   -1.62766164    0.71020019
     atom  357 type  3   force =     1.85930350   -1.62771490    0.71026854
     atom  358 type  3   force =     1.85948786   -1.62768957    0.71014055
     atom  359 type  3   force =     1.85942876   -1.62768781    0.71020064
     atom  360 type  3   force =     1.85947344   -1.62769231    0.71016736
     atom  361 type  1   force =    -2.09191587   -0.30058464   -3.09790116
     atom  362 type  1   force =    -2.09061802   -0.30016030   -3.09903404
     atom  363 type  1   force =    -2.09134474   -0.30113058   -3.09804820
     atom  364 type  1   force =    -2.09114444   -0.30113787   -3.09816040
     atom  365 type  1   force =    -2.09113322   -0.30168146   -3.09805758
     atom  366 type  1   force =    -2.09144662   -0.30122188   -3.09800176
     atom  367 type  1   force =    -2.09109650   -0.30081385   -3.09858348
     atom  368 type  1   force =    -2.09143278   -0.30095300   -3.09823062
     atom  369 type  1   force =     0.72437885  -12.38548029    1.18129399
     atom  370 type  1   force =     0.72459835  -12.38546467    1.18115211
     atom  371 type  1   force =     0.72374972  -12.38512195    1.18149294
     atom  372 type  1   force =     0.72481712  -12.38520589    1.18055313
     atom  373 type  1   force =     0.72493835  -12.38508265    1.18077095
     atom  374 type  1   force =     0.72439101  -12.38527415    1.18115796
     atom  375 type  1   force =     0.72489419  -12.38629503    1.18148420
     atom  376 type  1   force =     0.72438337  -12.38545355    1.18132886
     atom  377 type  2   force =    -1.16476088    2.48455590   -0.86990934
     atom  378 type  2   force =    -1.16451049    2.48447003   -0.87008917
     atom  379 type  2   force =    -1.16489906    2.48488145   -0.87008669
     atom  380 type  2   force =    -1.16344831    2.48614739   -0.86939941
     atom  381 type  2   force =    -1.16477001    2.48460927   -0.87053879
     atom  382 type  2   force =    -1.16489967    2.48467061   -0.87008925
     atom  383 type  2   force =    -1.16466444    2.48439015   -0.87006728
     atom  384 type  2   force =    -1.16495141    2.48436238   -0.86994210
     atom  385 type  2   force =    -0.27007810    5.07221516   -0.95403557
     atom  386 type  2   force =    -0.26987604    5.07218008   -0.95420118
     atom  387 type  2   force =    -0.27035132    5.07261750   -0.95415288
     atom  388 type  2   force =    -0.26936374    5.07320070   -0.95459947
     atom  389 type  2   force =    -0.26991691    5.07252193   -0.95478552
     atom  390 type  2   force =    -0.27015836    5.07240001   -0.95421394
     atom  391 type  2   force =    -0.26989494    5.07198823   -0.95413418
     atom  392 type  2   force =    -0.27016271    5.07213317   -0.95406757
     atom  393 type  2   force =    -5.17670255    3.24247988    2.48092317
     atom  394 type  2   force =    -5.17628634    3.24226258    2.48078460
     atom  395 type  2   force =    -5.17675596    3.24267596    2.48076341
     atom  396 type  2   force =    -5.17505362    3.24349534    2.48110521
     atom  397 type  2   force =    -5.17660825    3.24247081    2.48031568
     atom  398 type  2   force =    -5.17691017    3.24257282    2.48080379
     atom  399 type  2   force =    -5.17657521    3.24235886    2.48073557
     atom  400 type  2   force =    -5.17688220    3.24231376    2.48090131
     atom  401 type  3   force =    -2.07351998    0.76522710    1.25226393
     atom  402 type  3   force =    -2.07341758    0.76515063    1.25224641
     atom  403 type  3   force =    -2.07352750    0.76527505    1.25222673
     atom  404 type  3   force =    -2.07328912    0.76540053    1.25211153
     atom  405 type  3   force =    -2.07345754    0.76525824    1.25209075
     atom  406 type  3   force =    -2.07358499    0.76527416    1.25224542
     atom  407 type  3   force =    -2.07347664    0.76520825    1.25222094
     atom  408 type  3   force =    -2.07353928    0.76520720    1.25226019
     atom  409 type  2   force =    -1.44560521    5.97992621    0.61181711
     atom  410 type  2   force =    -1.44596948    5.97997547    0.61202081
     atom  411 type  2   force =    -1.44477554    5.97932841    0.61471120
     atom  412 type  2   force =    -1.44599272    5.98006124    0.61190493
     atom  413 type  2   force =    -1.44611502    5.97992528    0.61192986
     atom  414 type  2   force =    -1.44597907    5.97986487    0.61173828
     atom  415 type  2   force =    -1.44649925    5.97958984    0.61213999
     atom  416 type  2   force =    -1.44591675    5.97984762    0.61183395
     atom  417 type  3   force =     0.02522170    1.90011292    0.18230535
     atom  418 type  3   force =     0.02513411    1.90010484    0.18236439
     atom  419 type  3   force =     0.02530060    1.89978262    0.18283616
     atom  420 type  3   force =     0.02513147    1.90010618    0.18235053
     atom  421 type  3   force =     0.02510753    1.90008230    0.18235602
     atom  422 type  3   force =     0.02513831    1.90007295    0.18232105
     atom  423 type  3   force =     0.02494982    1.90001472    0.18242910
     atom  424 type  3   force =     0.02515305    1.90008035    0.18231622
     atom  425 type  1   force =     1.47120276    0.41613878    2.59213901
     atom  426 type  1   force =     1.47148968    0.41611018    2.59185583
     atom  427 type  1   force =     1.47091119    0.41656260    2.59189120
     atom  428 type  1   force =     1.47172458    0.41669980    2.59142169
     atom  429 type  1   force =     1.47196478    0.41687310    2.59054239
     atom  430 type  1   force =     1.47118652    0.41647000    2.59191516
     atom  431 type  1   force =     1.47159855    0.41594510    2.59201507
     atom  432 type  1   force =     1.47121877    0.41617661    2.59202470
     atom  433 type  1   force =    -4.13277186  -12.39115479    0.55469904
     atom  434 type  1   force =    -4.13249642  -12.39113471    0.55446636
     atom  435 type  1   force =    -4.13318112  -12.39081823    0.55461471
     atom  436 type  1   force =    -4.13237304  -12.39084894    0.55404173
     atom  437 type  1   force =    -4.13160323  -12.39018501    0.55370777
     atom  438 type  1   force =    -4.13269821  -12.39083781    0.55453177
     atom  439 type  1   force =    -4.13216283  -12.39155263    0.55474980
     atom  440 type  1   force =    -4.13268659  -12.39105787    0.55464965
     atom  441 type  2   force =     2.77031535    0.33927213   -3.52057444
     atom  442 type  2   force =     2.77046643    0.33923192   -3.52074094
     atom  443 type  2   force =     2.77019610    0.33965345   -3.52077687
     atom  444 type  2   force =     2.77073838    0.34090173   -3.51847522
     atom  445 type  2   force =     2.77021437    0.33925175   -3.52099792
     atom  446 type  2   force =     2.77017665    0.33933326   -3.52076823
     atom  447 type  2   force =     2.77030990    0.33910803   -3.52070570
     atom  448 type  2   force =     2.77000713    0.33890535   -3.52056696
     atom  449 type  3   force =     1.59170928   -0.22476322   -1.77780144
     atom  450 type  3   force =     1.59171891   -0.22456171   -1.77745739
     atom  451 type  3   force =     1.59175309   -0.22492211   -1.77774715
     atom  452 type  3   force =     1.59176727   -0.22492581   -1.77777958
     atom  453 type  3   force =     1.59173557   -0.22496945   -1.77776504
     atom  454 type  3   force =     1.59168803   -0.22501586   -1.77774923
     atom  455 type  3   force =     1.59170942   -0.22491682   -1.77784101
     atom  456 type  3   force =     1.59171930   -0.22490196   -1.77780196
     atom  457 type  1   force =     5.13717917    4.59037716   -1.62606548
     atom  458 type  1   force =     5.13718113    4.59042618   -1.62182244
     atom  459 type  1   force =     5.13721236    4.59013272   -1.62583739
     atom  460 type  1   force =     5.13741811    4.59009838   -1.62605261
     atom  461 type  1   force =     5.13720113    4.58997459   -1.62600943
     atom  462 type  1   force =     5.13655635    4.58946222   -1.62566467
     atom  463 type  1   force =     5.13712446    4.59005071   -1.62620106
     atom  464 type  1   force =     5.13705720    4.59013916   -1.62602369
     atom  465 type  2   force =     4.89943887   -5.09921587    1.84145567
     atom  466 type  2   force =     4.89890953   -5.09705229    1.83866015
     atom  467 type  2   force =     4.89922189   -5.09709353    1.83854791
     atom  468 type  2   force =     4.89892678   -5.09709857    1.83869051
     atom  469 type  2   force =     4.89825509   -5.09747677    1.83907539
     atom  470 type  2   force =     4.89900758   -5.09719476    1.83850830
     atom  471 type  2   force =     4.89882517   -5.09714394    1.83864101
     atom  472 type  2   force =     4.89895663   -5.09717455    1.83854618
     atom  473 type  3   force =    -1.85924778    1.62758418    0.71023494
     atom  474 type  3   force =    -1.85948093    1.62768372    0.71021486
     atom  475 type  3   force =    -1.85911579    1.62766537    0.71030374
     atom  476 type  3   force =    -1.85948226    1.62769493    0.71019988
     atom  477 type  3   force =    -1.85955161    1.62766230    0.71021469
     atom  478 type  3   force =    -1.85945906    1.62764811    0.71013386
     atom  479 type  3   force =    -1.85954604    1.62763987    0.71021823
     atom  480 type  3   force =    -1.85945701    1.62764834    0.71016226
     atom  481 type  4   force =    -0.00176934    0.00233927    0.00236624
     atom  482 type  4   force =     0.00320886    0.00641570   -0.00378243
     atom  483 type  4   force =    -0.00003605   -0.00018571    0.00034249
     atom  484 type  4   force =     0.00066159   -0.00025564    0.00061296
     atom  485 type  4   force =    -0.00017250   -0.00265611    0.00016983
     atom  486 type  4   force =    -0.00070442   -0.00093887    0.00097725
     atom  487 type  4   force =     0.00021272    0.00030925   -0.00052098
     atom  488 type  4   force =    -0.00085460    0.00006918   -0.00038070
     atom  489 type  4   force =     0.00335844    0.00359036   -0.02608279
     atom  490 type  4   force =    -0.00078099    0.00090138    0.00055615
     atom  491 type  4   force =     0.00084904   -0.00072144    0.00049271
     atom  492 type  4   force =    -0.00038378   -0.00036437    0.00046845
     atom  493 type  4   force =    -0.00093492   -0.00093540    0.00156814
     atom  494 type  4   force =     0.00060982   -0.00124924   -0.00020455
     atom  495 type  4   force =    -0.00114511    0.00052550   -0.00020431
     atom  496 type  4   force =     0.00077746    0.00076871   -0.00078256
     The core correction contribution to forces
     atom    1 type  1   force =    -0.00311529    0.00438531    0.00260969
     atom    2 type  1   force =    -0.00312654    0.00440045    0.00259513
     atom    3 type  1   force =    -0.00311519    0.00438513    0.00260957
     atom    4 type  1   force =    -0.00311518    0.00438511    0.00260955
     atom    5 type  1   force =    -0.00311520    0.00438510    0.00260956
     atom    6 type  1   force =    -0.00311522    0.00438508    0.00260955
     atom    7 type  1   force =    -0.00311519    0.00438528    0.00260967
     atom    8 type  1   force =    -0.00311521    0.00438514    0.00260956
     atom    9 type  1   force =     0.01337413    0.00478309    0.00492010
     atom   10 type  1   force =     0.01340069    0.00481514    0.00489609
     atom   11 type  1   force =     0.01340077    0.00481511    0.00489609
     atom   12 type  1   force =     0.01340078    0.00481513    0.00489611
     atom   13 type  1   force =     0.01340072    0.00481509    0.00489608
     atom   14 type  1   force =     0.01340069    0.00481506    0.00489607
     atom   15 type  1   force =     0.01340071    0.00481507    0.00489608
     atom   16 type  1   force =     0.01340089    0.00481521    0.00489618
     atom   17 type  2   force =    -0.00643994    0.00180114    0.00006501
     atom   18 type  2   force =    -0.00643123    0.00179772    0.00006804
     atom   19 type  2   force =    -0.00643119    0.00179763    0.00006799
     atom   20 type  2   force =    -0.00643118    0.00179762    0.00006804
     atom   21 type  2   force =    -0.00643119    0.00179763    0.00006802
     atom   22 type  2   force =    -0.00643124    0.00179771    0.00006803
     atom   23 type  2   force =    -0.00643111    0.00179773    0.00006800
     atom   24 type  2   force =    -0.00643111    0.00179772    0.00006806
     atom   25 type  2   force =     0.00300158   -0.00017527    0.00026021
     atom   26 type  2   force =     0.00302118   -0.00019466    0.00027352
     atom   27 type  2   force =     0.00302131   -0.00019480    0.00027358
     atom   28 type  2   force =     0.00302128   -0.00019476    0.00027356
     atom   29 type  2   force =     0.00302123   -0.00019470    0.00027346
     atom   30 type  2   force =     0.00302120   -0.00019477    0.00027350
     atom   31 type  2   force =     0.00302135   -0.00019480    0.00027354
     atom   32 type  2   force =     0.00302137   -0.00019469    0.00027354
     atom   33 type  2   force =    -0.00233787    0.00277903    0.00032850
     atom   34 type  2   force =    -0.00233797    0.00277926    0.00032848
     atom   35 type  2   force =    -0.00233789    0.00277921    0.00032849
     atom   36 type  2   force =    -0.00233795    0.00277928    0.00032848
     atom   37 type  2   force =    -0.00234043    0.00277531    0.00032544
     atom   38 type  2   force =    -0.00233795    0.00277927    0.00032850
     atom   39 type  2   force =    -0.00233793    0.00277907    0.00032855
     atom   40 type  2   force =    -0.00233792    0.00277912    0.00032851
     atom   41 type  3   force =     0.00000000    0.00000000    0.00000000
     atom   42 type  3   force =     0.00000000    0.00000000    0.00000000
     atom   43 type  3   force =     0.00000000    0.00000000    0.00000000
     atom   44 type  3   force =     0.00000000    0.00000000    0.00000000
     atom   45 type  3   force =     0.00000000    0.00000000    0.00000000
     atom   46 type  3   force =     0.00000000    0.00000000    0.00000000
     atom   47 type  3   force =     0.00000000    0.00000000    0.00000000
     atom   48 type  3   force =     0.00000000    0.00000000    0.00000000
     atom   49 type  2   force =     0.00087757   -0.00157227    0.00038511
     atom   50 type  2   force =     0.00087746   -0.00157218    0.00038516
     atom   51 type  2   force =     0.00087829   -0.00157211    0.00038511
     atom   52 type  2   force =     0.00087743   -0.00157213    0.00038510
     atom   53 type  2   force =     0.00087652   -0.00157248    0.00038618
     atom   54 type  2   force =     0.00087746   -0.00157216    0.00038512
     atom   55 type  2   force =     0.00087738   -0.00157223    0.00038513
     atom   56 type  2   force =     0.00087758   -0.00157224    0.00038511
     atom   57 type  3   force =     0.00000000    0.00000000    0.00000000
     atom   58 type  3   force =     0.00000000    0.00000000    0.00000000
     atom   59 type  3   force =     0.00000000    0.00000000    0.00000000
     atom   60 type  3   force =     0.00000000    0.00000000    0.00000000
     atom   61 type  3   force =     0.00000000    0.00000000    0.00000000
     atom   62 type  3   force =     0.00000000    0.00000000    0.00000000
     atom   63 type  3   force =     0.00000000    0.00000000    0.00000000
     atom   64 type  3   force =     0.00000000    0.00000000    0.00000000
     atom   65 type  1   force =    -0.00332619   -0.00416879   -0.00293812
     atom   66 type  1   force =    -0.00325622   -0.00412413   -0.00297482
     atom   67 type  1   force =    -0.00325622   -0.00412430   -0.00297489
     atom   68 type  1   force =    -0.00325622   -0.00412425   -0.00297490
     atom   69 type  1   force =    -0.00325626   -0.00412431   -0.00297490
     atom   70 type  1   force =    -0.00325624   -0.00412424   -0.00297491
     atom   71 type  1   force =    -0.00325627   -0.00412432   -0.00297497
     atom   72 type  1   force =    -0.00325614   -0.00412409   -0.00297477
     atom   73 type  1   force =     0.01295257   -0.00657111   -0.00265175
     atom   74 type  1   force =     0.01284241   -0.00666357   -0.00256023
     atom   75 type  1   force =     0.01284254   -0.00666368   -0.00256028
     atom   76 type  1   force =     0.01284248   -0.00666362   -0.00256027
     atom   77 type  1   force =     0.01284246   -0.00666364   -0.00256027
     atom   78 type  1   force =     0.01284252   -0.00666367   -0.00256029
     atom   79 type  1   force =     0.01284247   -0.00666363   -0.00256027
     atom   80 type  1   force =     0.01284248   -0.00666358   -0.00256024
     atom   81 type  2   force =    -0.00172559   -0.00231750    0.00022806
     atom   82 type  2   force =    -0.00172110   -0.00232281    0.00022364
     atom   83 type  2   force =    -0.00172119   -0.00232304    0.00022371
     atom   84 type  2   force =    -0.00172108   -0.00232288    0.00022362
     atom   85 type  2   force =    -0.00172118   -0.00232297    0.00022367
     atom   86 type  2   force =    -0.00172106   -0.00232278    0.00022358
     atom   87 type  2   force =    -0.00172112   -0.00232287    0.00022364
     atom   88 type  2   force =    -0.00172108   -0.00232284    0.00022354
     atom   89 type  3   force =     0.00000000    0.00000000    0.00000000
     atom   90 type  3   force =     0.00000000    0.00000000    0.00000000
     atom   91 type  3   force =     0.00000000    0.00000000    0.00000000
     atom   92 type  3   force =     0.00000000    0.00000000    0.00000000
     atom   93 type  3   force =     0.00000000    0.00000000    0.00000000
     atom   94 type  3   force =     0.00000000    0.00000000    0.00000000
     atom   95 type  3   force =     0.00000000    0.00000000    0.00000000
     atom   96 type  3   force =     0.00000000    0.00000000    0.00000000
     atom   97 type  1   force =    -0.00403858    0.01083140   -0.00097748
     atom   98 type  1   force =    -0.00403992    0.01083236   -0.00097692
     atom   99 type  1   force =    -0.00403851    0.01083120   -0.00097751
     atom  100 type  1   force =    -0.00403858    0.01083125   -0.00097749
     atom  101 type  1   force =    -0.00403859    0.01083138   -0.00097751
     atom  102 type  1   force =    -0.00403855    0.01083126   -0.00097750
     atom  103 type  1   force =    -0.00403858    0.01083135   -0.00097751
     atom  104 type  1   force =    -0.00403845    0.01083149   -0.00097752
     atom  105 type  2   force =    -0.00229017   -0.00380056   -0.00000103
     atom  106 type  2   force =    -0.00229029   -0.00380037   -0.00000110
     atom  107 type  2   force =    -0.00228909   -0.00380080   -0.00000123
     atom  108 type  2   force =    -0.00229035   -0.00380052   -0.00000099
     atom  109 type  2   force =    -0.00229042   -0.00380069   -0.00000111
     atom  110 type  2   force =    -0.00229021   -0.00380041   -0.00000109
     atom  111 type  2   force =    -0.00229040   -0.00380063   -0.00000102
     atom  112 type  2   force =    -0.00229025   -0.00380054   -0.00000112
     atom  113 type  3   force =     0.00000000    0.00000000    0.00000000
     atom  114 type  3   force =     0.00000000    0.00000000    0.00000000
     atom  115 type  3   force =     0.00000000    0.00000000    0.00000000
     atom  116 type  3   force =     0.00000000    0.00000000    0.00000000
     atom  117 type  3   force =     0.00000000    0.00000000    0.00000000
     atom  118 type  3   force =     0.00000000    0.00000000    0.00000000
     atom  119 type  3   force =     0.00000000    0.00000000    0.00000000
     atom  120 type  3   force =     0.00000000    0.00000000    0.00000000
     atom  121 type  1   force =     0.00311513   -0.00438520    0.00260968
     atom  122 type  1   force =     0.00311506   -0.00438393    0.00260928
     atom  123 type  1   force =     0.00311523   -0.00438515    0.00260957
     atom  124 type  1   force =     0.00311524   -0.00438516    0.00260958
     atom  125 type  1   force =     0.00311497   -0.00438496    0.00260939
     atom  126 type  1   force =     0.00311518   -0.00438516    0.00260958
     atom  127 type  1   force =     0.00311529   -0.00438524    0.00260966
     atom  128 type  1   force =     0.00311516   -0.00438512    0.00260955
     atom  129 type  1   force =    -0.01340102   -0.00481528    0.00489623
     atom  130 type  1   force =    -0.01340076   -0.00481505    0.00489595
     atom  131 type  1   force =    -0.01340069   -0.00481508    0.00489607
     atom  132 type  1   force =    -0.01340076   -0.00481515    0.00489609
     atom  133 type  1   force =    -0.01340072   -0.00481485    0.00489598
     atom  134 type  1   force =    -0.01340077   -0.00481511    0.00489610
     atom  135 type  1   force =    -0.01340070   -0.00481514    0.00489610
     atom  136 type  1   force =    -0.01340078   -0.00481512    0.00489611
     atom  137 type  2   force =     0.00643106   -0.00179773    0.00006801
     atom  138 type  2   force =     0.00643153   -0.00179791    0.00006786
     atom  139 type  2   force =     0.00643119   -0.00179770    0.00006800
     atom  140 type  2   force =     0.00643131   -0.00179761    0.00006799
     atom  141 type  2   force =     0.00642972   -0.00179872    0.00006783
     atom  142 type  2   force =     0.00643116   -0.00179765    0.00006804
     atom  143 type  2   force =     0.00643129   -0.00179770    0.00006805
     atom  144 type  2   force =     0.00643113   -0.00179761    0.00006799
     atom  145 type  2   force =    -0.00302145    0.00019467    0.00027361
     atom  146 type  2   force =    -0.00302074    0.00019482    0.00027312
     atom  147 type  2   force =    -0.00302125    0.00019477    0.00027353
     atom  148 type  2   force =    -0.00302118    0.00019474    0.00027348
     atom  149 type  2   force =    -0.00302276    0.00019531    0.00027322
     atom  150 type  2   force =    -0.00302130    0.00019478    0.00027352
     atom  151 type  2   force =    -0.00302112    0.00019467    0.00027355
     atom  152 type  2   force =    -0.00302137    0.00019475    0.00027356
     atom  153 type  2   force =     0.00234075   -0.00278787    0.00032738
     atom  154 type  2   force =     0.00233786   -0.00277913    0.00032855
     atom  155 type  2   force =     0.00233803   -0.00277932    0.00032850
     atom  156 type  2   force =     0.00233788   -0.00277911    0.00032854
     atom  157 type  2   force =     0.00233785   -0.00277932    0.00032860
     atom  158 type  2   force =     0.00233798   -0.00277925    0.00032843
     atom  159 type  2   force =     0.00233797   -0.00277922    0.00032850
     atom  160 type  2   force =     0.00233800   -0.00277905    0.00032848
     atom  161 type  3   force =     0.00000000    0.00000000    0.00000000
     atom  162 type  3   force =     0.00000000    0.00000000    0.00000000
     atom  163 type  3   force =     0.00000000    0.00000000    0.00000000
     atom  164 type  3   force =     0.00000000    0.00000000    0.00000000
     atom  165 type  3   force =     0.00000000    0.00000000    0.00000000
     atom  166 type  3   force =     0.00000000    0.00000000    0.00000000
     atom  167 type  3   force =     0.00000000    0.00000000    0.00000000
     atom  168 type  3   force =     0.00000000    0.00000000    0.00000000
     atom  169 type  2   force =    -0.00087732    0.00157219    0.00038517
     atom  170 type  2   force =    -0.00087780    0.00157232    0.00038512
     atom  171 type  2   force =    -0.00087697    0.00157128    0.00038515
     atom  172 type  2   force =    -0.00087759    0.00157222    0.00038505
     atom  173 type  2   force =    -0.00087741    0.00157213    0.00038514
     atom  174 type  2   force =    -0.00087744    0.00157219    0.00038513
     atom  175 type  2   force =    -0.00087749    0.00157227    0.00038503
     atom  176 type  2   force =    -0.00087756    0.00157217    0.00038517
     atom  177 type  3   force =     0.00000000    0.00000000    0.00000000
     atom  178 type  3   force =     0.00000000    0.00000000    0.00000000
     atom  179 type  3   force =     0.00000000    0.00000000    0.00000000
     atom  180 type  3   force =     0.00000000    0.00000000    0.00000000
     atom  181 type  3   force =     0.00000000    0.00000000    0.00000000
     atom  182 type  3   force =     0.00000000    0.00000000    0.00000000
     atom  183 type  3   force =     0.00000000    0.00000000    0.00000000
     atom  184 type  3   force =     0.00000000    0.00000000    0.00000000
     atom  185 type  1   force =     0.00325609    0.00412409   -0.00297477
     atom  186 type  1   force =     0.00325633    0.00412438   -0.00297509
     atom  187 type  1   force =     0.00325628    0.00412428   -0.00297494
     atom  188 type  1   force =     0.00325627    0.00412428   -0.00297487
     atom  189 type  1   force =     0.00325674    0.00412631   -0.00297584
     atom  190 type  1   force =     0.00325622    0.00412428   -0.00297489
     atom  191 type  1   force =     0.00325623    0.00412412   -0.00297481
     atom  192 type  1   force =     0.00325622    0.00412429   -0.00297492
     atom  193 type  1   force =    -0.01284250    0.00666353   -0.00256025
     atom  194 type  1   force =    -0.01284257    0.00666376   -0.00256042
     atom  195 type  1   force =    -0.01284243    0.00666361   -0.00256026
     atom  196 type  1   force =    -0.01284241    0.00666360   -0.00256024
     atom  197 type  1   force =    -0.01284225    0.00666370   -0.00256045
     atom  198 type  1   force =    -0.01284250    0.00666365   -0.00256027
     atom  199 type  1   force =    -0.01284241    0.00666358   -0.00256024
     atom  200 type  1   force =    -0.01284252    0.00666366   -0.00256028
     atom  201 type  2   force =     0.00172111    0.00232295    0.00022353
     atom  202 type  2   force =     0.00172042    0.00232179    0.00022350
     atom  203 type  2   force =     0.00172118    0.00232284    0.00022368
     atom  204 type  2   force =     0.00172121    0.00232288    0.00022359
     atom  205 type  2   force =     0.00172110    0.00232212    0.00022335
     atom  206 type  2   force =     0.00172108    0.00232283    0.00022352
     atom  207 type  2   force =     0.00172121    0.00232291    0.00022357
     atom  208 type  2   force =     0.00172100    0.00232286    0.00022361
     atom  209 type  3   force =     0.00000000    0.00000000    0.00000000
     atom  210 type  3   force =     0.00000000    0.00000000    0.00000000
     atom  211 type  3   force =     0.00000000    0.00000000    0.00000000
     atom  212 type  3   force =     0.00000000    0.00000000    0.00000000
     atom  213 type  3   force =     0.00000000    0.00000000    0.00000000
     atom  214 type  3   force =     0.00000000    0.00000000    0.00000000
     atom  215 type  3   force =     0.00000000    0.00000000    0.00000000
     atom  216 type  3   force =     0.00000000    0.00000000    0.00000000
     atom  217 type  1   force =     0.00403854   -0.01083128   -0.00097752
     atom  218 type  1   force =     0.00403849   -0.01083129   -0.00097759
     atom  219 type  1   force =     0.00403859   -0.01083135   -0.00097751
     atom  220 type  1   force =     0.00403860   -0.01083134   -0.00097751
     atom  221 type  1   force =     0.00403863   -0.01083170   -0.00097754
     atom  222 type  1   force =     0.00403853   -0.01083133   -0.00097750
     atom  223 type  1   force =     0.00403861   -0.01083133   -0.00097747
     atom  224 type  1   force =     0.00403847   -0.01083117   -0.00097750
     atom  225 type  2   force =     0.00229025    0.00380041   -0.00000101
     atom  226 type  2   force =     0.00229024    0.00380054   -0.00000107
     atom  227 type  2   force =     0.00229078    0.00380090   -0.00000127
     atom  228 type  2   force =     0.00229029    0.00380059   -0.00000109
     atom  229 type  2   force =     0.00228937    0.00380014   -0.00000112
     atom  230 type  2   force =     0.00229027    0.00380064   -0.00000106
     atom  231 type  2   force =     0.00229024    0.00380050   -0.00000109
     atom  232 type  2   force =     0.00229030    0.00380050   -0.00000110
     atom  233 type  3   force =     0.00000000    0.00000000    0.00000000
     atom  234 type  3   force =     0.00000000    0.00000000    0.00000000
     atom  235 type  3   force =     0.00000000    0.00000000    0.00000000
     atom  236 type  3   force =     0.00000000    0.00000000    0.00000000
     atom  237 type  3   force =     0.00000000    0.00000000    0.00000000
     atom  238 type  3   force =     0.00000000    0.00000000    0.00000000
     atom  239 type  3   force =     0.00000000    0.00000000    0.00000000
     atom  240 type  3   force =     0.00000000    0.00000000    0.00000000
     atom  241 type  1   force =     0.00438447    0.00311535   -0.00260923
     atom  242 type  1   force =     0.00438577    0.00311538   -0.00261005
     atom  243 type  1   force =     0.00438515    0.00311517   -0.00260957
     atom  244 type  1   force =     0.00438510    0.00311520   -0.00260954
     atom  245 type  1   force =     0.00438508    0.00311516   -0.00260955
     atom  246 type  1   force =     0.00438512    0.00311514   -0.00260956
     atom  247 type  1   force =     0.00438533    0.00311522   -0.00260963
     atom  248 type  1   force =     0.00438514    0.00311524   -0.00260958
     atom  249 type  1   force =     0.00481474   -0.01340032   -0.00489578
     atom  250 type  1   force =     0.00481504   -0.01340077   -0.00489615
     atom  251 type  1   force =     0.00481511   -0.01340079   -0.00489611
     atom  252 type  1   force =     0.00481510   -0.01340075   -0.00489608
     atom  253 type  1   force =     0.00481508   -0.01340076   -0.00489608
     atom  254 type  1   force =     0.00481518   -0.01340086   -0.00489615
     atom  255 type  1   force =     0.00481514   -0.01340077   -0.00489612
     atom  256 type  1   force =     0.00481513   -0.01340074   -0.00489611
     atom  257 type  2   force =     0.00179700    0.00643160   -0.00006662
     atom  258 type  2   force =     0.00179763    0.00643116   -0.00006801
     atom  259 type  2   force =     0.00179779    0.00643108   -0.00006795
     atom  260 type  2   force =     0.00179765    0.00643122   -0.00006795
     atom  261 type  2   force =     0.00179765    0.00643118   -0.00006806
     atom  262 type  2   force =     0.00179765    0.00643113   -0.00006803
     atom  263 type  2   force =     0.00179764    0.00643117   -0.00006802
     atom  264 type  2   force =     0.00179776    0.00643127   -0.00006796
     atom  265 type  2   force =    -0.00019496   -0.00302062   -0.00027299
     atom  266 type  2   force =    -0.00019462   -0.00302131   -0.00027373
     atom  267 type  2   force =    -0.00019475   -0.00302134   -0.00027356
     atom  268 type  2   force =    -0.00019479   -0.00302122   -0.00027356
     atom  269 type  2   force =    -0.00019477   -0.00302131   -0.00027356
     atom  270 type  2   force =    -0.00019476   -0.00302128   -0.00027355
     atom  271 type  2   force =    -0.00019473   -0.00302135   -0.00027356
     atom  272 type  2   force =    -0.00019475   -0.00302114   -0.00027355
     atom  273 type  2   force =     0.00277832    0.00233661   -0.00032601
     atom  274 type  2   force =     0.00277913    0.00233794   -0.00032845
     atom  275 type  2   force =     0.00277934    0.00233789   -0.00032844
     atom  276 type  2   force =     0.00277918    0.00233798   -0.00032850
     atom  277 type  2   force =     0.00277923    0.00233798   -0.00032858
     atom  278 type  2   force =     0.00277920    0.00233796   -0.00032849
     atom  279 type  2   force =     0.00277912    0.00233791   -0.00032855
     atom  280 type  2   force =     0.00277923    0.00233799   -0.00032848
     atom  281 type  3   force =     0.00000000    0.00000000    0.00000000
     atom  282 type  3   force =     0.00000000    0.00000000    0.00000000
     atom  283 type  3   force =     0.00000000    0.00000000    0.00000000
     atom  284 type  3   force =     0.00000000    0.00000000    0.00000000
     atom  285 type  3   force =     0.00000000    0.00000000    0.00000000
     atom  286 type  3   force =     0.00000000    0.00000000    0.00000000
     atom  287 type  3   force =     0.00000000    0.00000000    0.00000000
     atom  288 type  3   force =     0.00000000    0.00000000    0.00000000
     atom  289 type  2   force =    -0.00157258   -0.00087825   -0.00038501
     atom  290 type  2   force =    -0.00157219   -0.00087745   -0.00038517
     atom  291 type  2   force =    -0.00157209   -0.00087746   -0.00038512
     atom  292 type  2   force =    -0.00157217   -0.00087736   -0.00038511
     atom  293 type  2   force =    -0.00157213   -0.00087748   -0.00038524
     atom  294 type  2   force =    -0.00157219   -0.00087738   -0.00038508
     atom  295 type  2   force =    -0.00157222   -0.00087754   -0.00038506
     atom  296 type  2   force =    -0.00157219   -0.00087741   -0.00038515
     atom  297 type  3   force =     0.00000000    0.00000000    0.00000000
     atom  298 type  3   force =     0.00000000    0.00000000    0.00000000
     atom  299 type  3   force =     0.00000000    0.00000000    0.00000000
     atom  300 type  3   force =     0.00000000    0.00000000    0.00000000
     atom  301 type  3   force =     0.00000000    0.00000000    0.00000000
     atom  302 type  3   force =     0.00000000    0.00000000    0.00000000
     atom  303 type  3   force =     0.00000000    0.00000000    0.00000000
     atom  304 type  3   force =     0.00000000    0.00000000    0.00000000
     atom  305 type  1   force =    -0.00412599    0.00325699    0.00297562
     atom  306 type  1   force =    -0.00412417    0.00325624    0.00297490
     atom  307 type  1   force =    -0.00412424    0.00325618    0.00297492
     atom  308 type  1   force =    -0.00412428    0.00325624    0.00297491
     atom  309 type  1   force =    -0.00412433    0.00325622    0.00297497
     atom  310 type  1   force =    -0.00412418    0.00325616    0.00297483
     atom  311 type  1   force =    -0.00412422    0.00325621    0.00297483
     atom  312 type  1   force =    -0.00412422    0.00325626    0.00297490
     atom  313 type  1   force =    -0.00666379   -0.01284165    0.00256026
     atom  314 type  1   force =    -0.00666361   -0.01284244    0.00256020
     atom  315 type  1   force =    -0.00666367   -0.01284253    0.00256027
     atom  316 type  1   force =    -0.00666366   -0.01284249    0.00256028
     atom  317 type  1   force =    -0.00666368   -0.01284253    0.00256029
     atom  318 type  1   force =    -0.00666366   -0.01284254    0.00256028
     atom  319 type  1   force =    -0.00666360   -0.01284247    0.00256025
     atom  320 type  1   force =    -0.00666356   -0.01284236    0.00256024
     atom  321 type  2   force =    -0.00232355    0.00172108   -0.00022371
     atom  322 type  2   force =    -0.00232292    0.00172113   -0.00022356
     atom  323 type  2   force =    -0.00232280    0.00172108   -0.00022359
     atom  324 type  2   force =    -0.00232290    0.00172116   -0.00022360
     atom  325 type  2   force =    -0.00232304    0.00172086   -0.00022342
     atom  326 type  2   force =    -0.00232289    0.00172109   -0.00022356
     atom  327 type  2   force =    -0.00232268    0.00172097   -0.00022359
     atom  328 type  2   force =    -0.00232284    0.00172116   -0.00022362
     atom  329 type  3   force =     0.00000000    0.00000000    0.00000000
     atom  330 type  3   force =     0.00000000    0.00000000    0.00000000
     atom  331 type  3   force =     0.00000000    0.00000000    0.00000000
     atom  332 type  3   force =     0.00000000    0.00000000    0.00000000
     atom  333 type  3   force =     0.00000000    0.00000000    0.00000000
     atom  334 type  3   force =     0.00000000    0.00000000    0.00000000
     atom  335 type  3   force =     0.00000000    0.00000000    0.00000000
     atom  336 type  3   force =     0.00000000    0.00000000    0.00000000
     atom  337 type  1   force =     0.01083077    0.00403827    0.00097730
     atom  338 type  1   force =     0.01083131    0.00403859    0.00097753
     atom  339 type  1   force =     0.01083140    0.00403856    0.00097752
     atom  340 type  1   force =     0.01083139    0.00403862    0.00097752
     atom  341 type  1   force =     0.01083113    0.00403846    0.00097754
     atom  342 type  1   force =     0.01083131    0.00403859    0.00097750
     atom  343 type  1   force =     0.01083128    0.00403852    0.00097748
     atom  344 type  1   force =     0.01083137    0.00403861    0.00097752
     atom  345 type  2   force =    -0.00380023    0.00229004    0.00000103
     atom  346 type  2   force =    -0.00380058    0.00229028    0.00000113
     atom  347 type  2   force =    -0.00380041    0.00229020    0.00000133
     atom  348 type  2   force =    -0.00380052    0.00229035    0.00000102
     atom  349 type  2   force =    -0.00380048    0.00229027    0.00000106
     atom  350 type  2   force =    -0.00380057    0.00229053    0.00000108
     atom  351 type  2   force =    -0.00380065    0.00229024    0.00000105
     atom  352 type  2   force =    -0.00380051    0.00229021    0.00000107
     atom  353 type  3   force =     0.00000000    0.00000000    0.00000000
     atom  354 type  3   force =     0.00000000    0.00000000    0.00000000
     atom  355 type  3   force =     0.00000000    0.00000000    0.00000000
     atom  356 type  3   force =     0.00000000    0.00000000    0.00000000
     atom  357 type  3   force =     0.00000000    0.00000000    0.00000000
     atom  358 type  3   force =     0.00000000    0.00000000    0.00000000
     atom  359 type  3   force =     0.00000000    0.00000000    0.00000000
     atom  360 type  3   force =     0.00000000    0.00000000    0.00000000
     atom  361 type  1   force =    -0.00438539   -0.00311521   -0.00260965
     atom  362 type  1   force =    -0.00438543   -0.00311516   -0.00260982
     atom  363 type  1   force =    -0.00438508   -0.00311520   -0.00260953
     atom  364 type  1   force =    -0.00438511   -0.00311516   -0.00260954
     atom  365 type  1   force =    -0.00438519   -0.00311528   -0.00260959
     atom  366 type  1   force =    -0.00438513   -0.00311521   -0.00260957
     atom  367 type  1   force =    -0.00438428   -0.00311489   -0.00260913
     atom  368 type  1   force =    -0.00438509   -0.00311516   -0.00260954
     atom  369 type  1   force =    -0.00481509    0.01340072   -0.00489609
     atom  370 type  1   force =    -0.00481512    0.01340079   -0.00489611
     atom  371 type  1   force =    -0.00481521    0.01340087   -0.00489617
     atom  372 type  1   force =    -0.00481519    0.01340081   -0.00489613
     atom  373 type  1   force =    -0.00481448    0.01340047   -0.00489573
     atom  374 type  1   force =    -0.00481509    0.01340078   -0.00489610
     atom  375 type  1   force =    -0.00481501    0.01340060   -0.00489601
     atom  376 type  1   force =    -0.00481511    0.01340074   -0.00489610
     atom  377 type  2   force =    -0.00179771   -0.00643126   -0.00006798
     atom  378 type  2   force =    -0.00179763   -0.00643115   -0.00006807
     atom  379 type  2   force =    -0.00179764   -0.00643118   -0.00006803
     atom  380 type  2   force =    -0.00179756   -0.00643059   -0.00006749
     atom  381 type  2   force =    -0.00179749   -0.00643067   -0.00006804
     atom  382 type  2   force =    -0.00179769   -0.00643113   -0.00006802
     atom  383 type  2   force =    -0.00179771   -0.00643128   -0.00006801
     atom  384 type  2   force =    -0.00179772   -0.00643121   -0.00006804
     atom  385 type  2   force =     0.00019480    0.00302120   -0.00027347
     atom  386 type  2   force =     0.00019478    0.00302127   -0.00027350
     atom  387 type  2   force =     0.00019472    0.00302136   -0.00027363
     atom  388 type  2   force =     0.00019476    0.00302195   -0.00027358
     atom  389 type  2   force =     0.00019580    0.00302222   -0.00027310
     atom  390 type  2   force =     0.00019480    0.00302129   -0.00027356
     atom  391 type  2   force =     0.00019480    0.00302121   -0.00027356
     atom  392 type  2   force =     0.00019474    0.00302117   -0.00027352
     atom  393 type  2   force =    -0.00277918   -0.00233794   -0.00032843
     atom  394 type  2   force =    -0.00277905   -0.00233812   -0.00032842
     atom  395 type  2   force =    -0.00277924   -0.00233795   -0.00032850
     atom  396 type  2   force =    -0.00277891   -0.00233774   -0.00032828
     atom  397 type  2   force =    -0.00277903   -0.00233762   -0.00032862
     atom  398 type  2   force =    -0.00277927   -0.00233800   -0.00032846
     atom  399 type  2   force =    -0.00277913   -0.00233801   -0.00032847
     atom  400 type  2   force =    -0.00277928   -0.00233803   -0.00032847
     atom  401 type  3   force =     0.00000000    0.00000000    0.00000000
     atom  402 type  3   force =     0.00000000    0.00000000    0.00000000
     atom  403 type  3   force =     0.00000000    0.00000000    0.00000000
     atom  404 type  3   force =     0.00000000    0.00000000    0.00000000
     atom  405 type  3   force =     0.00000000    0.00000000    0.00000000
     atom  406 type  3   force =     0.00000000    0.00000000    0.00000000
     atom  407 type  3   force =     0.00000000    0.00000000    0.00000000
     atom  408 type  3   force =     0.00000000    0.00000000    0.00000000
     atom  409 type  2   force =     0.00157223    0.00087741   -0.00038513
     atom  410 type  2   force =     0.00157218    0.00087750   -0.00038510
     atom  411 type  2   force =     0.00157185    0.00087745   -0.00038559
     atom  412 type  2   force =     0.00157217    0.00087752   -0.00038511
     atom  413 type  2   force =     0.00157218    0.00087743   -0.00038514
     atom  414 type  2   force =     0.00157226    0.00087771   -0.00038508
     atom  415 type  2   force =     0.00157212    0.00087729   -0.00038517
     atom  416 type  2   force =     0.00157217    0.00087754   -0.00038512
     atom  417 type  3   force =     0.00000000    0.00000000    0.00000000
     atom  418 type  3   force =     0.00000000    0.00000000    0.00000000
     atom  419 type  3   force =     0.00000000    0.00000000    0.00000000
     atom  420 type  3   force =     0.00000000    0.00000000    0.00000000
     atom  421 type  3   force =     0.00000000    0.00000000    0.00000000
     atom  422 type  3   force =     0.00000000    0.00000000    0.00000000
     atom  423 type  3   force =     0.00000000    0.00000000    0.00000000
     atom  424 type  3   force =     0.00000000    0.00000000    0.00000000
     atom  425 type  1   force =     0.00412429   -0.00325627    0.00297495
     atom  426 type  1   force =     0.00412426   -0.00325621    0.00297487
     atom  427 type  1   force =     0.00412417   -0.00325617    0.00297477
     atom  428 type  1   force =     0.00412440   -0.00325610    0.00297494
     atom  429 type  1   force =     0.00412630   -0.00325668    0.00297636
     atom  430 type  1   force =     0.00412429   -0.00325621    0.00297494
     atom  431 type  1   force =     0.00412433   -0.00325634    0.00297497
     atom  432 type  1   force =     0.00412422   -0.00325623    0.00297488
     atom  433 type  1   force =     0.00666365    0.01284246    0.00256027
     atom  434 type  1   force =     0.00666366    0.01284254    0.00256028
     atom  435 type  1   force =     0.00666355    0.01284244    0.00256020
     atom  436 type  1   force =     0.00666366    0.01284261    0.00256031
     atom  437 type  1   force =     0.00666414    0.01284317    0.00256062
     atom  438 type  1   force =     0.00666368    0.01284252    0.00256029
     atom  439 type  1   force =     0.00666362    0.01284241    0.00256024
     atom  440 type  1   force =     0.00666363    0.01284247    0.00256026
     atom  441 type  2   force =     0.00232285   -0.00172114   -0.00022364
     atom  442 type  2   force =     0.00232284   -0.00172108   -0.00022362
     atom  443 type  2   force =     0.00232269   -0.00172096   -0.00022357
     atom  444 type  2   force =     0.00232218   -0.00172075   -0.00022297
     atom  445 type  2   force =     0.00232316   -0.00172102   -0.00022364
     atom  446 type  2   force =     0.00232288   -0.00172113   -0.00022364
     atom  447 type  2   force =     0.00232282   -0.00172114   -0.00022361
     atom  448 type  2   force =     0.00232285   -0.00172127   -0.00022358
     atom  449 type  3   force =     0.00000000    0.00000000    0.00000000
     atom  450 type  3   force =     0.00000000    0.00000000    0.00000000
     atom  451 type  3   force =     0.00000000    0.00000000    0.00000000
     atom  452 type  3   force =     0.00000000    0.00000000    0.00000000
     atom  453 type  3   force =     0.00000000    0.00000000    0.00000000
     atom  454 type  3   force =     0.00000000    0.00000000    0.00000000
     atom  455 type  3   force =     0.00000000    0.00000000    0.00000000
     atom  456 type  3   force =     0.00000000    0.00000000    0.00000000
     atom  457 type  1   force =    -0.01083131   -0.00403852    0.00097749
     atom  458 type  1   force =    -0.01083193   -0.00403867    0.00097774
     atom  459 type  1   force =    -0.01083133   -0.00403857    0.00097752
     atom  460 type  1   force =    -0.01083130   -0.00403858    0.00097748
     atom  461 type  1   force =    -0.01083135   -0.00403858    0.00097751
     atom  462 type  1   force =    -0.01083154   -0.00403868    0.00097751
     atom  463 type  1   force =    -0.01083115   -0.00403846    0.00097750
     atom  464 type  1   force =    -0.01083133   -0.00403858    0.00097751
     atom  465 type  2   force =     0.00380077   -0.00229122    0.00000121
     atom  466 type  2   force =     0.00380050   -0.00229021    0.00000111
     atom  467 type  2   force =     0.00380077   -0.00229045    0.00000115
     atom  468 type  2   force =     0.00380058   -0.00229021    0.00000104
     atom  469 type  2   force =     0.00380056   -0.00229031    0.00000105
     atom  470 type  2   force =     0.00380046   -0.00229021    0.00000103
     atom  471 type  2   force =     0.00380051   -0.00229029    0.00000107
     atom  472 type  2   force =     0.00380058   -0.00229026    0.00000111
     atom  473 type  3   force =     0.00000000    0.00000000    0.00000000
     atom  474 type  3   force =     0.00000000    0.00000000    0.00000000
     atom  475 type  3   force =     0.00000000    0.00000000    0.00000000
     atom  476 type  3   force =     0.00000000    0.00000000    0.00000000
     atom  477 type  3   force =     0.00000000    0.00000000    0.00000000
     atom  478 type  3   force =     0.00000000    0.00000000    0.00000000
     atom  479 type  3   force =     0.00000000    0.00000000    0.00000000
     atom  480 type  3   force =     0.00000000    0.00000000    0.00000000
     atom  481 type  4   force =     0.00000000    0.00000000    0.00000000
     atom  482 type  4   force =     0.00000000    0.00000000    0.00000000
     atom  483 type  4   force =     0.00000000    0.00000000    0.00000000
     atom  484 type  4   force =     0.00000000    0.00000000    0.00000000
     atom  485 type  4   force =     0.00000000    0.00000000    0.00000000
     atom  486 type  4   force =     0.00000000    0.00000000    0.00000000
     atom  487 type  4   force =     0.00000000    0.00000000    0.00000000
     atom  488 type  4   force =     0.00000000    0.00000000    0.00000000
     atom  489 type  4   force =     0.00000000    0.00000000    0.00000000
     atom  490 type  4   force =     0.00000000    0.00000000    0.00000000
     atom  491 type  4   force =     0.00000000    0.00000000    0.00000000
     atom  492 type  4   force =     0.00000000    0.00000000    0.00000000
     atom  493 type  4   force =     0.00000000    0.00000000    0.00000000
     atom  494 type  4   force =     0.00000000    0.00000000    0.00000000
     atom  495 type  4   force =     0.00000000    0.00000000    0.00000000
     atom  496 type  4   force =     0.00000000    0.00000000    0.00000000
     The Hubbard contrib.    to forces
     atom    1 type  1   force =     0.00000000    0.00000000    0.00000000
     atom    2 type  1   force =     0.00000000    0.00000000    0.00000000
     atom    3 type  1   force =     0.00000000    0.00000000    0.00000000
     atom    4 type  1   force =     0.00000000    0.00000000    0.00000000
     atom    5 type  1   force =     0.00000000    0.00000000    0.00000000
     atom    6 type  1   force =     0.00000000    0.00000000    0.00000000
     atom    7 type  1   force =     0.00000000    0.00000000    0.00000000
     atom    8 type  1   force =     0.00000000    0.00000000    0.00000000
     atom    9 type  1   force =     0.00000000    0.00000000    0.00000000
     atom   10 type  1   force =     0.00000000    0.00000000    0.00000000
     atom   11 type  1   force =     0.00000000    0.00000000    0.00000000
     atom   12 type  1   force =     0.00000000    0.00000000    0.00000000
     atom   13 type  1   force =     0.00000000    0.00000000    0.00000000
     atom   14 type  1   force =     0.00000000    0.00000000    0.00000000
     atom   15 type  1   force =     0.00000000    0.00000000    0.00000000
     atom   16 type  1   force =     0.00000000    0.00000000    0.00000000
     atom   17 type  2   force =     0.00000000    0.00000000    0.00000000
     atom   18 type  2   force =     0.00000000    0.00000000    0.00000000
     atom   19 type  2   force =     0.00000000    0.00000000    0.00000000
     atom   20 type  2   force =     0.00000000    0.00000000    0.00000000
     atom   21 type  2   force =     0.00000000    0.00000000    0.00000000
     atom   22 type  2   force =     0.00000000    0.00000000    0.00000000
     atom   23 type  2   force =     0.00000000    0.00000000    0.00000000
     atom   24 type  2   force =     0.00000000    0.00000000    0.00000000
     atom   25 type  2   force =     0.00000000    0.00000000    0.00000000
     atom   26 type  2   force =     0.00000000    0.00000000    0.00000000
     atom   27 type  2   force =     0.00000000    0.00000000    0.00000000
     atom   28 type  2   force =     0.00000000    0.00000000    0.00000000
     atom   29 type  2   force =     0.00000000    0.00000000    0.00000000
     atom   30 type  2   force =     0.00000000    0.00000000    0.00000000
     atom   31 type  2   force =     0.00000000    0.00000000    0.00000000
     atom   32 type  2   force =     0.00000000    0.00000000    0.00000000
     atom   33 type  2   force =     0.00000000    0.00000000    0.00000000
     atom   34 type  2   force =     0.00000000    0.00000000    0.00000000
     atom   35 type  2   force =     0.00000000    0.00000000    0.00000000
     atom   36 type  2   force =     0.00000000    0.00000000    0.00000000
     atom   37 type  2   force =     0.00000000    0.00000000    0.00000000
     atom   38 type  2   force =     0.00000000    0.00000000    0.00000000
     atom   39 type  2   force =     0.00000000    0.00000000    0.00000000
     atom   40 type  2   force =     0.00000000    0.00000000    0.00000000
     atom   41 type  3   force =     0.00000000    0.00000000    0.00000000
     atom   42 type  3   force =     0.00000000    0.00000000    0.00000000
     atom   43 type  3   force =     0.00000000    0.00000000    0.00000000
     atom   44 type  3   force =     0.00000000    0.00000000    0.00000000
     atom   45 type  3   force =     0.00000000    0.00000000    0.00000000
     atom   46 type  3   force =     0.00000000    0.00000000    0.00000000
     atom   47 type  3   force =     0.00000000    0.00000000    0.00000000
     atom   48 type  3   force =     0.00000000    0.00000000    0.00000000
     atom   49 type  2   force =     0.00000000    0.00000000    0.00000000
     atom   50 type  2   force =     0.00000000    0.00000000    0.00000000
     atom   51 type  2   force =     0.00000000    0.00000000    0.00000000
     atom   52 type  2   force =     0.00000000    0.00000000    0.00000000
     atom   53 type  2   force =     0.00000000    0.00000000    0.00000000
     atom   54 type  2   force =     0.00000000    0.00000000    0.00000000
     atom   55 type  2   force =     0.00000000    0.00000000    0.00000000
     atom   56 type  2   force =     0.00000000    0.00000000    0.00000000
     atom   57 type  3   force =     0.00000000    0.00000000    0.00000000
     atom   58 type  3   force =     0.00000000    0.00000000    0.00000000
     atom   59 type  3   force =     0.00000000    0.00000000    0.00000000
     atom   60 type  3   force =     0.00000000    0.00000000    0.00000000
     atom   61 type  3   force =     0.00000000    0.00000000    0.00000000
     atom   62 type  3   force =     0.00000000    0.00000000    0.00000000
     atom   63 type  3   force =     0.00000000    0.00000000    0.00000000
     atom   64 type  3   force =     0.00000000    0.00000000    0.00000000
     atom   65 type  1   force =     0.00000000    0.00000000    0.00000000
     atom   66 type  1   force =     0.00000000    0.00000000    0.00000000
     atom   67 type  1   force =     0.00000000    0.00000000    0.00000000
     atom   68 type  1   force =     0.00000000    0.00000000    0.00000000
     atom   69 type  1   force =     0.00000000    0.00000000    0.00000000
     atom   70 type  1   force =     0.00000000    0.00000000    0.00000000
     atom   71 type  1   force =     0.00000000    0.00000000    0.00000000
     atom   72 type  1   force =     0.00000000    0.00000000    0.00000000
     atom   73 type  1   force =     0.00000000    0.00000000    0.00000000
     atom   74 type  1   force =     0.00000000    0.00000000    0.00000000
     atom   75 type  1   force =     0.00000000    0.00000000    0.00000000
     atom   76 type  1   force =     0.00000000    0.00000000    0.00000000
     atom   77 type  1   force =     0.00000000    0.00000000    0.00000000
     atom   78 type  1   force =     0.00000000    0.00000000    0.00000000
     atom   79 type  1   force =     0.00000000    0.00000000    0.00000000
     atom   80 type  1   force =     0.00000000    0.00000000    0.00000000
     atom   81 type  2   force =     0.00000000    0.00000000    0.00000000
     atom   82 type  2   force =     0.00000000    0.00000000    0.00000000
     atom   83 type  2   force =     0.00000000    0.00000000    0.00000000
     atom   84 type  2   force =     0.00000000    0.00000000    0.00000000
     atom   85 type  2   force =     0.00000000    0.00000000    0.00000000
     atom   86 type  2   force =     0.00000000    0.00000000    0.00000000
     atom   87 type  2   force =     0.00000000    0.00000000    0.00000000
     atom   88 type  2   force =     0.00000000    0.00000000    0.00000000
     atom   89 type  3   force =     0.00000000    0.00000000    0.00000000
     atom   90 type  3   force =     0.00000000    0.00000000    0.00000000
     atom   91 type  3   force =     0.00000000    0.00000000    0.00000000
     atom   92 type  3   force =     0.00000000    0.00000000    0.00000000
     atom   93 type  3   force =     0.00000000    0.00000000    0.00000000
     atom   94 type  3   force =     0.00000000    0.00000000    0.00000000
     atom   95 type  3   force =     0.00000000    0.00000000    0.00000000
     atom   96 type  3   force =     0.00000000    0.00000000    0.00000000
     atom   97 type  1   force =     0.00000000    0.00000000    0.00000000
     atom   98 type  1   force =     0.00000000    0.00000000    0.00000000
     atom   99 type  1   force =     0.00000000    0.00000000    0.00000000
     atom  100 type  1   force =     0.00000000    0.00000000    0.00000000
     atom  101 type  1   force =     0.00000000    0.00000000    0.00000000
     atom  102 type  1   force =     0.00000000    0.00000000    0.00000000
     atom  103 type  1   force =     0.00000000    0.00000000    0.00000000
     atom  104 type  1   force =     0.00000000    0.00000000    0.00000000
     atom  105 type  2   force =     0.00000000    0.00000000    0.00000000
     atom  106 type  2   force =     0.00000000    0.00000000    0.00000000
     atom  107 type  2   force =     0.00000000    0.00000000    0.00000000
     atom  108 type  2   force =     0.00000000    0.00000000    0.00000000
     atom  109 type  2   force =     0.00000000    0.00000000    0.00000000
     atom  110 type  2   force =     0.00000000    0.00000000    0.00000000
     atom  111 type  2   force =     0.00000000    0.00000000    0.00000000
     atom  112 type  2   force =     0.00000000    0.00000000    0.00000000
     atom  113 type  3   force =     0.00000000    0.00000000    0.00000000
     atom  114 type  3   force =     0.00000000    0.00000000    0.00000000
     atom  115 type  3   force =     0.00000000    0.00000000    0.00000000
     atom  116 type  3   force =     0.00000000    0.00000000    0.00000000
     atom  117 type  3   force =     0.00000000    0.00000000    0.00000000
     atom  118 type  3   force =     0.00000000    0.00000000    0.00000000
     atom  119 type  3   force =     0.00000000    0.00000000    0.00000000
     atom  120 type  3   force =     0.00000000    0.00000000    0.00000000
     atom  121 type  1   force =     0.00000000    0.00000000    0.00000000
     atom  122 type  1   force =     0.00000000    0.00000000    0.00000000
     atom  123 type  1   force =     0.00000000    0.00000000    0.00000000
     atom  124 type  1   force =     0.00000000    0.00000000    0.00000000
     atom  125 type  1   force =     0.00000000    0.00000000    0.00000000
     atom  126 type  1   force =     0.00000000    0.00000000    0.00000000
     atom  127 type  1   force =     0.00000000    0.00000000    0.00000000
     atom  128 type  1   force =     0.00000000    0.00000000    0.00000000
     atom  129 type  1   force =     0.00000000    0.00000000    0.00000000
     atom  130 type  1   force =     0.00000000    0.00000000    0.00000000
     atom  131 type  1   force =     0.00000000    0.00000000    0.00000000
     atom  132 type  1   force =     0.00000000    0.00000000    0.00000000
     atom  133 type  1   force =     0.00000000    0.00000000    0.00000000
     atom  134 type  1   force =     0.00000000    0.00000000    0.00000000
     atom  135 type  1   force =     0.00000000    0.00000000    0.00000000
     atom  136 type  1   force =     0.00000000    0.00000000    0.00000000
     atom  137 type  2   force =     0.00000000    0.00000000    0.00000000
     atom  138 type  2   force =     0.00000000    0.00000000    0.00000000
     atom  139 type  2   force =     0.00000000    0.00000000    0.00000000
     atom  140 type  2   force =     0.00000000    0.00000000    0.00000000
     atom  141 type  2   force =     0.00000000    0.00000000    0.00000000
     atom  142 type  2   force =     0.00000000    0.00000000    0.00000000
     atom  143 type  2   force =     0.00000000    0.00000000    0.00000000
     atom  144 type  2   force =     0.00000000    0.00000000    0.00000000
     atom  145 type  2   force =     0.00000000    0.00000000    0.00000000
     atom  146 type  2   force =     0.00000000    0.00000000    0.00000000
     atom  147 type  2   force =     0.00000000    0.00000000    0.00000000
     atom  148 type  2   force =     0.00000000    0.00000000    0.00000000
     atom  149 type  2   force =     0.00000000    0.00000000    0.00000000
     atom  150 type  2   force =     0.00000000    0.00000000    0.00000000
     atom  151 type  2   force =     0.00000000    0.00000000    0.00000000
     atom  152 type  2   force =     0.00000000    0.00000000    0.00000000
     atom  153 type  2   force =     0.00000000    0.00000000    0.00000000
     atom  154 type  2   force =     0.00000000    0.00000000    0.00000000
     atom  155 type  2   force =     0.00000000    0.00000000    0.00000000
     atom  156 type  2   force =     0.00000000    0.00000000    0.00000000
     atom  157 type  2   force =     0.00000000    0.00000000    0.00000000
     atom  158 type  2   force =     0.00000000    0.00000000    0.00000000
     atom  159 type  2   force =     0.00000000    0.00000000    0.00000000
     atom  160 type  2   force =     0.00000000    0.00000000    0.00000000
     atom  161 type  3   force =     0.00000000    0.00000000    0.00000000
     atom  162 type  3   force =     0.00000000    0.00000000    0.00000000
     atom  163 type  3   force =     0.00000000    0.00000000    0.00000000
     atom  164 type  3   force =     0.00000000    0.00000000    0.00000000
     atom  165 type  3   force =     0.00000000    0.00000000    0.00000000
     atom  166 type  3   force =     0.00000000    0.00000000    0.00000000
     atom  167 type  3   force =     0.00000000    0.00000000    0.00000000
     atom  168 type  3   force =     0.00000000    0.00000000    0.00000000
     atom  169 type  2   force =     0.00000000    0.00000000    0.00000000
     atom  170 type  2   force =     0.00000000    0.00000000    0.00000000
     atom  171 type  2   force =     0.00000000    0.00000000    0.00000000
     atom  172 type  2   force =     0.00000000    0.00000000    0.00000000
     atom  173 type  2   force =     0.00000000    0.00000000    0.00000000
     atom  174 type  2   force =     0.00000000    0.00000000    0.00000000
     atom  175 type  2   force =     0.00000000    0.00000000    0.00000000
     atom  176 type  2   force =     0.00000000    0.00000000    0.00000000
     atom  177 type  3   force =     0.00000000    0.00000000    0.00000000
     atom  178 type  3   force =     0.00000000    0.00000000    0.00000000
     atom  179 type  3   force =     0.00000000    0.00000000    0.00000000
     atom  180 type  3   force =     0.00000000    0.00000000    0.00000000
     atom  181 type  3   force =     0.00000000    0.00000000    0.00000000
     atom  182 type  3   force =     0.00000000    0.00000000    0.00000000
     atom  183 type  3   force =     0.00000000    0.00000000    0.00000000
     atom  184 type  3   force =     0.00000000    0.00000000    0.00000000
     atom  185 type  1   force =     0.00000000    0.00000000    0.00000000
     atom  186 type  1   force =     0.00000000    0.00000000    0.00000000
     atom  187 type  1   force =     0.00000000    0.00000000    0.00000000
     atom  188 type  1   force =     0.00000000    0.00000000    0.00000000
     atom  189 type  1   force =     0.00000000    0.00000000    0.00000000
     atom  190 type  1   force =     0.00000000    0.00000000    0.00000000
     atom  191 type  1   force =     0.00000000    0.00000000    0.00000000
     atom  192 type  1   force =     0.00000000    0.00000000    0.00000000
     atom  193 type  1   force =     0.00000000    0.00000000    0.00000000
     atom  194 type  1   force =     0.00000000    0.00000000    0.00000000
     atom  195 type  1   force =     0.00000000    0.00000000    0.00000000
     atom  196 type  1   force =     0.00000000    0.00000000    0.00000000
     atom  197 type  1   force =     0.00000000    0.00000000    0.00000000
     atom  198 type  1   force =     0.00000000    0.00000000    0.00000000
     atom  199 type  1   force =     0.00000000    0.00000000    0.00000000
     atom  200 type  1   force =     0.00000000    0.00000000    0.00000000
     atom  201 type  2   force =     0.00000000    0.00000000    0.00000000
     atom  202 type  2   force =     0.00000000    0.00000000    0.00000000
     atom  203 type  2   force =     0.00000000    0.00000000    0.00000000
     atom  204 type  2   force =     0.00000000    0.00000000    0.00000000
     atom  205 type  2   force =     0.00000000    0.00000000    0.00000000
     atom  206 type  2   force =     0.00000000    0.00000000    0.00000000
     atom  207 type  2   force =     0.00000000    0.00000000    0.00000000
     atom  208 type  2   force =     0.00000000    0.00000000    0.00000000
     atom  209 type  3   force =     0.00000000    0.00000000    0.00000000
     atom  210 type  3   force =     0.00000000    0.00000000    0.00000000
     atom  211 type  3   force =     0.00000000    0.00000000    0.00000000
     atom  212 type  3   force =     0.00000000    0.00000000    0.00000000
     atom  213 type  3   force =     0.00000000    0.00000000    0.00000000
     atom  214 type  3   force =     0.00000000    0.00000000    0.00000000
     atom  215 type  3   force =     0.00000000    0.00000000    0.00000000
     atom  216 type  3   force =     0.00000000    0.00000000    0.00000000
     atom  217 type  1   force =     0.00000000    0.00000000    0.00000000
     atom  218 type  1   force =     0.00000000    0.00000000    0.00000000
     atom  219 type  1   force =     0.00000000    0.00000000    0.00000000
     atom  220 type  1   force =     0.00000000    0.00000000    0.00000000
     atom  221 type  1   force =     0.00000000    0.00000000    0.00000000
     atom  222 type  1   force =     0.00000000    0.00000000    0.00000000
     atom  223 type  1   force =     0.00000000    0.00000000    0.00000000
     atom  224 type  1   force =     0.00000000    0.00000000    0.00000000
     atom  225 type  2   force =     0.00000000    0.00000000    0.00000000
     atom  226 type  2   force =     0.00000000    0.00000000    0.00000000
     atom  227 type  2   force =     0.00000000    0.00000000    0.00000000
     atom  228 type  2   force =     0.00000000    0.00000000    0.00000000
     atom  229 type  2   force =     0.00000000    0.00000000    0.00000000
     atom  230 type  2   force =     0.00000000    0.00000000    0.00000000
     atom  231 type  2   force =     0.00000000    0.00000000    0.00000000
     atom  232 type  2   force =     0.00000000    0.00000000    0.00000000
     atom  233 type  3   force =     0.00000000    0.00000000    0.00000000
     atom  234 type  3   force =     0.00000000    0.00000000    0.00000000
     atom  235 type  3   force =     0.00000000    0.00000000    0.00000000
     atom  236 type  3   force =     0.00000000    0.00000000    0.00000000
     atom  237 type  3   force =     0.00000000    0.00000000    0.00000000
     atom  238 type  3   force =     0.00000000    0.00000000    0.00000000
     atom  239 type  3   force =     0.00000000    0.00000000    0.00000000
     atom  240 type  3   force =     0.00000000    0.00000000    0.00000000
     atom  241 type  1   force =     0.00000000    0.00000000    0.00000000
     atom  242 type  1   force =     0.00000000    0.00000000    0.00000000
     atom  243 type  1   force =     0.00000000    0.00000000    0.00000000
     atom  244 type  1   force =     0.00000000    0.00000000    0.00000000
     atom  245 type  1   force =     0.00000000    0.00000000    0.00000000
     atom  246 type  1   force =     0.00000000    0.00000000    0.00000000
     atom  247 type  1   force =     0.00000000    0.00000000    0.00000000
     atom  248 type  1   force =     0.00000000    0.00000000    0.00000000
     atom  249 type  1   force =     0.00000000    0.00000000    0.00000000
     atom  250 type  1   force =     0.00000000    0.00000000    0.00000000
     atom  251 type  1   force =     0.00000000    0.00000000    0.00000000
     atom  252 type  1   force =     0.00000000    0.00000000    0.00000000
     atom  253 type  1   force =     0.00000000    0.00000000    0.00000000
     atom  254 type  1   force =     0.00000000    0.00000000    0.00000000
     atom  255 type  1   force =     0.00000000    0.00000000    0.00000000
     atom  256 type  1   force =     0.00000000    0.00000000    0.00000000
     atom  257 type  2   force =     0.00000000    0.00000000    0.00000000
     atom  258 type  2   force =     0.00000000    0.00000000    0.00000000
     atom  259 type  2   force =     0.00000000    0.00000000    0.00000000
     atom  260 type  2   force =     0.00000000    0.00000000    0.00000000
     atom  261 type  2   force =     0.00000000    0.00000000    0.00000000
     atom  262 type  2   force =     0.00000000    0.00000000    0.00000000
     atom  263 type  2   force =     0.00000000    0.00000000    0.00000000
     atom  264 type  2   force =     0.00000000    0.00000000    0.00000000
     atom  265 type  2   force =     0.00000000    0.00000000    0.00000000
     atom  266 type  2   force =     0.00000000    0.00000000    0.00000000
     atom  267 type  2   force =     0.00000000    0.00000000    0.00000000
     atom  268 type  2   force =     0.00000000    0.00000000    0.00000000
     atom  269 type  2   force =     0.00000000    0.00000000    0.00000000
     atom  270 type  2   force =     0.00000000    0.00000000    0.00000000
     atom  271 type  2   force =     0.00000000    0.00000000    0.00000000
     atom  272 type  2   force =     0.00000000    0.00000000    0.00000000
     atom  273 type  2   force =     0.00000000    0.00000000    0.00000000
     atom  274 type  2   force =     0.00000000    0.00000000    0.00000000
     atom  275 type  2   force =     0.00000000    0.00000000    0.00000000
     atom  276 type  2   force =     0.00000000    0.00000000    0.00000000
     atom  277 type  2   force =     0.00000000    0.00000000    0.00000000
     atom  278 type  2   force =     0.00000000    0.00000000    0.00000000
     atom  279 type  2   force =     0.00000000    0.00000000    0.00000000
     atom  280 type  2   force =     0.00000000    0.00000000    0.00000000
     atom  281 type  3   force =     0.00000000    0.00000000    0.00000000
     atom  282 type  3   force =     0.00000000    0.00000000    0.00000000
     atom  283 type  3   force =     0.00000000    0.00000000    0.00000000
     atom  284 type  3   force =     0.00000000    0.00000000    0.00000000
     atom  285 type  3   force =     0.00000000    0.00000000    0.00000000
     atom  286 type  3   force =     0.00000000    0.00000000    0.00000000
     atom  287 type  3   force =     0.00000000    0.00000000    0.00000000
     atom  288 type  3   force =     0.00000000    0.00000000    0.00000000
     atom  289 type  2   force =     0.00000000    0.00000000    0.00000000
     atom  290 type  2   force =     0.00000000    0.00000000    0.00000000
     atom  291 type  2   force =     0.00000000    0.00000000    0.00000000
     atom  292 type  2   force =     0.00000000    0.00000000    0.00000000
     atom  293 type  2   force =     0.00000000    0.00000000    0.00000000
     atom  294 type  2   force =     0.00000000    0.00000000    0.00000000
     atom  295 type  2   force =     0.00000000    0.00000000    0.00000000
     atom  296 type  2   force =     0.00000000    0.00000000    0.00000000
     atom  297 type  3   force =     0.00000000    0.00000000    0.00000000
     atom  298 type  3   force =     0.00000000    0.00000000    0.00000000
     atom  299 type  3   force =     0.00000000    0.00000000    0.00000000
     atom  300 type  3   force =     0.00000000    0.00000000    0.00000000
     atom  301 type  3   force =     0.00000000    0.00000000    0.00000000
     atom  302 type  3   force =     0.00000000    0.00000000    0.00000000
     atom  303 type  3   force =     0.00000000    0.00000000    0.00000000
     atom  304 type  3   force =     0.00000000    0.00000000    0.00000000
     atom  305 type  1   force =     0.00000000    0.00000000    0.00000000
     atom  306 type  1   force =     0.00000000    0.00000000    0.00000000
     atom  307 type  1   force =     0.00000000    0.00000000    0.00000000
     atom  308 type  1   force =     0.00000000    0.00000000    0.00000000
     atom  309 type  1   force =     0.00000000    0.00000000    0.00000000
     atom  310 type  1   force =     0.00000000    0.00000000    0.00000000
     atom  311 type  1   force =     0.00000000    0.00000000    0.00000000
     atom  312 type  1   force =     0.00000000    0.00000000    0.00000000
     atom  313 type  1   force =     0.00000000    0.00000000    0.00000000
     atom  314 type  1   force =     0.00000000    0.00000000    0.00000000
     atom  315 type  1   force =     0.00000000    0.00000000    0.00000000
     atom  316 type  1   force =     0.00000000    0.00000000    0.00000000
     atom  317 type  1   force =     0.00000000    0.00000000    0.00000000
     atom  318 type  1   force =     0.00000000    0.00000000    0.00000000
     atom  319 type  1   force =     0.00000000    0.00000000    0.00000000
     atom  320 type  1   force =     0.00000000    0.00000000    0.00000000
     atom  321 type  2   force =     0.00000000    0.00000000    0.00000000
     atom  322 type  2   force =     0.00000000    0.00000000    0.00000000
     atom  323 type  2   force =     0.00000000    0.00000000    0.00000000
     atom  324 type  2   force =     0.00000000    0.00000000    0.00000000
     atom  325 type  2   force =     0.00000000    0.00000000    0.00000000
     atom  326 type  2   force =     0.00000000    0.00000000    0.00000000
     atom  327 type  2   force =     0.00000000    0.00000000    0.00000000
     atom  328 type  2   force =     0.00000000    0.00000000    0.00000000
     atom  329 type  3   force =     0.00000000    0.00000000    0.00000000
     atom  330 type  3   force =     0.00000000    0.00000000    0.00000000
     atom  331 type  3   force =     0.00000000    0.00000000    0.00000000
     atom  332 type  3   force =     0.00000000    0.00000000    0.00000000
     atom  333 type  3   force =     0.00000000    0.00000000    0.00000000
     atom  334 type  3   force =     0.00000000    0.00000000    0.00000000
     atom  335 type  3   force =     0.00000000    0.00000000    0.00000000
     atom  336 type  3   force =     0.00000000    0.00000000    0.00000000
     atom  337 type  1   force =     0.00000000    0.00000000    0.00000000
     atom  338 type  1   force =     0.00000000    0.00000000    0.00000000
     atom  339 type  1   force =     0.00000000    0.00000000    0.00000000
     atom  340 type  1   force =     0.00000000    0.00000000    0.00000000
     atom  341 type  1   force =     0.00000000    0.00000000    0.00000000
     atom  342 type  1   force =     0.00000000    0.00000000    0.00000000
     atom  343 type  1   force =     0.00000000    0.00000000    0.00000000
     atom  344 type  1   force =     0.00000000    0.00000000    0.00000000
     atom  345 type  2   force =     0.00000000    0.00000000    0.00000000
     atom  346 type  2   force =     0.00000000    0.00000000    0.00000000
     atom  347 type  2   force =     0.00000000    0.00000000    0.00000000
     atom  348 type  2   force =     0.00000000    0.00000000    0.00000000
     atom  349 type  2   force =     0.00000000    0.00000000    0.00000000
     atom  350 type  2   force =     0.00000000    0.00000000    0.00000000
     atom  351 type  2   force =     0.00000000    0.00000000    0.00000000
     atom  352 type  2   force =     0.00000000    0.00000000    0.00000000
     atom  353 type  3   force =     0.00000000    0.00000000    0.00000000
     atom  354 type  3   force =     0.00000000    0.00000000    0.00000000
     atom  355 type  3   force =     0.00000000    0.00000000    0.00000000
     atom  356 type  3   force =     0.00000000    0.00000000    0.00000000
     atom  357 type  3   force =     0.00000000    0.00000000    0.00000000
     atom  358 type  3   force =     0.00000000    0.00000000    0.00000000
     atom  359 type  3   force =     0.00000000    0.00000000    0.00000000
     atom  360 type  3   force =     0.00000000    0.00000000    0.00000000
     atom  361 type  1   force =     0.00000000    0.00000000    0.00000000
     atom  362 type  1   force =     0.00000000    0.00000000    0.00000000
     atom  363 type  1   force =     0.00000000    0.00000000    0.00000000
     atom  364 type  1   force =     0.00000000    0.00000000    0.00000000
     atom  365 type  1   force =     0.00000000    0.00000000    0.00000000
     atom  366 type  1   force =     0.00000000    0.00000000    0.00000000
     atom  367 type  1   force =     0.00000000    0.00000000    0.00000000
     atom  368 type  1   force =     0.00000000    0.00000000    0.00000000
     atom  369 type  1   force =     0.00000000    0.00000000    0.00000000
     atom  370 type  1   force =     0.00000000    0.00000000    0.00000000
     atom  371 type  1   force =     0.00000000    0.00000000    0.00000000
     atom  372 type  1   force =     0.00000000    0.00000000    0.00000000
     atom  373 type  1   force =     0.00000000    0.00000000    0.00000000
     atom  374 type  1   force =     0.00000000    0.00000000    0.00000000
     atom  375 type  1   force =     0.00000000    0.00000000    0.00000000
     atom  376 type  1   force =     0.00000000    0.00000000    0.00000000
     atom  377 type  2   force =     0.00000000    0.00000000    0.00000000
     atom  378 type  2   force =     0.00000000    0.00000000    0.00000000
     atom  379 type  2   force =     0.00000000    0.00000000    0.00000000
     atom  380 type  2   force =     0.00000000    0.00000000    0.00000000
     atom  381 type  2   force =     0.00000000    0.00000000    0.00000000
     atom  382 type  2   force =     0.00000000    0.00000000    0.00000000
     atom  383 type  2   force =     0.00000000    0.00000000    0.00000000
     atom  384 type  2   force =     0.00000000    0.00000000    0.00000000
     atom  385 type  2   force =     0.00000000    0.00000000    0.00000000
     atom  386 type  2   force =     0.00000000    0.00000000    0.00000000
     atom  387 type  2   force =     0.00000000    0.00000000    0.00000000
     atom  388 type  2   force =     0.00000000    0.00000000    0.00000000
     atom  389 type  2   force =     0.00000000    0.00000000    0.00000000
     atom  390 type  2   force =     0.00000000    0.00000000    0.00000000
     atom  391 type  2   force =     0.00000000    0.00000000    0.00000000
     atom  392 type  2   force =     0.00000000    0.00000000    0.00000000
     atom  393 type  2   force =     0.00000000    0.00000000    0.00000000
     atom  394 type  2   force =     0.00000000    0.00000000    0.00000000
     atom  395 type  2   force =     0.00000000    0.00000000    0.00000000
     atom  396 type  2   force =     0.00000000    0.00000000    0.00000000
     atom  397 type  2   force =     0.00000000    0.00000000    0.00000000
     atom  398 type  2   force =     0.00000000    0.00000000    0.00000000
     atom  399 type  2   force =     0.00000000    0.00000000    0.00000000
     atom  400 type  2   force =     0.00000000    0.00000000    0.00000000
     atom  401 type  3   force =     0.00000000    0.00000000    0.00000000
     atom  402 type  3   force =     0.00000000    0.00000000    0.00000000
     atom  403 type  3   force =     0.00000000    0.00000000    0.00000000
     atom  404 type  3   force =     0.00000000    0.00000000    0.00000000
     atom  405 type  3   force =     0.00000000    0.00000000    0.00000000
     atom  406 type  3   force =     0.00000000    0.00000000    0.00000000
     atom  407 type  3   force =     0.00000000    0.00000000    0.00000000
     atom  408 type  3   force =     0.00000000    0.00000000    0.00000000
     atom  409 type  2   force =     0.00000000    0.00000000    0.00000000
     atom  410 type  2   force =     0.00000000    0.00000000    0.00000000
     atom  411 type  2   force =     0.00000000    0.00000000    0.00000000
     atom  412 type  2   force =     0.00000000    0.00000000    0.00000000
     atom  413 type  2   force =     0.00000000    0.00000000    0.00000000
     atom  414 type  2   force =     0.00000000    0.00000000    0.00000000
     atom  415 type  2   force =     0.00000000    0.00000000    0.00000000
     atom  416 type  2   force =     0.00000000    0.00000000    0.00000000
     atom  417 type  3   force =     0.00000000    0.00000000    0.00000000
     atom  418 type  3   force =     0.00000000    0.00000000    0.00000000
     atom  419 type  3   force =     0.00000000    0.00000000    0.00000000
     atom  420 type  3   force =     0.00000000    0.00000000    0.00000000
     atom  421 type  3   force =     0.00000000    0.00000000    0.00000000
     atom  422 type  3   force =     0.00000000    0.00000000    0.00000000
     atom  423 type  3   force =     0.00000000    0.00000000    0.00000000
     atom  424 type  3   force =     0.00000000    0.00000000    0.00000000
     atom  425 type  1   force =     0.00000000    0.00000000    0.00000000
     atom  426 type  1   force =     0.00000000    0.00000000    0.00000000
     atom  427 type  1   force =     0.00000000    0.00000000    0.00000000
     atom  428 type  1   force =     0.00000000    0.00000000    0.00000000
     atom  429 type  1   force =     0.00000000    0.00000000    0.00000000
     atom  430 type  1   force =     0.00000000    0.00000000    0.00000000
     atom  431 type  1   force =     0.00000000    0.00000000    0.00000000
     atom  432 type  1   force =     0.00000000    0.00000000    0.00000000
     atom  433 type  1   force =     0.00000000    0.00000000    0.00000000
     atom  434 type  1   force =     0.00000000    0.00000000    0.00000000
     atom  435 type  1   force =     0.00000000    0.00000000    0.00000000
     atom  436 type  1   force =     0.00000000    0.00000000    0.00000000
     atom  437 type  1   force =     0.00000000    0.00000000    0.00000000
     atom  438 type  1   force =     0.00000000    0.00000000    0.00000000
     atom  439 type  1   force =     0.00000000    0.00000000    0.00000000
     atom  440 type  1   force =     0.00000000    0.00000000    0.00000000
     atom  441 type  2   force =     0.00000000    0.00000000    0.00000000
     atom  442 type  2   force =     0.00000000    0.00000000    0.00000000
     atom  443 type  2   force =     0.00000000    0.00000000    0.00000000
     atom  444 type  2   force =     0.00000000    0.00000000    0.00000000
     atom  445 type  2   force =     0.00000000    0.00000000    0.00000000
     atom  446 type  2   force =     0.00000000    0.00000000    0.00000000
     atom  447 type  2   force =     0.00000000    0.00000000    0.00000000
     atom  448 type  2   force =     0.00000000    0.00000000    0.00000000
     atom  449 type  3   force =     0.00000000    0.00000000    0.00000000
     atom  450 type  3   force =     0.00000000    0.00000000    0.00000000
     atom  451 type  3   force =     0.00000000    0.00000000    0.00000000
     atom  452 type  3   force =     0.00000000    0.00000000    0.00000000
     atom  453 type  3   force =     0.00000000    0.00000000    0.00000000
     atom  454 type  3   force =     0.00000000    0.00000000    0.00000000
     atom  455 type  3   force =     0.00000000    0.00000000    0.00000000
     atom  456 type  3   force =     0.00000000    0.00000000    0.00000000
     atom  457 type  1   force =     0.00000000    0.00000000    0.00000000
     atom  458 type  1   force =     0.00000000    0.00000000    0.00000000
     atom  459 type  1   force =     0.00000000    0.00000000    0.00000000
     atom  460 type  1   force =     0.00000000    0.00000000    0.00000000
     atom  461 type  1   force =     0.00000000    0.00000000    0.00000000
     atom  462 type  1   force =     0.00000000    0.00000000    0.00000000
     atom  463 type  1   force =     0.00000000    0.00000000    0.00000000
     atom  464 type  1   force =     0.00000000    0.00000000    0.00000000
     atom  465 type  2   force =     0.00000000    0.00000000    0.00000000
     atom  466 type  2   force =     0.00000000    0.00000000    0.00000000
     atom  467 type  2   force =     0.00000000    0.00000000    0.00000000
     atom  468 type  2   force =     0.00000000    0.00000000    0.00000000
     atom  469 type  2   force =     0.00000000    0.00000000    0.00000000
     atom  470 type  2   force =     0.00000000    0.00000000    0.00000000
     atom  471 type  2   force =     0.00000000    0.00000000    0.00000000
     atom  472 type  2   force =     0.00000000    0.00000000    0.00000000
     atom  473 type  3   force =     0.00000000    0.00000000    0.00000000
     atom  474 type  3   force =     0.00000000    0.00000000    0.00000000
     atom  475 type  3   force =     0.00000000    0.00000000    0.00000000
     atom  476 type  3   force =     0.00000000    0.00000000    0.00000000
     atom  477 type  3   force =     0.00000000    0.00000000    0.00000000
     atom  478 type  3   force =     0.00000000    0.00000000    0.00000000
     atom  479 type  3   force =     0.00000000    0.00000000    0.00000000
     atom  480 type  3   force =     0.00000000    0.00000000    0.00000000
     atom  481 type  4   force =     0.00000000    0.00000000    0.00000000
     atom  482 type  4   force =     0.00000000    0.00000000    0.00000000
     atom  483 type  4   force =     0.00000000    0.00000000    0.00000000
     atom  484 type  4   force =     0.00000000    0.00000000    0.00000000
     atom  485 type  4   force =     0.00000000    0.00000000    0.00000000
     atom  486 type  4   force =     0.00000000    0.00000000    0.00000000
     atom  487 type  4   force =     0.00000000    0.00000000    0.00000000
     atom  488 type  4   force =     0.00000000    0.00000000    0.00000000
     atom  489 type  4   force =     0.00000000    0.00000000    0.00000000
     atom  490 type  4   force =     0.00000000    0.00000000    0.00000000
     atom  491 type  4   force =     0.00000000    0.00000000    0.00000000
     atom  492 type  4   force =     0.00000000    0.00000000    0.00000000
     atom  493 type  4   force =     0.00000000    0.00000000    0.00000000
     atom  494 type  4   force =     0.00000000    0.00000000    0.00000000
     atom  495 type  4   force =     0.00000000    0.00000000    0.00000000
     atom  496 type  4   force =     0.00000000    0.00000000    0.00000000
     The SCF correction term to forces
     atom    1 type  1   force =     0.00000682   -0.00000485   -0.00000121
     atom    2 type  1   force =     0.00000752   -0.00000487   -0.00000107
     atom    3 type  1   force =     0.00000353   -0.00000458   -0.00000159
     atom    4 type  1   force =     0.00000515   -0.00000388   -0.00000113
     atom    5 type  1   force =     0.00000598   -0.00000617   -0.00000201
     atom    6 type  1   force =     0.00000482   -0.00000365   -0.00000090
     atom    7 type  1   force =     0.00000589   -0.00000446   -0.00000125
     atom    8 type  1   force =     0.00000463   -0.00000556   -0.00000181
     atom    9 type  1   force =     0.00000916   -0.00000127    0.00000070
     atom   10 type  1   force =     0.00000911   -0.00000041    0.00000115
     atom   11 type  1   force =     0.00000654    0.00000209    0.00000207
     atom   12 type  1   force =     0.00000536    0.00000056    0.00000120
     atom   13 type  1   force =     0.00000620    0.00000190    0.00000203
     atom   14 type  1   force =     0.00000962   -0.00000311   -0.00000040
     atom   15 type  1   force =     0.00000730   -0.00000083    0.00000078
     atom   16 type  1   force =     0.00000766    0.00000044    0.00000139
     atom   17 type  2   force =    -0.00000111    0.00000186    0.00000120
     atom   18 type  2   force =    -0.00000099    0.00000259    0.00000113
     atom   19 type  2   force =    -0.00000029    0.00000279    0.00000106
     atom   20 type  2   force =     0.00000009    0.00000179    0.00000106
     atom   21 type  2   force =    -0.00000058    0.00000278    0.00000137
     atom   22 type  2   force =    -0.00000085    0.00000134    0.00000104
     atom   23 type  2   force =    -0.00000034    0.00000137    0.00000115
     atom   24 type  2   force =    -0.00000090    0.00000213    0.00000110
     atom   25 type  2   force =    -0.00000221    0.00000225    0.00000209
     atom   26 type  2   force =    -0.00000246    0.00000252    0.00000199
     atom   27 type  2   force =    -0.00000219    0.00000344    0.00000233
     atom   28 type  2   force =    -0.00000178    0.00000164    0.00000162
     atom   29 type  2   force =    -0.00000197    0.00000346    0.00000267
     atom   30 type  2   force =    -0.00000267    0.00000065    0.00000112
     atom   31 type  2   force =    -0.00000232    0.00000096    0.00000136
     atom   32 type  2   force =    -0.00000186    0.00000203    0.00000184
     atom   33 type  2   force =    -0.00000284    0.00000160    0.00000155
     atom   34 type  2   force =    -0.00000268    0.00000091    0.00000136
     atom   35 type  2   force =    -0.00000252    0.00000111    0.00000148
     atom   36 type  2   force =    -0.00000309    0.00000124    0.00000143
     atom   37 type  2   force =    -0.00000304    0.00000098    0.00000152
     atom   38 type  2   force =    -0.00000294    0.00000153    0.00000149
     atom   39 type  2   force =    -0.00000253    0.00000172    0.00000139
     atom   40 type  2   force =    -0.00000216    0.00000117    0.00000130
     atom   41 type  3   force =    -0.00000052   -0.00000012    0.00000069
     atom   42 type  3   force =    -0.00000046   -0.00000010    0.00000059
     atom   43 type  3   force =    -0.00000042   -0.00000004    0.00000063
     atom   44 type  3   force =    -0.00000053   -0.00000013    0.00000064
     atom   45 type  3   force =    -0.00000055   -0.00000016    0.00000066
     atom   46 type  3   force =    -0.00000054   -0.00000011    0.00000067
     atom   47 type  3   force =    -0.00000047   -0.00000008    0.00000066
     atom   48 type  3   force =    -0.00000035   -0.00000006    0.00000058
     atom   49 type  2   force =     0.00000019    0.00000350   -0.00000120
     atom   50 type  2   force =     0.00000034    0.00000241   -0.00000122
     atom   51 type  2   force =     0.00000015    0.00000234   -0.00000102
     atom   52 type  2   force =     0.00000001    0.00000323   -0.00000117
     atom   53 type  2   force =     0.00000022    0.00000260   -0.00000114
     atom   54 type  2   force =     0.00000025    0.00000339   -0.00000126
     atom   55 type  2   force =     0.00000041    0.00000377   -0.00000110
     atom   56 type  2   force =     0.00000041    0.00000263   -0.00000119
     atom   57 type  3   force =     0.00000060    0.00000045   -0.00000032
     atom   58 type  3   force =     0.00000050    0.00000030   -0.00000034
     atom   59 type  3   force =     0.00000043    0.00000026   -0.00000028
     atom   60 type  3   force =     0.00000055    0.00000038   -0.00000030
     atom   61 type  3   force =     0.00000050    0.00000030   -0.00000032
     atom   62 type  3   force =     0.00000058    0.00000042   -0.00000033
     atom   63 type  3   force =     0.00000063    0.00000050   -0.00000028
     atom   64 type  3   force =     0.00000049    0.00000025   -0.00000033
     atom   65 type  1   force =     0.00000185    0.00000613    0.00000539
     atom   66 type  1   force =     0.00000081    0.00000665    0.00000544
     atom   67 type  1   force =    -0.00000142    0.00000697    0.00000511
     atom   68 type  1   force =    -0.00000174    0.00000554    0.00000449
     atom   69 type  1   force =    -0.00000113    0.00000681    0.00000535
     atom   70 type  1   force =     0.00000162    0.00000541    0.00000498
     atom   71 type  1   force =    -0.00000080    0.00000549    0.00000486
     atom   72 type  1   force =    -0.00000038    0.00000593    0.00000508
     atom   73 type  1   force =     0.00001039    0.00001023    0.00000884
     atom   74 type  1   force =     0.00000997    0.00001050    0.00000882
     atom   75 type  1   force =     0.00000832    0.00001027    0.00000827
     atom   76 type  1   force =     0.00000593    0.00000758    0.00000656
     atom   77 type  1   force =     0.00000815    0.00000991    0.00000823
     atom   78 type  1   force =     0.00000918    0.00000839    0.00000749
     atom   79 type  1   force =     0.00000698    0.00000810    0.00000724
     atom   80 type  1   force =     0.00000808    0.00000950    0.00000807
     atom   81 type  2   force =    -0.00000457    0.00000231   -0.00000063
     atom   82 type  2   force =    -0.00000497    0.00000271   -0.00000070
     atom   83 type  2   force =    -0.00000464    0.00000280   -0.00000062
     atom   84 type  2   force =    -0.00000394    0.00000205   -0.00000060
     atom   85 type  2   force =    -0.00000466    0.00000279   -0.00000050
     atom   86 type  2   force =    -0.00000449    0.00000209   -0.00000070
     atom   87 type  2   force =    -0.00000422    0.00000181   -0.00000059
     atom   88 type  2   force =    -0.00000508    0.00000261   -0.00000069
     atom   89 type  3   force =    -0.00000100    0.00000030   -0.00000025
     atom   90 type  3   force =    -0.00000085    0.00000033   -0.00000028
     atom   91 type  3   force =    -0.00000076    0.00000021   -0.00000025
     atom   92 type  3   force =    -0.00000090    0.00000027   -0.00000021
     atom   93 type  3   force =    -0.00000095    0.00000033   -0.00000030
     atom   94 type  3   force =    -0.00000090    0.00000029   -0.00000018
     atom   95 type  3   force =    -0.00000092    0.00000030   -0.00000027
     atom   96 type  3   force =    -0.00000081    0.00000025   -0.00000028
     atom   97 type  1   force =    -0.00000351    0.00000067   -0.00000151
     atom   98 type  1   force =    -0.00000339    0.00000040   -0.00000132
     atom   99 type  1   force =    -0.00000280    0.00000036   -0.00000136
     atom  100 type  1   force =    -0.00000345    0.00000092   -0.00000126
     atom  101 type  1   force =    -0.00000318    0.00000040   -0.00000139
     atom  102 type  1   force =    -0.00000366    0.00000074   -0.00000134
     atom  103 type  1   force =    -0.00000417    0.00000051   -0.00000136
     atom  104 type  1   force =    -0.00000336    0.00000011   -0.00000119
     atom  105 type  2   force =     0.00000225   -0.00000372   -0.00000024
     atom  106 type  2   force =     0.00000174   -0.00000278   -0.00000023
     atom  107 type  2   force =     0.00000181   -0.00000246   -0.00000002
     atom  108 type  2   force =     0.00000242   -0.00000367   -0.00000004
     atom  109 type  2   force =     0.00000149   -0.00000269   -0.00000014
     atom  110 type  2   force =     0.00000222   -0.00000380   -0.00000026
     atom  111 type  2   force =     0.00000230   -0.00000379    0.00000002
     atom  112 type  2   force =     0.00000159   -0.00000282   -0.00000017
     atom  113 type  3   force =    -0.00000008    0.00000053    0.00000004
     atom  114 type  3   force =     0.00000001    0.00000043   -0.00000000
     atom  115 type  3   force =    -0.00000002    0.00000049    0.00000006
     atom  116 type  3   force =    -0.00000010    0.00000053    0.00000005
     atom  117 type  3   force =    -0.00000004    0.00000044    0.00000003
     atom  118 type  3   force =    -0.00000010    0.00000051    0.00000004
     atom  119 type  3   force =    -0.00000008    0.00000052    0.00000009
     atom  120 type  3   force =    -0.00000006    0.00000045    0.00000002
     atom  121 type  1   force =    -0.00000638    0.00000456   -0.00000111
     atom  122 type  1   force =    -0.00000462    0.00000512   -0.00000138
     atom  123 type  1   force =    -0.00000494    0.00000481   -0.00000145
     atom  124 type  1   force =    -0.00000578    0.00000425   -0.00000140
     atom  125 type  1   force =    -0.00000731    0.00000543   -0.00000145
     atom  126 type  1   force =    -0.00000621    0.00000405   -0.00000106
     atom  127 type  1   force =    -0.00000477    0.00000444   -0.00000146
     atom  128 type  1   force =    -0.00000498    0.00000520   -0.00000178
     atom  129 type  1   force =    -0.00000823   -0.00000033    0.00000141
     atom  130 type  1   force =    -0.00000702    0.00000064    0.00000095
     atom  131 type  1   force =    -0.00000647   -0.00000027    0.00000124
     atom  132 type  1   force =    -0.00000782   -0.00000091    0.00000142
     atom  133 type  1   force =    -0.00000879    0.00000124    0.00000060
     atom  134 type  1   force =    -0.00000774   -0.00000112    0.00000167
     atom  135 type  1   force =    -0.00000747   -0.00000059    0.00000133
     atom  136 type  1   force =    -0.00000669   -0.00000020    0.00000108
     atom  137 type  2   force =     0.00000094   -0.00000271    0.00000132
     atom  138 type  2   force =     0.00000039   -0.00000180    0.00000121
     atom  139 type  2   force =     0.00000008   -0.00000149    0.00000120
     atom  140 type  2   force =     0.00000053   -0.00000247    0.00000094
     atom  141 type  2   force =     0.00000133   -0.00000135    0.00000106
     atom  142 type  2   force =     0.00000087   -0.00000238    0.00000123
     atom  143 type  2   force =     0.00000045   -0.00000248    0.00000103
     atom  144 type  2   force =     0.00000007   -0.00000162    0.00000101
     atom  145 type  2   force =     0.00000222   -0.00000280    0.00000229
     atom  146 type  2   force =     0.00000236   -0.00000174    0.00000182
     atom  147 type  2   force =     0.00000191   -0.00000174    0.00000186
     atom  148 type  2   force =     0.00000221   -0.00000246    0.00000175
     atom  149 type  2   force =     0.00000222   -0.00000158    0.00000172
     atom  150 type  2   force =     0.00000214   -0.00000295    0.00000229
     atom  151 type  2   force =     0.00000257   -0.00000266    0.00000193
     atom  152 type  2   force =     0.00000204   -0.00000149    0.00000157
     atom  153 type  2   force =     0.00000324   -0.00000075    0.00000151
     atom  154 type  2   force =     0.00000318   -0.00000134    0.00000155
     atom  155 type  2   force =     0.00000267   -0.00000166    0.00000135
     atom  156 type  2   force =     0.00000228   -0.00000111    0.00000126
     atom  157 type  2   force =     0.00000303   -0.00000159    0.00000166
     atom  158 type  2   force =     0.00000242   -0.00000105    0.00000140
     atom  159 type  2   force =     0.00000223   -0.00000107    0.00000138
     atom  160 type  2   force =     0.00000267   -0.00000161    0.00000129
     atom  161 type  3   force =     0.00000060    0.00000016    0.00000066
     atom  162 type  3   force =     0.00000057    0.00000017    0.00000068
     atom  163 type  3   force =     0.00000050    0.00000004    0.00000065
     atom  164 type  3   force =     0.00000036    0.00000009    0.00000057
     atom  165 type  3   force =     0.00000054    0.00000009    0.00000072
     atom  166 type  3   force =     0.00000042    0.00000016    0.00000061
     atom  167 type  3   force =     0.00000037    0.00000006    0.00000061
     atom  168 type  3   force =     0.00000046    0.00000008    0.00000063
     atom  169 type  2   force =    -0.00000009   -0.00000324   -0.00000129
     atom  170 type  2   force =    -0.00000034   -0.00000251   -0.00000120
     atom  171 type  2   force =    -0.00000009   -0.00000227   -0.00000110
     atom  172 type  2   force =    -0.00000009   -0.00000338   -0.00000107
     atom  173 type  2   force =    -0.00000032   -0.00000240   -0.00000115
     atom  174 type  2   force =    -0.00000014   -0.00000339   -0.00000128
     atom  175 type  2   force =    -0.00000026   -0.00000365   -0.00000111
     atom  176 type  2   force =    -0.00000046   -0.00000272   -0.00000115
     atom  177 type  3   force =    -0.00000057   -0.00000040   -0.00000033
     atom  178 type  3   force =    -0.00000047   -0.00000030   -0.00000033
     atom  179 type  3   force =    -0.00000041   -0.00000029   -0.00000031
     atom  180 type  3   force =    -0.00000059   -0.00000042   -0.00000028
     atom  181 type  3   force =    -0.00000043   -0.00000027   -0.00000032
     atom  182 type  3   force =    -0.00000058   -0.00000043   -0.00000032
     atom  183 type  3   force =    -0.00000061   -0.00000046   -0.00000030
     atom  184 type  3   force =    -0.00000050   -0.00000033   -0.00000031
     atom  185 type  1   force =    -0.00000041   -0.00000660    0.00000550
     atom  186 type  1   force =     0.00000039   -0.00000573    0.00000493
     atom  187 type  1   force =     0.00000094   -0.00000564    0.00000495
     atom  188 type  1   force =     0.00000049   -0.00000642    0.00000488
     atom  189 type  1   force =    -0.00000121   -0.00000575    0.00000510
     atom  190 type  1   force =     0.00000027   -0.00000666    0.00000527
     atom  191 type  1   force =     0.00000077   -0.00000672    0.00000510
     atom  192 type  1   force =     0.00000109   -0.00000540    0.00000464
     atom  193 type  1   force =    -0.00000941   -0.00001035    0.00000868
     atom  194 type  1   force =    -0.00000769   -0.00000841    0.00000741
     atom  195 type  1   force =    -0.00000709   -0.00000861    0.00000762
     atom  196 type  1   force =    -0.00000839   -0.00000985    0.00000791
     atom  197 type  1   force =    -0.00000940   -0.00000981    0.00000841
     atom  198 type  1   force =    -0.00000910   -0.00001047    0.00000855
     atom  199 type  1   force =    -0.00000846   -0.00000945    0.00000785
     atom  200 type  1   force =    -0.00000697   -0.00000847    0.00000731
     atom  201 type  2   force =     0.00000512   -0.00000296   -0.00000054
     atom  202 type  2   force =     0.00000423   -0.00000221   -0.00000046
     atom  203 type  2   force =     0.00000377   -0.00000183   -0.00000054
     atom  204 type  2   force =     0.00000460   -0.00000263   -0.00000078
     atom  205 type  2   force =     0.00000475   -0.00000205   -0.00000084
     atom  206 type  2   force =     0.00000507   -0.00000271   -0.00000057
     atom  207 type  2   force =     0.00000452   -0.00000243   -0.00000072
     atom  208 type  2   force =     0.00000404   -0.00000189   -0.00000069
     atom  209 type  3   force =     0.00000101   -0.00000034   -0.00000022
     atom  210 type  3   force =     0.00000090   -0.00000028   -0.00000021
     atom  211 type  3   force =     0.00000068   -0.00000023   -0.00000025
     atom  212 type  3   force =     0.00000086   -0.00000031   -0.00000024
     atom  213 type  3   force =     0.00000095   -0.00000032   -0.00000037
     atom  214 type  3   force =     0.00000087   -0.00000034   -0.00000021
     atom  215 type  3   force =     0.00000091   -0.00000024   -0.00000025
     atom  216 type  3   force =     0.00000081   -0.00000021   -0.00000030
     atom  217 type  1   force =     0.00000373   -0.00000094   -0.00000133
     atom  218 type  1   force =     0.00000286   -0.00000067   -0.00000119
     atom  219 type  1   force =     0.00000302   -0.00000027   -0.00000130
     atom  220 type  1   force =     0.00000375   -0.00000061   -0.00000148
     atom  221 type  1   force =     0.00000360   -0.00000051   -0.00000145
     atom  222 type  1   force =     0.00000427   -0.00000051   -0.00000125
     atom  223 type  1   force =     0.00000366   -0.00000044   -0.00000149
     atom  224 type  1   force =     0.00000305   -0.00000043   -0.00000137
     atom  225 type  2   force =    -0.00000226    0.00000378   -0.00000014
     atom  226 type  2   force =    -0.00000162    0.00000270   -0.00000022
     atom  227 type  2   force =    -0.00000178    0.00000286   -0.00000002
     atom  228 type  2   force =    -0.00000240    0.00000353   -0.00000013
     atom  229 type  2   force =    -0.00000189    0.00000285   -0.00000010
     atom  230 type  2   force =    -0.00000223    0.00000366   -0.00000016
     atom  231 type  2   force =    -0.00000210    0.00000386   -0.00000007
     atom  232 type  2   force =    -0.00000174    0.00000289   -0.00000016
     atom  233 type  3   force =     0.00000011   -0.00000053    0.00000003
     atom  234 type  3   force =     0.00000003   -0.00000045   -0.00000000
     atom  235 type  3   force =    -0.00000001   -0.00000043    0.00000005
     atom  236 type  3   force =     0.00000009   -0.00000054    0.00000007
     atom  237 type  3   force =    -0.00000000   -0.00000045    0.00000003
     atom  238 type  3   force =     0.00000009   -0.00000055    0.00000003
     atom  239 type  3   force =     0.00000010   -0.00000053    0.00000009
     atom  240 type  3   force =     0.00000001   -0.00000042    0.00000002
     atom  241 type  1   force =    -0.00000515   -0.00000685    0.00000142
     atom  242 type  1   force =    -0.00000461   -0.00000686    0.00000137
     atom  243 type  1   force =    -0.00000463   -0.00000771    0.00000068
     atom  244 type  1   force =    -0.00000472   -0.00000559    0.00000098
     atom  245 type  1   force =    -0.00000520   -0.00000785    0.00000103
     atom  246 type  1   force =    -0.00000505   -0.00000611    0.00000114
     atom  247 type  1   force =    -0.00000532   -0.00000605    0.00000153
     atom  248 type  1   force =    -0.00000517   -0.00000831    0.00000102
     atom  249 type  1   force =    -0.00000074   -0.00000876   -0.00000086
     atom  250 type  1   force =    -0.00000068   -0.00000934   -0.00000067
     atom  251 type  1   force =    -0.00000079   -0.00000998   -0.00000117
     atom  252 type  1   force =    -0.00000052   -0.00000704   -0.00000108
     atom  253 type  1   force =    -0.00000005   -0.00000942   -0.00000144
     atom  254 type  1   force =    -0.00000091   -0.00000824   -0.00000085
     atom  255 type  1   force =    -0.00000153   -0.00000849   -0.00000042
     atom  256 type  1   force =    -0.00000084   -0.00001015   -0.00000110
     atom  257 type  2   force =     0.00000207    0.00000099   -0.00000097
     atom  258 type  2   force =     0.00000253    0.00000135   -0.00000093
     atom  259 type  2   force =     0.00000234    0.00000160   -0.00000133
     atom  260 type  2   force =     0.00000147    0.00000052   -0.00000122
     atom  261 type  2   force =     0.00000216    0.00000167   -0.00000136
     atom  262 type  2   force =     0.00000182    0.00000055   -0.00000099
     atom  263 type  2   force =     0.00000140    0.00000067   -0.00000093
     atom  264 type  2   force =     0.00000218    0.00000147   -0.00000113
     atom  265 type  2   force =     0.00000166    0.00000220   -0.00000149
     atom  266 type  2   force =     0.00000210    0.00000230   -0.00000156
     atom  267 type  2   force =     0.00000204    0.00000230   -0.00000194
     atom  268 type  2   force =     0.00000121    0.00000148   -0.00000164
     atom  269 type  2   force =     0.00000199    0.00000207   -0.00000203
     atom  270 type  2   force =     0.00000158    0.00000224   -0.00000152
     atom  271 type  2   force =     0.00000095    0.00000199   -0.00000121
     atom  272 type  2   force =     0.00000177    0.00000198   -0.00000174
     atom  273 type  2   force =     0.00000117    0.00000289   -0.00000134
     atom  274 type  2   force =     0.00000124    0.00000334   -0.00000134
     atom  275 type  2   force =     0.00000099    0.00000362   -0.00000157
     atom  276 type  2   force =     0.00000052    0.00000257   -0.00000136
     atom  277 type  2   force =     0.00000114    0.00000352   -0.00000162
     atom  278 type  2   force =     0.00000107    0.00000244   -0.00000131
     atom  279 type  2   force =     0.00000067    0.00000267   -0.00000119
     atom  280 type  2   force =     0.00000103    0.00000341   -0.00000147
     atom  281 type  3   force =    -0.00000013    0.00000050   -0.00000064
     atom  282 type  3   force =    -0.00000022    0.00000058   -0.00000064
     atom  283 type  3   force =    -0.00000029    0.00000062   -0.00000065
     atom  284 type  3   force =    -0.00000021    0.00000041   -0.00000056
     atom  285 type  3   force =    -0.00000017    0.00000064   -0.00000067
     atom  286 type  3   force =    -0.00000012    0.00000041   -0.00000060
     atom  287 type  3   force =    -0.00000016    0.00000044   -0.00000054
     atom  288 type  3   force =    -0.00000020    0.00000058   -0.00000064
     atom  289 type  2   force =     0.00000283   -0.00000026    0.00000131
     atom  290 type  2   force =     0.00000340   -0.00000015    0.00000128
     atom  291 type  2   force =     0.00000320    0.00000017    0.00000105
     atom  292 type  2   force =     0.00000256   -0.00000021    0.00000104
     atom  293 type  2   force =     0.00000320    0.00000009    0.00000120
     atom  294 type  2   force =     0.00000289   -0.00000038    0.00000118
     atom  295 type  2   force =     0.00000263   -0.00000017    0.00000121
     atom  296 type  2   force =     0.00000331    0.00000019    0.00000106
     atom  297 type  3   force =     0.00000031   -0.00000045    0.00000033
     atom  298 type  3   force =     0.00000039   -0.00000059    0.00000032
     atom  299 type  3   force =     0.00000035   -0.00000056    0.00000028
     atom  300 type  3   force =     0.00000029   -0.00000040    0.00000029
     atom  301 type  3   force =     0.00000037   -0.00000057    0.00000034
     atom  302 type  3   force =     0.00000035   -0.00000042    0.00000030
     atom  303 type  3   force =     0.00000031   -0.00000042    0.00000031
     atom  304 type  3   force =     0.00000037   -0.00000052    0.00000027
     atom  305 type  1   force =     0.00000607   -0.00000059   -0.00000496
     atom  306 type  1   force =     0.00000622   -0.00000119   -0.00000494
     atom  307 type  1   force =     0.00000602   -0.00000175   -0.00000526
     atom  308 type  1   force =     0.00000508   -0.00000017   -0.00000460
     atom  309 type  1   force =     0.00000596   -0.00000072   -0.00000520
     atom  310 type  1   force =     0.00000581   -0.00000056   -0.00000479
     atom  311 type  1   force =     0.00000536   -0.00000082   -0.00000458
     atom  312 type  1   force =     0.00000579   -0.00000167   -0.00000503
     atom  313 type  1   force =     0.00000999   -0.00000873   -0.00000834
     atom  314 type  1   force =     0.00001004   -0.00000971   -0.00000812
     atom  315 type  1   force =     0.00001037   -0.00001036   -0.00000864
     atom  316 type  1   force =     0.00000818   -0.00000715   -0.00000712
     atom  317 type  1   force =     0.00001089   -0.00000972   -0.00000898
     atom  318 type  1   force =     0.00000915   -0.00000852   -0.00000775
     atom  319 type  1   force =     0.00000846   -0.00000825   -0.00000724
     atom  320 type  1   force =     0.00001057   -0.00001024   -0.00000887
     atom  321 type  2   force =     0.00000250    0.00000467    0.00000075
     atom  322 type  2   force =     0.00000303    0.00000531    0.00000074
     atom  323 type  2   force =     0.00000307    0.00000550    0.00000039
     atom  324 type  2   force =     0.00000227    0.00000424    0.00000038
     atom  325 type  2   force =     0.00000275    0.00000558    0.00000057
     atom  326 type  2   force =     0.00000228    0.00000436    0.00000061
     atom  327 type  2   force =     0.00000234    0.00000451    0.00000064
     atom  328 type  2   force =     0.00000297    0.00000552    0.00000055
     atom  329 type  3   force =     0.00000031    0.00000094    0.00000029
     atom  330 type  3   force =     0.00000039    0.00000105    0.00000024
     atom  331 type  3   force =     0.00000044    0.00000106    0.00000017
     atom  332 type  3   force =     0.00000028    0.00000082    0.00000020
     atom  333 type  3   force =     0.00000033    0.00000113    0.00000029
     atom  334 type  3   force =     0.00000025    0.00000090    0.00000025
     atom  335 type  3   force =     0.00000033    0.00000088    0.00000025
     atom  336 type  3   force =     0.00000038    0.00000109    0.00000024
     atom  337 type  1   force =     0.00000066    0.00000312    0.00000150
     atom  338 type  1   force =     0.00000081    0.00000381    0.00000145
     atom  339 type  1   force =     0.00000066    0.00000429    0.00000106
     atom  340 type  1   force =     0.00000072    0.00000319    0.00000107
     atom  341 type  1   force =     0.00000062    0.00000433    0.00000138
     atom  342 type  1   force =     0.00000079    0.00000296    0.00000138
     atom  343 type  1   force =     0.00000072    0.00000337    0.00000135
     atom  344 type  1   force =     0.00000076    0.00000426    0.00000115
     atom  345 type  2   force =    -0.00000280   -0.00000180    0.00000021
     atom  346 type  2   force =    -0.00000365   -0.00000262    0.00000023
     atom  347 type  2   force =    -0.00000324   -0.00000225    0.00000012
     atom  348 type  2   force =    -0.00000265   -0.00000189    0.00000020
     atom  349 type  2   force =    -0.00000376   -0.00000262    0.00000020
     atom  350 type  2   force =    -0.00000290   -0.00000191    0.00000015
     atom  351 type  2   force =    -0.00000268   -0.00000184    0.00000035
     atom  352 type  2   force =    -0.00000342   -0.00000242    0.00000001
     atom  353 type  3   force =     0.00000048    0.00000008    0.00000001
     atom  354 type  3   force =     0.00000053    0.00000009   -0.00000002
     atom  355 type  3   force =     0.00000052    0.00000013   -0.00000002
     atom  356 type  3   force =     0.00000038    0.00000002    0.00000000
     atom  357 type  3   force =     0.00000051    0.00000011   -0.00000002
     atom  358 type  3   force =     0.00000045    0.00000002   -0.00000004
     atom  359 type  3   force =     0.00000043    0.00000003    0.00000003
     atom  360 type  3   force =     0.00000052    0.00000014   -0.00000003
     atom  361 type  1   force =     0.00000525    0.00000612    0.00000143
     atom  362 type  1   force =     0.00000493    0.00000697    0.00000092
     atom  363 type  1   force =     0.00000422    0.00000772    0.00000069
     atom  364 type  1   force =     0.00000471    0.00000521    0.00000113
     atom  365 type  1   force =     0.00000574    0.00000693    0.00000182
     atom  366 type  1   force =     0.00000501    0.00000587    0.00000130
     atom  367 type  1   force =     0.00000482    0.00000606    0.00000104
     atom  368 type  1   force =     0.00000499    0.00000707    0.00000121
     atom  369 type  1   force =    -0.00000075    0.00000907   -0.00000172
     atom  370 type  1   force =     0.00000078    0.00000763   -0.00000092
     atom  371 type  1   force =     0.00000120    0.00000825   -0.00000048
     atom  372 type  1   force =    -0.00000023    0.00000876   -0.00000159
     atom  373 type  1   force =     0.00000079    0.00000808   -0.00000098
     atom  374 type  1   force =     0.00000130    0.00001014   -0.00000071
     atom  375 type  1   force =     0.00000331    0.00001102    0.00000052
     atom  376 type  1   force =     0.00000181    0.00000833   -0.00000021
     atom  377 type  2   force =    -0.00000259   -0.00000136   -0.00000110
     atom  378 type  2   force =    -0.00000195   -0.00000040   -0.00000113
     atom  379 type  2   force =    -0.00000171   -0.00000075   -0.00000120
     atom  380 type  2   force =    -0.00000202   -0.00000120   -0.00000136
     atom  381 type  2   force =    -0.00000188   -0.00000077   -0.00000110
     atom  382 type  2   force =    -0.00000239   -0.00000146   -0.00000109
     atom  383 type  2   force =    -0.00000184   -0.00000154   -0.00000112
     atom  384 type  2   force =    -0.00000148   -0.00000072   -0.00000102
     atom  385 type  2   force =    -0.00000255   -0.00000185   -0.00000203
     atom  386 type  2   force =    -0.00000145   -0.00000197   -0.00000154
     atom  387 type  2   force =    -0.00000149   -0.00000218   -0.00000159
     atom  388 type  2   force =    -0.00000203   -0.00000222   -0.00000200
     atom  389 type  2   force =    -0.00000182   -0.00000206   -0.00000177
     atom  390 type  2   force =    -0.00000186   -0.00000253   -0.00000163
     atom  391 type  2   force =    -0.00000124   -0.00000281   -0.00000133
     atom  392 type  2   force =    -0.00000080   -0.00000167   -0.00000123
     atom  393 type  2   force =    -0.00000126   -0.00000349   -0.00000140
     atom  394 type  2   force =    -0.00000091   -0.00000245   -0.00000131
     atom  395 type  2   force =    -0.00000082   -0.00000278   -0.00000140
     atom  396 type  2   force =    -0.00000110   -0.00000323   -0.00000159
     atom  397 type  2   force =    -0.00000105   -0.00000286   -0.00000139
     atom  398 type  2   force =    -0.00000123   -0.00000348   -0.00000146
     atom  399 type  2   force =    -0.00000095   -0.00000350   -0.00000160
     atom  400 type  2   force =    -0.00000071   -0.00000274   -0.00000120
     atom  401 type  3   force =     0.00000017   -0.00000061   -0.00000065
     atom  402 type  3   force =     0.00000019   -0.00000041   -0.00000059
     atom  403 type  3   force =     0.00000017   -0.00000047   -0.00000059
     atom  404 type  3   force =     0.00000017   -0.00000059   -0.00000066
     atom  405 type  3   force =     0.00000014   -0.00000049   -0.00000064
     atom  406 type  3   force =     0.00000020   -0.00000060   -0.00000065
     atom  407 type  3   force =     0.00000022   -0.00000062   -0.00000066
     atom  408 type  3   force =     0.00000016   -0.00000041   -0.00000055
     atom  409 type  2   force =    -0.00000287    0.00000032    0.00000116
     atom  410 type  2   force =    -0.00000337   -0.00000010    0.00000116
     atom  411 type  2   force =    -0.00000291    0.00000010    0.00000122
     atom  412 type  2   force =    -0.00000253    0.00000022    0.00000117
     atom  413 type  2   force =    -0.00000342   -0.00000009    0.00000114
     atom  414 type  2   force =    -0.00000279    0.00000025    0.00000110
     atom  415 type  2   force =    -0.00000262    0.00000015    0.00000128
     atom  416 type  2   force =    -0.00000321   -0.00000013    0.00000103
     atom  417 type  3   force =    -0.00000034    0.00000044    0.00000030
     atom  418 type  3   force =    -0.00000039    0.00000057    0.00000030
     atom  419 type  3   force =    -0.00000030    0.00000057    0.00000035
     atom  420 type  3   force =    -0.00000027    0.00000042    0.00000033
     atom  421 type  3   force =    -0.00000041    0.00000059    0.00000028
     atom  422 type  3   force =    -0.00000033    0.00000046    0.00000028
     atom  423 type  3   force =    -0.00000031    0.00000041    0.00000034
     atom  424 type  3   force =    -0.00000039    0.00000054    0.00000028
     atom  425 type  1   force =    -0.00000624    0.00000075   -0.00000499
     atom  426 type  1   force =    -0.00000561    0.00000017   -0.00000480
     atom  427 type  1   force =    -0.00000563    0.00000089   -0.00000472
     atom  428 type  1   force =    -0.00000609    0.00000023   -0.00000505
     atom  429 type  1   force =    -0.00000598    0.00000066   -0.00000511
     atom  430 type  1   force =    -0.00000621    0.00000156   -0.00000528
     atom  431 type  1   force =    -0.00000603    0.00000287   -0.00000534
     atom  432 type  1   force =    -0.00000487    0.00000128   -0.00000453
     atom  433 type  1   force =    -0.00001091    0.00000972   -0.00000875
     atom  434 type  1   force =    -0.00000839    0.00000767   -0.00000735
     atom  435 type  1   force =    -0.00000904    0.00000860   -0.00000752
     atom  436 type  1   force =    -0.00001038    0.00000904   -0.00000856
     atom  437 type  1   force =    -0.00000920    0.00000860   -0.00000799
     atom  438 type  1   force =    -0.00000998    0.00001030   -0.00000839
     atom  439 type  1   force =    -0.00000912    0.00001105   -0.00000789
     atom  440 type  1   force =    -0.00000789    0.00000799   -0.00000691
     atom  441 type  2   force =    -0.00000320   -0.00000527    0.00000053
     atom  442 type  2   force =    -0.00000248   -0.00000426    0.00000041
     atom  443 type  2   force =    -0.00000226   -0.00000448    0.00000051
     atom  444 type  2   force =    -0.00000250   -0.00000511    0.00000055
     atom  445 type  2   force =    -0.00000243   -0.00000459    0.00000057
     atom  446 type  2   force =    -0.00000310   -0.00000560    0.00000064
     atom  447 type  2   force =    -0.00000278   -0.00000568    0.00000071
     atom  448 type  2   force =    -0.00000253   -0.00000449    0.00000053
     atom  449 type  3   force =    -0.00000029   -0.00000091    0.00000025
     atom  450 type  3   force =    -0.00000031   -0.00000100    0.00000026
     atom  451 type  3   force =    -0.00000041   -0.00000104    0.00000018
     atom  452 type  3   force =    -0.00000028   -0.00000085    0.00000018
     atom  453 type  3   force =    -0.00000042   -0.00000112    0.00000029
     atom  454 type  3   force =    -0.00000038   -0.00000087    0.00000021
     atom  455 type  3   force =    -0.00000032   -0.00000090    0.00000025
     atom  456 type  3   force =    -0.00000043   -0.00000113    0.00000024
     atom  457 type  1   force =    -0.00000053   -0.00000315    0.00000127
     atom  458 type  1   force =    -0.00000043   -0.00000391    0.00000142
     atom  459 type  1   force =    -0.00000092   -0.00000407    0.00000120
     atom  460 type  1   force =    -0.00000081   -0.00000291    0.00000125
     atom  461 type  1   force =    -0.00000058   -0.00000444    0.00000126
     atom  462 type  1   force =    -0.00000078   -0.00000339    0.00000134
     atom  463 type  1   force =    -0.00000072   -0.00000335    0.00000122
     atom  464 type  1   force =    -0.00000081   -0.00000425    0.00000124
     atom  465 type  2   force =     0.00000302    0.00000197    0.00000029
     atom  466 type  2   force =     0.00000359    0.00000241    0.00000026
     atom  467 type  2   force =     0.00000352    0.00000270    0.00000012
     atom  468 type  2   force =     0.00000236    0.00000172    0.00000014
     atom  469 type  2   force =     0.00000352    0.00000247    0.00000015
     atom  470 type  2   force =     0.00000285    0.00000161    0.00000017
     atom  471 type  2   force =     0.00000260    0.00000178    0.00000029
     atom  472 type  2   force =     0.00000351    0.00000260    0.00000013
     atom  473 type  3   force =    -0.00000041   -0.00000004   -0.00000001
     atom  474 type  3   force =    -0.00000054   -0.00000013   -0.00000002
     atom  475 type  3   force =    -0.00000049   -0.00000008   -0.00000002
     atom  476 type  3   force =    -0.00000043   -0.00000005    0.00000001
     atom  477 type  3   force =    -0.00000056   -0.00000011   -0.00000002
     atom  478 type  3   force =    -0.00000047   -0.00000005   -0.00000003
     atom  479 type  3   force =    -0.00000046   -0.00000003    0.00000004
     atom  480 type  3   force =    -0.00000051   -0.00000008   -0.00000005
     atom  481 type  4   force =     0.00000075    0.00000028   -0.00000060
     atom  482 type  4   force =     0.00000276    0.00000126   -0.00000096
     atom  483 type  4   force =     0.00000041   -0.00000010   -0.00000380
     atom  484 type  4   force =    -0.00000050   -0.00000206   -0.00000217
     atom  485 type  4   force =    -0.00000323    0.00000066   -0.00000082
     atom  486 type  4   force =    -0.00000110   -0.00000155   -0.00000339
     atom  487 type  4   force =     0.00000138    0.00000059   -0.00000205
     atom  488 type  4   force =    -0.00000099    0.00000020   -0.00000325
     atom  489 type  4   force =     0.00000026   -0.00000065   -0.00000103
     atom  490 type  4   force =     0.00000103   -0.00000017   -0.00000033
     atom  491 type  4   force =    -0.00000030    0.00000018    0.00000008
     atom  492 type  4   force =    -0.00000019    0.00000148   -0.00000010
     atom  493 type  4   force =    -0.00000113    0.00000062    0.00000041
     atom  494 type  4   force =     0.00000042   -0.00000045    0.00000023
     atom  495 type  4   force =     0.00000065    0.00000044    0.00000128
     atom  496 type  4   force =    -0.00000048   -0.00000085    0.00000097

     Total force =     0.011509     Total SCF correction =     0.000131


     Computing stress (Cartesian axis) and pressure

          total   stress  (Ry/bohr**3)                   (kbar)     P=       -2.02
  -0.00001479   0.00000015   0.00000003           -2.18        0.02        0.00
   0.00000015  -0.00001437   0.00000002            0.02       -2.11        0.00
   0.00000003   0.00000002  -0.00001208            0.00        0.00       -1.78

     kinetic stress (kbar)  10030.29      0.04      0.07
                                0.04  10030.35     -0.01
                                0.07     -0.01  10716.52

     local   stress (kbar) -23379.53     -0.57      2.05
                               -0.57 -23377.49     -0.18
                                2.05     -0.18  -2297.27

     nonloc. stress (kbar)   2420.51     -0.00      0.00
                               -0.00   2420.53     -0.00
                                0.00     -0.00   2341.33

     hartree stress (kbar)  13178.88      0.27     -0.80
                                0.27  13177.94      0.04
                               -0.80      0.04   6149.18

     exc-cor stress (kbar)  -1776.01      0.00     -0.00
                                0.00  -1776.01      0.00
                               -0.00      0.00  -1797.57

     corecor stress (kbar)  -1052.43     -0.00      0.00
                               -0.00  -1052.43     -0.00
                                0.00     -0.00  -1036.21

     ewald   stress (kbar)    576.11      0.28     -1.31
                                0.28    575.00      0.15
                               -1.31      0.15 -14077.76

     hubbard stress (kbar)      0.00      0.00      0.00
                                0.00      0.00      0.00
                                0.00      0.00      0.00

     DFT-D   stress (kbar)      0.00      0.00      0.00
                                0.00      0.00      0.00
                                0.00      0.00      0.00

     XDM     stress (kbar)      0.00      0.00      0.00
                                0.00      0.00      0.00
                                0.00      0.00      0.00

     dft-nl  stress (kbar)      0.00      0.00      0.00
                                0.00      0.00      0.00
                                0.00      0.00      0.00

     TS-vdW  stress (kbar)      0.00      0.00      0.00
                                0.00      0.00      0.00
                                0.00      0.00      0.00

     MDB     stress (kbar)      0.00      0.00      0.00
                                0.00      0.00      0.00
                                0.00      0.00      0.00

     3D-RISM stress (kbar)      0.00      0.00      0.00
                                0.00      0.00      0.00
                                0.00      0.00      0.00


     init_run     :    155.52s CPU    160.27s WALL (       1 calls)
     electrons    :   6596.44s CPU   6751.00s WALL (       1 calls)
     forces       :     78.38s CPU     82.04s WALL (       1 calls)
     stress       :   1684.22s CPU   1700.74s WALL (       1 calls)

     Called by init_run:
     wfcinit      :    144.54s CPU    148.39s WALL (       1 calls)
     wfcinit:atom :      0.15s CPU      0.29s WALL (       1 calls)
     wfcinit:wfcr :    142.84s CPU    146.08s WALL (       1 calls)
     potinit      :      4.19s CPU      4.24s WALL (       1 calls)
     hinit0       :      3.71s CPU      3.76s WALL (       1 calls)

     Called by electrons:
     c_bands      :   6041.22s CPU   6155.73s WALL (      19 calls)
     sum_band     :    507.64s CPU    534.65s WALL (      19 calls)
     v_of_rho     :      5.95s CPU      6.20s WALL (      20 calls)
     v_h          :      0.42s CPU      0.45s WALL (      20 calls)
     v_xc         :      6.07s CPU      6.32s WALL (      22 calls)
     newd         :     27.55s CPU     40.68s WALL (      20 calls)
     PAW_pot      :     13.60s CPU     13.64s WALL (      20 calls)
     mix_rho      :      1.87s CPU      2.09s WALL (      19 calls)

     Called by c_bands:
     init_us_2    :     11.20s CPU     12.52s WALL (      39 calls)
     init_us_2:cp :     11.20s CPU     12.52s WALL (      39 calls)
     cegterg      :   6015.63s CPU   6128.15s WALL (      19 calls)

     Called by sum_band:
     sum_band:wei :      0.00s CPU      0.00s WALL (      19 calls)
     sum_band:loo :    482.14s CPU    494.21s WALL (      19 calls)
     sum_band:buf :      0.00s CPU      0.00s WALL (      19 calls)
     sum_band:ini :      5.29s CPU      5.83s WALL (      19 calls)
     sum_band:cal :    279.59s CPU    283.14s WALL (      19 calls)
     sum_band:bec :      0.87s CPU      0.87s WALL (      19 calls)
     addusdens    :     21.62s CPU     35.27s WALL (      19 calls)
                                        0.00s GPU  (      19 calls)
     addusd:skk   :      5.72s CPU     11.81s WALL (      76 calls)
                                        0.00s GPU  (      76 calls)

     Called by *egterg:
     cdiaghg      :    553.08s CPU    557.71s WALL (     104 calls)
     cegterg:over :    711.45s CPU    717.03s WALL (      85 calls)
     cegterg:upda :    363.38s CPU    368.22s WALL (      85 calls)
     cegterg:last :    877.91s CPU    887.49s WALL (      46 calls)
     cdiaghg:chol :     13.71s CPU     13.74s WALL (     104 calls)
     cdiaghg:inve :      2.28s CPU      2.28s WALL (     104 calls)
     cdiaghg:para :     46.91s CPU     48.83s WALL (     208 calls)
     h_psi        :   2707.95s CPU   2781.22s WALL (     105 calls)
     s_psi        :    697.66s CPU    703.47s WALL (     105 calls)
     g_psi        :      2.87s CPU      2.89s WALL (      85 calls)

     Called by h_psi:
     h_psi:calbec :    855.19s CPU    867.02s WALL (     105 calls)
     vloc_psi     :   1136.47s CPU   1189.29s WALL (     105 calls)
     add_vuspsi   :    713.62s CPU    719.38s WALL (     105 calls)

     General routines
     calbec       :   1208.05s CPU   1224.06s WALL (     129 calls)
     fft          :      8.89s CPU      9.30s WALL (     283 calls)
     ffts         :      0.71s CPU      0.82s WALL (      39 calls)
     fftw         :   1247.66s CPU   1306.64s WALL (  134036 calls)
     interpolate  :      0.82s CPU      0.87s WALL (      20 calls)

     Parallel routines

     PAW routines
     PAW_pot      :     13.60s CPU     13.64s WALL (      20 calls)

     PWSCF        :      2h21m CPU      2h24m WALL


   This run was terminated on:   1:33: 7  22May2025            

=------------------------------------------------------------------------------=
   JOB DONE.
=------------------------------------------------------------------------------=
